# Lorenzo Manunza 14th April 2025

11100 atoms
1 atom types

-79.32642 79.32642 xlo xhi
-45.79913 45.79913 ylo yhi
-10001.67500 9998.32500 zlo zhi

Masses

1 12.011 # C

Atoms

    1 1  26.442139 -4.579913e+01 -1.675
    2 1  23.982848 -4.576611e+01 -1.675
    3 1  21.523558 -4.573309e+01 -1.675
    4 1  19.064267 -4.570007e+01 -1.675
    5 1  16.604977 -4.566705e+01 -1.675
    6 1  14.145686 -4.563403e+01 -1.675
    7 1  11.686396 -4.560101e+01 -1.675
    8 1   9.227105 -4.556799e+01 -1.675
    9 1   6.767815 -4.553497e+01 -1.675
   10 1   4.308524 -4.550195e+01 -1.675
   11 1   1.849234 -4.546892e+01 -1.675
   12 1  -0.610057 -4.543590e+01 -1.675
   13 1  -3.069347 -4.540288e+01 -1.675
   14 1  -5.528638 -4.536986e+01 -1.675
   15 1  -7.987928 -4.533684e+01 -1.675
   16 1 -10.447218 -4.530382e+01 -1.675
   17 1 -12.906509 -4.527080e+01 -1.675
   18 1 -15.365799 -4.523778e+01 -1.675
   19 1 -17.825090 -4.520476e+01 -1.675
   20 1 -20.284380 -4.517174e+01 -1.675
   21 1 -22.743671 -4.513872e+01 -1.675
   22 1 -26.442139 -4.579913e+01 -1.675
   23 1 -25.202961 -4.510570e+01 -1.675
   24 1 -28.901429 -4.576611e+01 -1.675
   25 1 -27.662252 -4.507268e+01 -1.675
   26 1 -31.360720 -4.573309e+01 -1.675
   27 1 -30.121542 -4.503966e+01 -1.675
   28 1 -33.820010 -4.570007e+01 -1.675
   29 1 -32.580833 -4.500664e+01 -1.675
   30 1 -36.279301 -4.566705e+01 -1.675
   31 1 -35.040123 -4.497362e+01 -1.675
   32 1 -38.738591 -4.563403e+01 -1.675
   33 1 -37.499414 -4.494060e+01 -1.675
   34 1 -41.197882 -4.560101e+01 -1.675
   35 1 -39.958704 -4.490758e+01 -1.675
   36 1 -43.657172 -4.556799e+01 -1.675
   37 1 -42.417995 -4.487456e+01 -1.675
   38 1 -46.116463 -4.553497e+01 -1.675
   39 1 -44.877285 -4.484154e+01 -1.675
   40 1 -48.575753 -4.550195e+01 -1.675
   41 1 -47.336576 -4.480852e+01 -1.675
   42 1 -51.035044 -4.546892e+01 -1.675
   43 1 -49.795866 -4.477550e+01 -1.675
   44 1 -53.494334 -4.543590e+01 -1.675
   45 1 -52.255157 -4.474248e+01 -1.675
   46 1 -55.953624 -4.540288e+01 -1.675
   47 1 -54.714447 -4.470946e+01 -1.675
   48 1 -58.412915 -4.536986e+01 -1.675
   49 1 -57.173738 -4.467644e+01 -1.675
   50 1 -60.872205 -4.533684e+01 -1.675
   51 1 -59.633028 -4.464342e+01 -1.675
   52 1 -63.331496 -4.530382e+01 -1.675
   53 1 -62.092319 -4.461040e+01 -1.675
   54 1 -65.790786 -4.527080e+01 -1.675
   55 1 -64.551609 -4.457738e+01 -1.675
   56 1 -68.250077 -4.523778e+01 -1.675
   57 1 -67.010899 -4.454436e+01 -1.675
   58 1 -70.709367 -4.520476e+01 -1.675
   59 1 -69.470190 -4.451134e+01 -1.675
   60 1 -73.168658 -4.517174e+01 -1.675
   61 1 -71.929480 -4.447832e+01 -1.675
   62 1 -75.627948 -4.513872e+01 -1.675
   63 1 -74.388771 -4.444530e+01 -1.675
   64 1 -78.087239 -4.510570e+01 -1.675
   65 1 -76.848061 -4.441228e+01 -1.675
   66 1 -79.307352 -4.437926e+01 -1.675
   67 1  78.106303 -4.507268e+01 -1.675
   68 1  76.886190 -4.434624e+01 -1.675
   69 1  76.905254 -4.292636e+01 -1.675
   70 1  78.144432 -4.223294e+01 -1.675
   71 1  75.647013 -4.503966e+01 -1.675
   72 1  74.426899 -4.431322e+01 -1.675
   73 1  74.445964 -4.289334e+01 -1.675
   74 1  75.685141 -4.219992e+01 -1.675
   75 1  73.187722 -4.500664e+01 -1.675
   76 1  71.967609 -4.428019e+01 -1.675
   77 1  71.986673 -4.286032e+01 -1.675
   78 1  73.225851 -4.216690e+01 -1.675
   79 1  70.728432 -4.497362e+01 -1.675
   80 1  69.508319 -4.424717e+01 -1.675
   81 1  69.527383 -4.282730e+01 -1.675
   82 1  70.766560 -4.213388e+01 -1.675
   83 1  68.269141 -4.494060e+01 -1.675
   84 1  67.049028 -4.421415e+01 -1.675
   85 1  67.068092 -4.279428e+01 -1.675
   86 1  68.307270 -4.210086e+01 -1.675
   87 1  65.809851 -4.490758e+01 -1.675
   88 1  64.589738 -4.418113e+01 -1.675
   89 1  64.608802 -4.276126e+01 -1.675
   90 1  65.847979 -4.206784e+01 -1.675
   91 1  63.350560 -4.487456e+01 -1.675
   92 1  62.130447 -4.414811e+01 -1.675
   93 1  62.149511 -4.272824e+01 -1.675
   94 1  63.388689 -4.203482e+01 -1.675
   95 1  60.891270 -4.484154e+01 -1.675
   96 1  59.671157 -4.411509e+01 -1.675
   97 1  59.690221 -4.269522e+01 -1.675
   98 1  60.929398 -4.200180e+01 -1.675
   99 1  58.431979 -4.480852e+01 -1.675
  100 1  57.211866 -4.408207e+01 -1.675
  101 1  57.230930 -4.266220e+01 -1.675
  102 1  58.470108 -4.196878e+01 -1.675
  103 1  55.972689 -4.477550e+01 -1.675
  104 1  54.752576 -4.404905e+01 -1.675
  105 1  54.771640 -4.262918e+01 -1.675
  106 1  56.010817 -4.193576e+01 -1.675
  107 1  53.513398 -4.474248e+01 -1.675
  108 1  52.293285 -4.401603e+01 -1.675
  109 1  52.312349 -4.259616e+01 -1.675
  110 1  53.551527 -4.190273e+01 -1.675
  111 1  51.054108 -4.470946e+01 -1.675
  112 1  49.833995 -4.398301e+01 -1.675
  113 1  49.853059 -4.256314e+01 -1.675
  114 1  51.092236 -4.186971e+01 -1.675
  115 1  48.594817 -4.467644e+01 -1.675
  116 1  47.374704 -4.394999e+01 -1.675
  117 1  47.393768 -4.253012e+01 -1.675
  118 1  48.632946 -4.183669e+01 -1.675
  119 1  46.135527 -4.464342e+01 -1.675
  120 1  44.915414 -4.391697e+01 -1.675
  121 1  44.934478 -4.249710e+01 -1.675
  122 1  46.173655 -4.180367e+01 -1.675
  123 1  43.676236 -4.461040e+01 -1.675
  124 1  42.456123 -4.388395e+01 -1.675
  125 1  42.475188 -4.246408e+01 -1.675
  126 1  43.714365 -4.177065e+01 -1.675
  127 1  41.216946 -4.457738e+01 -1.675
  128 1  39.996833 -4.385093e+01 -1.675
  129 1  40.015897 -4.243106e+01 -1.675
  130 1  41.255074 -4.173763e+01 -1.675
  131 1  38.757655 -4.454436e+01 -1.675
  132 1  37.537542 -4.381791e+01 -1.675
  133 1  37.556607 -4.239804e+01 -1.675
  134 1  38.795784 -4.170461e+01 -1.675
  135 1  36.298365 -4.451134e+01 -1.675
  136 1  35.078252 -4.378489e+01 -1.675
  137 1  35.097316 -4.236502e+01 -1.675
  138 1  36.336493 -4.167159e+01 -1.675
  139 1  33.839074 -4.447832e+01 -1.675
  140 1  32.618961 -4.375187e+01 -1.675
  141 1  32.638026 -4.233200e+01 -1.675
  142 1  33.877203 -4.163857e+01 -1.675
  143 1  31.379784 -4.444530e+01 -1.675
  144 1  30.159671 -4.371885e+01 -1.675
  145 1  30.178735 -4.229898e+01 -1.675
  146 1  31.417912 -4.160555e+01 -1.675
  147 1  28.920493 -4.441228e+01 -1.675
  148 1  27.700380 -4.368583e+01 -1.675
  149 1  27.719445 -4.226596e+01 -1.675
  150 1  28.958622 -4.157253e+01 -1.675
  151 1  26.461203 -4.437926e+01 -1.675
  152 1  25.241090 -4.365281e+01 -1.675
  153 1  25.260154 -4.223294e+01 -1.675
  154 1  26.499332 -4.153951e+01 -1.675
  155 1  24.001913 -4.434624e+01 -1.675
  156 1  22.781799 -4.361979e+01 -1.675
  157 1  22.800864 -4.219992e+01 -1.675
  158 1  24.040041 -4.150649e+01 -1.675
  159 1  21.542622 -4.431322e+01 -1.675
  160 1  20.322509 -4.358677e+01 -1.675
  161 1  20.341573 -4.216690e+01 -1.675
  162 1  21.580751 -4.147347e+01 -1.675
  163 1  19.083332 -4.428019e+01 -1.675
  164 1  17.863218 -4.355375e+01 -1.675
  165 1  17.882283 -4.213388e+01 -1.675
  166 1  19.121460 -4.144045e+01 -1.675
  167 1  16.624041 -4.424717e+01 -1.675
  168 1  15.403928 -4.352073e+01 -1.675
  169 1  15.422992 -4.210086e+01 -1.675
  170 1  16.662170 -4.140743e+01 -1.675
  171 1  14.164751 -4.421415e+01 -1.675
  172 1  12.944637 -4.348771e+01 -1.675
  173 1  12.963702 -4.206784e+01 -1.675
  174 1  14.202879 -4.137441e+01 -1.675
  175 1  11.705460 -4.418113e+01 -1.675
  176 1  10.485347 -4.345469e+01 -1.675
  177 1  10.504411 -4.203482e+01 -1.675
  178 1  11.743589 -4.134139e+01 -1.675
  179 1   9.246170 -4.414811e+01 -1.675
  180 1   8.026057 -4.342167e+01 -1.675
  181 1   8.045121 -4.200180e+01 -1.675
  182 1   9.284298 -4.130837e+01 -1.675
  183 1   6.786879 -4.411509e+01 -1.675
  184 1   5.566766 -4.338865e+01 -1.675
  185 1   5.585830 -4.196878e+01 -1.675
  186 1   6.825008 -4.127535e+01 -1.675
  187 1   4.327589 -4.408207e+01 -1.675
  188 1   3.107476 -4.335563e+01 -1.675
  189 1   3.126540 -4.193576e+01 -1.675
  190 1   4.365717 -4.124233e+01 -1.675
  191 1   1.868298 -4.404905e+01 -1.675
  192 1   0.648185 -4.332261e+01 -1.675
  193 1   0.667249 -4.190273e+01 -1.675
  194 1   1.906427 -4.120931e+01 -1.675
  195 1  -0.590992 -4.401603e+01 -1.675
  196 1  -1.811105 -4.328959e+01 -1.675
  197 1  -1.792041 -4.186971e+01 -1.675
  198 1  -0.552864 -4.117629e+01 -1.675
  199 1  -3.050283 -4.398301e+01 -1.675
  200 1  -4.270396 -4.325657e+01 -1.675
  201 1  -4.251332 -4.183669e+01 -1.675
  202 1  -3.012154 -4.114327e+01 -1.675
  203 1  -5.509573 -4.394999e+01 -1.675
  204 1  -6.729686 -4.322355e+01 -1.675
  205 1  -6.710622 -4.180367e+01 -1.675
  206 1  -5.471445 -4.111025e+01 -1.675
  207 1  -7.968864 -4.391697e+01 -1.675
  208 1  -9.188977 -4.319053e+01 -1.675
  209 1  -9.169913 -4.177065e+01 -1.675
  210 1  -7.930735 -4.107723e+01 -1.675
  211 1 -10.428154 -4.388395e+01 -1.675
  212 1 -11.648267 -4.315751e+01 -1.675
  213 1 -11.629203 -4.173763e+01 -1.675
  214 1 -10.390026 -4.104421e+01 -1.675
  215 1 -12.887445 -4.385093e+01 -1.675
  216 1 -14.107558 -4.312449e+01 -1.675
  217 1 -14.088494 -4.170461e+01 -1.675
  218 1 -12.849316 -4.101119e+01 -1.675
  219 1 -15.346735 -4.381791e+01 -1.675
  220 1 -16.566848 -4.309146e+01 -1.675
  221 1 -16.547784 -4.167159e+01 -1.675
  222 1 -15.308607 -4.097817e+01 -1.675
  223 1 -17.806026 -4.378489e+01 -1.675
  224 1 -19.026139 -4.305844e+01 -1.675
  225 1 -19.007074 -4.163857e+01 -1.675
  226 1 -17.767897 -4.094515e+01 -1.675
  227 1 -20.265316 -4.375187e+01 -1.675
  228 1 -21.485429 -4.302542e+01 -1.675
  229 1 -21.466365 -4.160555e+01 -1.675
  230 1 -20.227188 -4.091213e+01 -1.675
  231 1 -22.724607 -4.371885e+01 -1.675
  232 1 -23.944720 -4.299240e+01 -1.675
  233 1 -23.925655 -4.157253e+01 -1.675
  234 1 -22.686478 -4.087911e+01 -1.675
  235 1 -25.183897 -4.368583e+01 -1.675
  236 1 -26.404010 -4.295938e+01 -1.675
  237 1 -26.384946 -4.153951e+01 -1.675
  238 1 -25.145769 -4.084609e+01 -1.675
  239 1 -27.643188 -4.365281e+01 -1.675
  240 1 -28.863301 -4.292636e+01 -1.675
  241 1 -28.844236 -4.150649e+01 -1.675
  242 1 -27.605059 -4.081307e+01 -1.675
  243 1 -30.102478 -4.361979e+01 -1.675
  244 1 -31.322591 -4.289334e+01 -1.675
  245 1 -31.303527 -4.147347e+01 -1.675
  246 1 -30.064350 -4.078005e+01 -1.675
  247 1 -32.561769 -4.358677e+01 -1.675
  248 1 -33.781882 -4.286032e+01 -1.675
  249 1 -33.762817 -4.144045e+01 -1.675
  250 1 -32.523640 -4.074702e+01 -1.675
  251 1 -35.021059 -4.355375e+01 -1.675
  252 1 -36.241172 -4.282730e+01 -1.675
  253 1 -36.222108 -4.140743e+01 -1.675
  254 1 -34.982930 -4.071400e+01 -1.675
  255 1 -37.480349 -4.352073e+01 -1.675
  256 1 -38.700463 -4.279428e+01 -1.675
  257 1 -38.681398 -4.137441e+01 -1.675
  258 1 -37.442221 -4.068098e+01 -1.675
  259 1 -39.939640 -4.348771e+01 -1.675
  260 1 -41.159753 -4.276126e+01 -1.675
  261 1 -41.140689 -4.134139e+01 -1.675
  262 1 -39.901511 -4.064796e+01 -1.675
  263 1 -42.398930 -4.345469e+01 -1.675
  264 1 -43.619044 -4.272824e+01 -1.675
  265 1 -43.599979 -4.130837e+01 -1.675
  266 1 -42.360802 -4.061494e+01 -1.675
  267 1 -44.858221 -4.342167e+01 -1.675
  268 1 -46.078334 -4.269522e+01 -1.675
  269 1 -46.059270 -4.127535e+01 -1.675
  270 1 -44.820092 -4.058192e+01 -1.675
  271 1 -47.317511 -4.338865e+01 -1.675
  272 1 -48.537624 -4.266220e+01 -1.675
  273 1 -48.518560 -4.124233e+01 -1.675
  274 1 -47.279383 -4.054890e+01 -1.675
  275 1 -49.776802 -4.335563e+01 -1.675
  276 1 -50.996915 -4.262918e+01 -1.675
  277 1 -50.977851 -4.120931e+01 -1.675
  278 1 -49.738673 -4.051588e+01 -1.675
  279 1 -52.236092 -4.332261e+01 -1.675
  280 1 -53.456205 -4.259616e+01 -1.675
  281 1 -53.437141 -4.117629e+01 -1.675
  282 1 -52.197964 -4.048286e+01 -1.675
  283 1 -54.695383 -4.328959e+01 -1.675
  284 1 -55.915496 -4.256314e+01 -1.675
  285 1 -55.896432 -4.114327e+01 -1.675
  286 1 -54.657254 -4.044984e+01 -1.675
  287 1 -57.154673 -4.325657e+01 -1.675
  288 1 -58.374786 -4.253012e+01 -1.675
  289 1 -58.355722 -4.111025e+01 -1.675
  290 1 -57.116545 -4.041682e+01 -1.675
  291 1 -59.613964 -4.322355e+01 -1.675
  292 1 -60.834077 -4.249710e+01 -1.675
  293 1 -60.815013 -4.107723e+01 -1.675
  294 1 -59.575835 -4.038380e+01 -1.675
  295 1 -62.073254 -4.319053e+01 -1.675
  296 1 -63.293367 -4.246408e+01 -1.675
  297 1 -63.274303 -4.104421e+01 -1.675
  298 1 -62.035126 -4.035078e+01 -1.675
  299 1 -64.532545 -4.315751e+01 -1.675
  300 1 -65.752658 -4.243106e+01 -1.675
  301 1 -65.733594 -4.101119e+01 -1.675
  302 1 -64.494416 -4.031776e+01 -1.675
  303 1 -66.991835 -4.312449e+01 -1.675
  304 1 -68.211948 -4.239804e+01 -1.675
  305 1 -68.192884 -4.097817e+01 -1.675
  306 1 -66.953707 -4.028474e+01 -1.675
  307 1 -69.451126 -4.309146e+01 -1.675
  308 1 -70.671239 -4.236502e+01 -1.675
  309 1 -70.652175 -4.094515e+01 -1.675
  310 1 -69.412997 -4.025172e+01 -1.675
  311 1 -71.910416 -4.305844e+01 -1.675
  312 1 -73.130529 -4.233200e+01 -1.675
  313 1 -73.111465 -4.091213e+01 -1.675
  314 1 -71.872288 -4.021870e+01 -1.675
  315 1 -74.369707 -4.302542e+01 -1.675
  316 1 -75.589820 -4.229898e+01 -1.675
  317 1 -75.570756 -4.087911e+01 -1.675
  318 1 -74.331578 -4.018568e+01 -1.675
  319 1 -76.828997 -4.299240e+01 -1.675
  320 1 -78.049110 -4.226596e+01 -1.675
  321 1 -78.030046 -4.084609e+01 -1.675
  322 1 -76.790869 -4.015266e+01 -1.675
  323 1 -79.288288 -4.295938e+01 -1.675
  324 1 -79.250159 -4.011964e+01 -1.675
  325 1  78.163496 -4.081307e+01 -1.675
  326 1  76.943383 -4.008662e+01 -1.675
  327 1  76.962447 -3.866675e+01 -1.675
  328 1  78.201624 -3.797332e+01 -1.675
  329 1  75.704205 -4.078005e+01 -1.675
  330 1  74.484092 -4.005360e+01 -1.675
  331 1  74.503157 -3.863373e+01 -1.675
  332 1  75.742334 -3.794030e+01 -1.675
  333 1  73.244915 -4.074702e+01 -1.675
  334 1  72.024802 -4.002058e+01 -1.675
  335 1  72.043866 -3.860071e+01 -1.675
  336 1  73.283043 -3.790728e+01 -1.675
  337 1  70.785624 -4.071400e+01 -1.675
  338 1  69.565511 -3.998756e+01 -1.675
  339 1  69.584576 -3.856769e+01 -1.675
  340 1  70.823753 -3.787426e+01 -1.675
  341 1  68.326334 -4.068098e+01 -1.675
  342 1  67.106221 -3.995454e+01 -1.675
  343 1  67.125285 -3.853467e+01 -1.675
  344 1  68.364462 -3.784124e+01 -1.675
  345 1  65.867043 -4.064796e+01 -1.675
  346 1  64.646930 -3.992152e+01 -1.675
  347 1  64.665995 -3.850165e+01 -1.675
  348 1  65.905172 -3.780822e+01 -1.675
  349 1  63.407753 -4.061494e+01 -1.675
  350 1  62.187640 -3.988850e+01 -1.675
  351 1  62.206704 -3.846863e+01 -1.675
  352 1  63.445882 -3.777520e+01 -1.675
  353 1  60.948462 -4.058192e+01 -1.675
  354 1  59.728349 -3.985548e+01 -1.675
  355 1  59.747414 -3.843561e+01 -1.675
  356 1  60.986591 -3.774218e+01 -1.675
  357 1  58.489172 -4.054890e+01 -1.675
  358 1  57.269059 -3.982246e+01 -1.675
  359 1  57.288123 -3.840259e+01 -1.675
  360 1  58.527301 -3.770916e+01 -1.675
  361 1  56.029882 -4.051588e+01 -1.675
  362 1  54.809768 -3.978944e+01 -1.675
  363 1  54.828833 -3.836956e+01 -1.675
  364 1  56.068010 -3.767614e+01 -1.675
  365 1  53.570591 -4.048286e+01 -1.675
  366 1  52.350478 -3.975642e+01 -1.675
  367 1  52.369542 -3.833654e+01 -1.675
  368 1  53.608720 -3.764312e+01 -1.675
  369 1  51.111301 -4.044984e+01 -1.675
  370 1  49.891187 -3.972340e+01 -1.675
  371 1  49.910252 -3.830352e+01 -1.675
  372 1  51.149429 -3.761010e+01 -1.675
  373 1  48.652010 -4.041682e+01 -1.675
  374 1  47.431897 -3.969038e+01 -1.675
  375 1  47.450961 -3.827050e+01 -1.675
  376 1  48.690139 -3.757708e+01 -1.675
  377 1  46.192720 -4.038380e+01 -1.675
  378 1  44.972607 -3.965736e+01 -1.675
  379 1  44.991671 -3.823748e+01 -1.675
  380 1  46.230848 -3.754406e+01 -1.675
  381 1  43.733429 -4.035078e+01 -1.675
  382 1  42.513316 -3.962434e+01 -1.675
  383 1  42.532380 -3.820446e+01 -1.675
  384 1  43.771558 -3.751104e+01 -1.675
  385 1  41.274139 -4.031776e+01 -1.675
  386 1  40.054026 -3.959132e+01 -1.675
  387 1  40.073090 -3.817144e+01 -1.675
  388 1  41.312267 -3.747802e+01 -1.675
  389 1  38.814848 -4.028474e+01 -1.675
  390 1  37.594735 -3.955829e+01 -1.675
  391 1  37.613799 -3.813842e+01 -1.675
  392 1  38.852977 -3.744500e+01 -1.675
  393 1  36.355558 -4.025172e+01 -1.675
  394 1  35.135445 -3.952527e+01 -1.675
  395 1  35.154509 -3.810540e+01 -1.675
  396 1  36.393686 -3.741198e+01 -1.675
  397 1  33.896267 -4.021870e+01 -1.675
  398 1  32.676154 -3.949225e+01 -1.675
  399 1  32.695218 -3.807238e+01 -1.675
  400 1  33.934396 -3.737896e+01 -1.675
  401 1  31.436977 -4.018568e+01 -1.675
  402 1  30.216864 -3.945923e+01 -1.675
  403 1  30.235928 -3.803936e+01 -1.675
  404 1  31.475105 -3.734594e+01 -1.675
  405 1  28.977686 -4.015266e+01 -1.675
  406 1  27.757573 -3.942621e+01 -1.675
  407 1  27.776637 -3.800634e+01 -1.675
  408 1  29.015815 -3.731292e+01 -1.675
  409 1  26.518396 -4.011964e+01 -1.675
  410 1  25.298283 -3.939319e+01 -1.675
  411 1  25.317347 -3.797332e+01 -1.675
  412 1  26.556524 -3.727990e+01 -1.675
  413 1  24.059105 -4.008662e+01 -1.675
  414 1  22.838992 -3.936017e+01 -1.675
  415 1  22.858056 -3.794030e+01 -1.675
  416 1  24.097234 -3.724688e+01 -1.675
  417 1  21.599815 -4.005360e+01 -1.675
  418 1  20.379702 -3.932715e+01 -1.675
  419 1  20.398766 -3.790728e+01 -1.675
  420 1  21.637943 -3.721386e+01 -1.675
  421 1  19.140524 -4.002058e+01 -1.675
  422 1  17.920411 -3.929413e+01 -1.675
  423 1  17.939476 -3.787426e+01 -1.675
  424 1  19.178653 -3.718083e+01 -1.675
  425 1  16.681234 -3.998756e+01 -1.675
  426 1  15.461121 -3.926111e+01 -1.675
  427 1  15.480185 -3.784124e+01 -1.675
  428 1  16.719362 -3.714781e+01 -1.675
  429 1  14.221943 -3.995454e+01 -1.675
  430 1  13.001830 -3.922809e+01 -1.675
  431 1  13.020895 -3.780822e+01 -1.675
  432 1  14.260072 -3.711479e+01 -1.675
  433 1  11.762653 -3.992152e+01 -1.675
  434 1  10.542540 -3.919507e+01 -1.675
  435 1  10.561604 -3.777520e+01 -1.675
  436 1  11.800781 -3.708177e+01 -1.675
  437 1   9.303362 -3.988850e+01 -1.675
  438 1   8.083249 -3.916205e+01 -1.675
  439 1   8.102314 -3.774218e+01 -1.675
  440 1   9.341491 -3.704875e+01 -1.675
  441 1   6.844072 -3.985548e+01 -1.675
  442 1   5.623959 -3.912903e+01 -1.675
  443 1   5.643023 -3.770916e+01 -1.675
  444 1   6.882200 -3.701573e+01 -1.675
  445 1   4.384781 -3.982246e+01 -1.675
  446 1   3.164668 -3.909601e+01 -1.675
  447 1   3.183733 -3.767614e+01 -1.675
  448 1   4.422910 -3.698271e+01 -1.675
  449 1   1.925491 -3.978944e+01 -1.675
  450 1   0.705378 -3.906299e+01 -1.675
  451 1   0.724442 -3.764312e+01 -1.675
  452 1   1.963620 -3.694969e+01 -1.675
  453 1  -0.533799 -3.975642e+01 -1.675
  454 1  -1.753913 -3.902997e+01 -1.675
  455 1  -1.734848 -3.761010e+01 -1.675
  456 1  -0.495671 -3.691667e+01 -1.675
  457 1  -2.993090 -3.972340e+01 -1.675
  458 1  -4.213203 -3.899695e+01 -1.675
  459 1  -4.194139 -3.757708e+01 -1.675
  460 1  -2.954961 -3.688365e+01 -1.675
  461 1  -5.452380 -3.969038e+01 -1.675
  462 1  -6.672494 -3.896393e+01 -1.675
  463 1  -6.653429 -3.754406e+01 -1.675
  464 1  -5.414252 -3.685063e+01 -1.675
  465 1  -7.911671 -3.965736e+01 -1.675
  466 1  -9.131784 -3.893091e+01 -1.675
  467 1  -9.112720 -3.751104e+01 -1.675
  468 1  -7.873542 -3.681761e+01 -1.675
  469 1 -10.370961 -3.962434e+01 -1.675
  470 1 -11.591075 -3.889789e+01 -1.675
  471 1 -11.572010 -3.747802e+01 -1.675
  472 1 -10.332833 -3.678459e+01 -1.675
  473 1 -12.830252 -3.959132e+01 -1.675
  474 1 -14.050365 -3.886487e+01 -1.675
  475 1 -14.031301 -3.744500e+01 -1.675
  476 1 -12.792123 -3.675157e+01 -1.675
  477 1 -15.289542 -3.955829e+01 -1.675
  478 1 -16.509655 -3.883185e+01 -1.675
  479 1 -16.490591 -3.741198e+01 -1.675
  480 1 -15.251414 -3.671855e+01 -1.675
  481 1 -17.748833 -3.952527e+01 -1.675
  482 1 -18.968946 -3.879883e+01 -1.675
  483 1 -18.949882 -3.737896e+01 -1.675
  484 1 -17.710704 -3.668553e+01 -1.675
  485 1 -20.208123 -3.949225e+01 -1.675
  486 1 -21.428236 -3.876581e+01 -1.675
  487 1 -21.409172 -3.734594e+01 -1.675
  488 1 -20.169995 -3.665251e+01 -1.675
  489 1 -22.667414 -3.945923e+01 -1.675
  490 1 -23.887527 -3.873279e+01 -1.675
  491 1 -23.868463 -3.731292e+01 -1.675
  492 1 -22.629285 -3.661949e+01 -1.675
  493 1 -25.126704 -3.942621e+01 -1.675
  494 1 -26.346817 -3.869977e+01 -1.675
  495 1 -26.327753 -3.727990e+01 -1.675
  496 1 -25.088576 -3.658647e+01 -1.675
  497 1 -27.585995 -3.939319e+01 -1.675
  498 1 -28.806108 -3.866675e+01 -1.675
  499 1 -28.787044 -3.724688e+01 -1.675
  500 1 -27.547866 -3.655345e+01 -1.675
  501 1 -30.045285 -3.936017e+01 -1.675
  502 1 -31.265398 -3.863373e+01 -1.675
  503 1 -31.246334 -3.721386e+01 -1.675
  504 1 -30.007157 -3.652043e+01 -1.675
  505 1 -32.504576 -3.932715e+01 -1.675
  506 1 -33.724689 -3.860071e+01 -1.675
  507 1 -33.705625 -3.718083e+01 -1.675
  508 1 -32.466447 -3.648741e+01 -1.675
  509 1 -34.963866 -3.929413e+01 -1.675
  510 1 -36.183979 -3.856769e+01 -1.675
  511 1 -36.164915 -3.714781e+01 -1.675
  512 1 -34.925738 -3.645439e+01 -1.675
  513 1 -37.423157 -3.926111e+01 -1.675
  514 1 -38.643270 -3.853467e+01 -1.675
  515 1 -38.624206 -3.711479e+01 -1.675
  516 1 -37.385028 -3.642137e+01 -1.675
  517 1 -39.882447 -3.922809e+01 -1.675
  518 1 -41.102560 -3.850165e+01 -1.675
  519 1 -41.083496 -3.708177e+01 -1.675
  520 1 -39.844319 -3.638835e+01 -1.675
  521 1 -42.341738 -3.919507e+01 -1.675
  522 1 -43.561851 -3.846863e+01 -1.675
  523 1 -43.542786 -3.704875e+01 -1.675
  524 1 -42.303609 -3.635533e+01 -1.675
  525 1 -44.801028 -3.916205e+01 -1.675
  526 1 -46.021141 -3.843561e+01 -1.675
  527 1 -46.002077 -3.701573e+01 -1.675
  528 1 -44.762900 -3.632231e+01 -1.675
  529 1 -47.260319 -3.912903e+01 -1.675
  530 1 -48.480432 -3.840259e+01 -1.675
  531 1 -48.461367 -3.698271e+01 -1.675
  532 1 -47.222190 -3.628929e+01 -1.675
  533 1 -49.719609 -3.909601e+01 -1.675
  534 1 -50.939722 -3.836956e+01 -1.675
  535 1 -50.920658 -3.694969e+01 -1.675
  536 1 -49.681481 -3.625627e+01 -1.675
  537 1 -52.178900 -3.906299e+01 -1.675
  538 1 -53.399013 -3.833654e+01 -1.675
  539 1 -53.379948 -3.691667e+01 -1.675
  540 1 -52.140771 -3.622325e+01 -1.675
  541 1 -54.638190 -3.902997e+01 -1.675
  542 1 -55.858303 -3.830352e+01 -1.675
  543 1 -55.839239 -3.688365e+01 -1.675
  544 1 -54.600061 -3.619023e+01 -1.675
  545 1 -57.097481 -3.899695e+01 -1.675
  546 1 -58.317594 -3.827050e+01 -1.675
  547 1 -58.298529 -3.685063e+01 -1.675
  548 1 -57.059352 -3.615721e+01 -1.675
  549 1 -59.556771 -3.896393e+01 -1.675
  550 1 -60.776884 -3.823748e+01 -1.675
  551 1 -60.757820 -3.681761e+01 -1.675
  552 1 -59.518642 -3.612419e+01 -1.675
  553 1 -62.016061 -3.893091e+01 -1.675
  554 1 -63.236175 -3.820446e+01 -1.675
  555 1 -63.217110 -3.678459e+01 -1.675
  556 1 -61.977933 -3.609117e+01 -1.675
  557 1 -64.475352 -3.889789e+01 -1.675
  558 1 -65.695465 -3.817144e+01 -1.675
  559 1 -65.676401 -3.675157e+01 -1.675
  560 1 -64.437223 -3.605815e+01 -1.675
  561 1 -66.934642 -3.886487e+01 -1.675
  562 1 -68.154756 -3.813842e+01 -1.675
  563 1 -68.135691 -3.671855e+01 -1.675
  564 1 -66.896514 -3.602512e+01 -1.675
  565 1 -69.393933 -3.883185e+01 -1.675
  566 1 -70.614046 -3.810540e+01 -1.675
  567 1 -70.594982 -3.668553e+01 -1.675
  568 1 -69.355804 -3.599210e+01 -1.675
  569 1 -71.853223 -3.879883e+01 -1.675
  570 1 -73.073336 -3.807238e+01 -1.675
  571 1 -73.054272 -3.665251e+01 -1.675
  572 1 -71.815095 -3.595908e+01 -1.675
  573 1 -74.312514 -3.876581e+01 -1.675
  574 1 -75.532627 -3.803936e+01 -1.675
  575 1 -75.513563 -3.661949e+01 -1.675
  576 1 -74.274385 -3.592606e+01 -1.675
  577 1 -76.771804 -3.873279e+01 -1.675
  578 1 -77.991917 -3.800634e+01 -1.675
  579 1 -77.972853 -3.658647e+01 -1.675
  580 1 -76.733676 -3.589304e+01 -1.675
  581 1 -79.231095 -3.869977e+01 -1.675
  582 1 -79.192966 -3.586002e+01 -1.675
  583 1  78.220689 -3.655345e+01 -1.675
  584 1  77.000576 -3.582700e+01 -1.675
  585 1  77.019640 -3.440713e+01 -1.675
  586 1  78.258817 -3.371371e+01 -1.675
  587 1  75.761398 -3.652043e+01 -1.675
  588 1  74.541285 -3.579398e+01 -1.675
  589 1  74.560349 -3.437411e+01 -1.675
  590 1  75.799527 -3.368069e+01 -1.675
  591 1  73.302108 -3.648741e+01 -1.675
  592 1  72.081995 -3.576096e+01 -1.675
  593 1  72.101059 -3.434109e+01 -1.675
  594 1  73.340236 -3.364766e+01 -1.675
  595 1  70.842817 -3.645439e+01 -1.675
  596 1  69.622704 -3.572794e+01 -1.675
  597 1  69.641768 -3.430807e+01 -1.675
  598 1  70.880946 -3.361464e+01 -1.675
  599 1  68.383527 -3.642137e+01 -1.675
  600 1  67.163414 -3.569492e+01 -1.675
  601 1  67.182478 -3.427505e+01 -1.675
  602 1  68.421655 -3.358162e+01 -1.675
  603 1  65.924236 -3.638835e+01 -1.675
  604 1  64.704123 -3.566190e+01 -1.675
  605 1  64.723187 -3.424203e+01 -1.675
  606 1  65.962365 -3.354860e+01 -1.675
  607 1  63.464946 -3.635533e+01 -1.675
  608 1  62.244833 -3.562888e+01 -1.675
  609 1  62.263897 -3.420901e+01 -1.675
  610 1  63.503074 -3.351558e+01 -1.675
  611 1  61.005655 -3.632231e+01 -1.675
  612 1  59.785542 -3.559586e+01 -1.675
  613 1  59.804606 -3.417599e+01 -1.675
  614 1  61.043784 -3.348256e+01 -1.675
  615 1  58.546365 -3.628929e+01 -1.675
  616 1  57.326252 -3.556284e+01 -1.675
  617 1  57.345316 -3.414297e+01 -1.675
  618 1  58.584493 -3.344954e+01 -1.675
  619 1  56.087074 -3.625627e+01 -1.675
  620 1  54.866961 -3.552982e+01 -1.675
  621 1  54.886026 -3.410995e+01 -1.675
  622 1  56.125203 -3.341652e+01 -1.675
  623 1  53.627784 -3.622325e+01 -1.675
  624 1  52.407671 -3.549680e+01 -1.675
  625 1  52.426735 -3.407693e+01 -1.675
  626 1  53.665912 -3.338350e+01 -1.675
  627 1  51.168493 -3.619023e+01 -1.675
  628 1  49.948380 -3.546378e+01 -1.675
  629 1  49.967445 -3.404391e+01 -1.675
  630 1  51.206622 -3.335048e+01 -1.675
  631 1  48.709203 -3.615721e+01 -1.675
  632 1  47.489090 -3.543076e+01 -1.675
  633 1  47.508154 -3.401089e+01 -1.675
  634 1  48.747331 -3.331746e+01 -1.675
  635 1  46.249912 -3.612419e+01 -1.675
  636 1  45.029799 -3.539774e+01 -1.675
  637 1  45.048864 -3.397787e+01 -1.675
  638 1  46.288041 -3.328444e+01 -1.675
  639 1  43.790622 -3.609117e+01 -1.675
  640 1  42.570509 -3.536472e+01 -1.675
  641 1  42.589573 -3.394485e+01 -1.675
  642 1  43.828750 -3.325142e+01 -1.675
  643 1  41.331331 -3.605815e+01 -1.675
  644 1  40.111218 -3.533170e+01 -1.675
  645 1  40.130283 -3.391183e+01 -1.675
  646 1  41.369460 -3.321840e+01 -1.675
  647 1  38.872041 -3.602512e+01 -1.675
  648 1  37.651928 -3.529868e+01 -1.675
  649 1  37.670992 -3.387881e+01 -1.675
  650 1  38.910170 -3.318538e+01 -1.675
  651 1  36.412751 -3.599210e+01 -1.675
  652 1  35.192637 -3.526566e+01 -1.675
  653 1  35.211702 -3.384579e+01 -1.675
  654 1  36.450879 -3.315236e+01 -1.675
  655 1  33.953460 -3.595908e+01 -1.675
  656 1  32.733347 -3.523264e+01 -1.675
  657 1  32.752411 -3.381277e+01 -1.675
  658 1  33.991589 -3.311934e+01 -1.675
  659 1  31.494170 -3.592606e+01 -1.675
  660 1  30.274056 -3.519962e+01 -1.675
  661 1  30.293121 -3.377975e+01 -1.675
  662 1  31.532298 -3.308632e+01 -1.675
  663 1  29.034879 -3.589304e+01 -1.675
  664 1  27.814766 -3.516660e+01 -1.675
  665 1  27.833830 -3.374673e+01 -1.675
  666 1  29.073008 -3.305330e+01 -1.675
  667 1  26.575589 -3.586002e+01 -1.675
  668 1  25.355475 -3.513358e+01 -1.675
  669 1  25.374540 -3.371371e+01 -1.675
  670 1  26.613717 -3.302028e+01 -1.675
  671 1  24.116298 -3.582700e+01 -1.675
  672 1  22.896185 -3.510056e+01 -1.675
  673 1  22.915249 -3.368069e+01 -1.675
  674 1  24.154427 -3.298726e+01 -1.675
  675 1  21.657008 -3.579398e+01 -1.675
  676 1  20.436895 -3.506754e+01 -1.675
  677 1  20.455959 -3.364766e+01 -1.675
  678 1  21.695136 -3.295424e+01 -1.675
  679 1  19.197717 -3.576096e+01 -1.675
  680 1  17.977604 -3.503452e+01 -1.675
  681 1  17.996668 -3.361464e+01 -1.675
  682 1  19.235846 -3.292122e+01 -1.675
  683 1  16.738427 -3.572794e+01 -1.675
  684 1  15.518314 -3.500150e+01 -1.675
  685 1  15.537378 -3.358162e+01 -1.675
  686 1  16.776555 -3.288820e+01 -1.675
  687 1  14.279136 -3.569492e+01 -1.675
  688 1  13.059023 -3.496848e+01 -1.675
  689 1  13.078087 -3.354860e+01 -1.675
  690 1  14.317265 -3.285518e+01 -1.675
  691 1  11.819846 -3.566190e+01 -1.675
  692 1  10.599733 -3.493546e+01 -1.675
  693 1  10.618797 -3.351558e+01 -1.675
  694 1  11.857974 -3.282216e+01 -1.675
  695 1   9.360555 -3.562888e+01 -1.675
  696 1   8.140442 -3.490244e+01 -1.675
  697 1   8.159506 -3.348256e+01 -1.675
  698 1   9.398684 -3.278914e+01 -1.675
  699 1   6.901265 -3.559586e+01 -1.675
  700 1   5.681152 -3.486942e+01 -1.675
  701 1   5.700216 -3.344954e+01 -1.675
  702 1   6.939393 -3.275612e+01 -1.675
  703 1   4.441974 -3.556284e+01 -1.675
  704 1   3.221861 -3.483639e+01 -1.675
  705 1   3.240925 -3.341652e+01 -1.675
  706 1   4.480103 -3.272310e+01 -1.675
  707 1   1.982684 -3.552982e+01 -1.675
  708 1   0.762571 -3.480337e+01 -1.675
  709 1   0.781635 -3.338350e+01 -1.675
  710 1   2.020812 -3.269008e+01 -1.675
  711 1  -0.476607 -3.549680e+01 -1.675
  712 1  -1.696720 -3.477035e+01 -1.675
  713 1  -1.677656 -3.335048e+01 -1.675
  714 1  -0.438478 -3.265706e+01 -1.675
  715 1  -2.935897 -3.546378e+01 -1.675
  716 1  -4.156010 -3.473733e+01 -1.675
  717 1  -4.136946 -3.331746e+01 -1.675
  718 1  -2.897769 -3.262404e+01 -1.675
  719 1  -5.395188 -3.543076e+01 -1.675
  720 1  -6.615301 -3.470431e+01 -1.675
  721 1  -6.596236 -3.328444e+01 -1.675
  722 1  -5.357059 -3.259102e+01 -1.675
  723 1  -7.854478 -3.539774e+01 -1.675
  724 1  -9.074591 -3.467129e+01 -1.675
  725 1  -9.055527 -3.325142e+01 -1.675
  726 1  -7.816350 -3.255800e+01 -1.675
  727 1 -10.313769 -3.536472e+01 -1.675
  728 1 -11.533882 -3.463827e+01 -1.675
  729 1 -11.514817 -3.321840e+01 -1.675
  730 1 -10.275640 -3.252498e+01 -1.675
  731 1 -12.773059 -3.533170e+01 -1.675
  732 1 -13.993172 -3.460525e+01 -1.675
  733 1 -13.974108 -3.318538e+01 -1.675
  734 1 -12.734931 -3.249196e+01 -1.675
  735 1 -15.232350 -3.529868e+01 -1.675
  736 1 -16.452463 -3.457223e+01 -1.675
  737 1 -16.433398 -3.315236e+01 -1.675
  738 1 -15.194221 -3.245893e+01 -1.675
  739 1 -17.691640 -3.526566e+01 -1.675
  740 1 -18.911753 -3.453921e+01 -1.675
  741 1 -18.892689 -3.311934e+01 -1.675
  742 1 -17.653512 -3.242591e+01 -1.675
  743 1 -20.150931 -3.523264e+01 -1.675
  744 1 -21.371044 -3.450619e+01 -1.675
  745 1 -21.351979 -3.308632e+01 -1.675
  746 1 -20.112802 -3.239289e+01 -1.675
  747 1 -22.610221 -3.519962e+01 -1.675
  748 1 -23.830334 -3.447317e+01 -1.675
  749 1 -23.811270 -3.305330e+01 -1.675
  750 1 -22.572092 -3.235987e+01 -1.675
  751 1 -25.069511 -3.516660e+01 -1.675
  752 1 -26.289625 -3.444015e+01 -1.675
  753 1 -26.270560 -3.302028e+01 -1.675
  754 1 -25.031383 -3.232685e+01 -1.675
  755 1 -27.528802 -3.513358e+01 -1.675
  756 1 -28.748915 -3.440713e+01 -1.675
  757 1 -28.729851 -3.298726e+01 -1.675
  758 1 -27.490673 -3.229383e+01 -1.675
  759 1 -29.988092 -3.510056e+01 -1.675
  760 1 -31.208206 -3.437411e+01 -1.675
  761 1 -31.189141 -3.295424e+01 -1.675
  762 1 -29.949964 -3.226081e+01 -1.675
  763 1 -32.447383 -3.506754e+01 -1.675
  764 1 -33.667496 -3.434109e+01 -1.675
  765 1 -33.648432 -3.292122e+01 -1.675
  766 1 -32.409254 -3.222779e+01 -1.675
  767 1 -34.906673 -3.503452e+01 -1.675
  768 1 -36.126786 -3.430807e+01 -1.675
  769 1 -36.107722 -3.288820e+01 -1.675
  770 1 -34.868545 -3.219477e+01 -1.675
  771 1 -37.365964 -3.500150e+01 -1.675
  772 1 -38.586077 -3.427505e+01 -1.675
  773 1 -38.567013 -3.285518e+01 -1.675
  774 1 -37.327835 -3.216175e+01 -1.675
  775 1 -39.825254 -3.496848e+01 -1.675
  776 1 -41.045367 -3.424203e+01 -1.675
  777 1 -41.026303 -3.282216e+01 -1.675
  778 1 -39.787126 -3.212873e+01 -1.675
  779 1 -42.284545 -3.493546e+01 -1.675
  780 1 -43.504658 -3.420901e+01 -1.675
  781 1 -43.485594 -3.278914e+01 -1.675
  782 1 -42.246416 -3.209571e+01 -1.675
  783 1 -44.743835 -3.490244e+01 -1.675
  784 1 -45.963948 -3.417599e+01 -1.675
  785 1 -45.944884 -3.275612e+01 -1.675
  786 1 -44.705707 -3.206269e+01 -1.675
  787 1 -47.203126 -3.486942e+01 -1.675
  788 1 -48.423239 -3.414297e+01 -1.675
  789 1 -48.404175 -3.272310e+01 -1.675
  790 1 -47.164997 -3.202967e+01 -1.675
  791 1 -49.662416 -3.483639e+01 -1.675
  792 1 -50.882529 -3.410995e+01 -1.675
  793 1 -50.863465 -3.269008e+01 -1.675
  794 1 -49.624288 -3.199665e+01 -1.675
  795 1 -52.121707 -3.480337e+01 -1.675
  796 1 -53.341820 -3.407693e+01 -1.675
  797 1 -53.322756 -3.265706e+01 -1.675
  798 1 -52.083578 -3.196363e+01 -1.675
  799 1 -54.580997 -3.477035e+01 -1.675
  800 1 -55.801110 -3.404391e+01 -1.675
  801 1 -55.782046 -3.262404e+01 -1.675
  802 1 -54.542869 -3.193061e+01 -1.675
  803 1 -57.040288 -3.473733e+01 -1.675
  804 1 -58.260401 -3.401089e+01 -1.675
  805 1 -58.241337 -3.259102e+01 -1.675
  806 1 -57.002159 -3.189759e+01 -1.675
  807 1 -59.499578 -3.470431e+01 -1.675
  808 1 -60.719691 -3.397787e+01 -1.675
  809 1 -60.700627 -3.255800e+01 -1.675
  810 1 -59.461450 -3.186457e+01 -1.675
  811 1 -61.958869 -3.467129e+01 -1.675
  812 1 -63.178982 -3.394485e+01 -1.675
  813 1 -63.159918 -3.252498e+01 -1.675
  814 1 -61.920740 -3.183155e+01 -1.675
  815 1 -64.418159 -3.463827e+01 -1.675
  816 1 -65.638272 -3.391183e+01 -1.675
  817 1 -65.619208 -3.249196e+01 -1.675
  818 1 -64.380031 -3.179853e+01 -1.675
  819 1 -66.877450 -3.460525e+01 -1.675
  820 1 -68.097563 -3.387881e+01 -1.675
  821 1 -68.078498 -3.245893e+01 -1.675
  822 1 -66.839321 -3.176551e+01 -1.675
  823 1 -69.336740 -3.457223e+01 -1.675
  824 1 -70.556853 -3.384579e+01 -1.675
  825 1 -70.537789 -3.242591e+01 -1.675
  826 1 -69.298612 -3.173249e+01 -1.675
  827 1 -71.796031 -3.453921e+01 -1.675
  828 1 -73.016144 -3.381277e+01 -1.675
  829 1 -72.997079 -3.239289e+01 -1.675
  830 1 -71.757902 -3.169947e+01 -1.675
  831 1 -74.255321 -3.450619e+01 -1.675
  832 1 -75.475434 -3.377975e+01 -1.675
  833 1 -75.456370 -3.235987e+01 -1.675
  834 1 -74.217193 -3.166645e+01 -1.675
  835 1 -76.714612 -3.447317e+01 -1.675
  836 1 -77.934725 -3.374673e+01 -1.675
  837 1 -77.915660 -3.232685e+01 -1.675
  838 1 -76.676483 -3.163343e+01 -1.675
  839 1 -79.173902 -3.444015e+01 -1.675
  840 1 -79.135773 -3.160041e+01 -1.675
  841 1  78.277881 -3.229383e+01 -1.675
  842 1  77.057768 -3.156739e+01 -1.675
  843 1  77.076833 -3.014752e+01 -1.675
  844 1  78.316010 -2.945409e+01 -1.675
  845 1  75.818591 -3.226081e+01 -1.675
  846 1  74.598478 -3.153437e+01 -1.675
  847 1  74.617542 -3.011449e+01 -1.675
  848 1  75.856720 -2.942107e+01 -1.675
  849 1  73.359300 -3.222779e+01 -1.675
  850 1  72.139187 -3.150135e+01 -1.675
  851 1  72.158252 -3.008147e+01 -1.675
  852 1  73.397429 -2.938805e+01 -1.675
  853 1  70.900010 -3.219477e+01 -1.675
  854 1  69.679897 -3.146833e+01 -1.675
  855 1  69.698961 -3.004845e+01 -1.675
  856 1  70.938139 -2.935503e+01 -1.675
  857 1  68.440720 -3.216175e+01 -1.675
  858 1  67.220606 -3.143531e+01 -1.675
  859 1  67.239671 -3.001543e+01 -1.675
  860 1  68.478848 -2.932201e+01 -1.675
  861 1  65.981429 -3.212873e+01 -1.675
  862 1  64.761316 -3.140229e+01 -1.675
  863 1  64.780380 -2.998241e+01 -1.675
  864 1  66.019558 -2.928899e+01 -1.675
  865 1  63.522139 -3.209571e+01 -1.675
  866 1  62.302025 -3.136927e+01 -1.675
  867 1  62.321090 -2.994939e+01 -1.675
  868 1  63.560267 -2.925597e+01 -1.675
  869 1  61.062848 -3.206269e+01 -1.675
  870 1  59.842735 -3.133625e+01 -1.675
  871 1  59.861799 -2.991637e+01 -1.675
  872 1  61.100977 -2.922295e+01 -1.675
  873 1  58.603558 -3.202967e+01 -1.675
  874 1  57.383445 -3.130323e+01 -1.675
  875 1  57.402509 -2.988335e+01 -1.675
  876 1  58.641686 -2.918993e+01 -1.675
  877 1  56.144267 -3.199665e+01 -1.675
  878 1  54.924154 -3.127020e+01 -1.675
  879 1  54.943218 -2.985033e+01 -1.675
  880 1  56.182396 -2.915691e+01 -1.675
  881 1  53.684977 -3.196363e+01 -1.675
  882 1  52.464864 -3.123718e+01 -1.675
  883 1  52.483928 -2.981731e+01 -1.675
  884 1  53.723105 -2.912389e+01 -1.675
  885 1  51.225686 -3.193061e+01 -1.675
  886 1  50.005573 -3.120416e+01 -1.675
  887 1  50.024637 -2.978429e+01 -1.675
  888 1  51.263815 -2.909087e+01 -1.675
  889 1  48.766396 -3.189759e+01 -1.675
  890 1  47.546283 -3.117114e+01 -1.675
  891 1  47.565347 -2.975127e+01 -1.675
  892 1  48.804524 -2.905785e+01 -1.675
  893 1  46.307105 -3.186457e+01 -1.675
  894 1  45.086992 -3.113812e+01 -1.675
  895 1  45.106056 -2.971825e+01 -1.675
  896 1  46.345234 -2.902483e+01 -1.675
  897 1  43.847815 -3.183155e+01 -1.675
  898 1  42.627702 -3.110510e+01 -1.675
  899 1  42.646766 -2.968523e+01 -1.675
  900 1  43.885943 -2.899181e+01 -1.675
  901 1  41.388524 -3.179853e+01 -1.675
  902 1  40.168411 -3.107208e+01 -1.675
  903 1  40.187475 -2.965221e+01 -1.675
  904 1  41.426653 -2.895879e+01 -1.675
  905 1  38.929234 -3.176551e+01 -1.675
  906 1  37.709121 -3.103906e+01 -1.675
  907 1  37.728185 -2.961919e+01 -1.675
  908 1  38.967362 -2.892576e+01 -1.675
  909 1  36.469943 -3.173249e+01 -1.675
  910 1  35.249830 -3.100604e+01 -1.675
  911 1  35.268894 -2.958617e+01 -1.675
  912 1  36.508072 -2.889274e+01 -1.675
  913 1  34.010653 -3.169947e+01 -1.675
  914 1  32.790540 -3.097302e+01 -1.675
  915 1  32.809604 -2.955315e+01 -1.675
  916 1  34.048781 -2.885972e+01 -1.675
  917 1  31.551362 -3.166645e+01 -1.675
  918 1  30.331249 -3.094000e+01 -1.675
  919 1  30.350314 -2.952013e+01 -1.675
  920 1  31.589491 -2.882670e+01 -1.675
  921 1  29.092072 -3.163343e+01 -1.675
  922 1  27.871959 -3.090698e+01 -1.675
  923 1  27.891023 -2.948711e+01 -1.675
  924 1  29.130200 -2.879368e+01 -1.675
  925 1  26.632781 -3.160041e+01 -1.675
  926 1  25.412668 -3.087396e+01 -1.675
  927 1  25.431733 -2.945409e+01 -1.675
  928 1  26.670910 -2.876066e+01 -1.675
  929 1  24.173491 -3.156739e+01 -1.675
  930 1  22.953378 -3.084094e+01 -1.675
  931 1  22.972442 -2.942107e+01 -1.675
  932 1  24.211619 -2.872764e+01 -1.675
  933 1  21.714200 -3.153437e+01 -1.675
  934 1  20.494087 -3.080792e+01 -1.675
  935 1  20.513152 -2.938805e+01 -1.675
  936 1  21.752329 -2.869462e+01 -1.675
  937 1  19.254910 -3.150135e+01 -1.675
  938 1  18.034797 -3.077490e+01 -1.675
  939 1  18.053861 -2.935503e+01 -1.675
  940 1  19.293038 -2.866160e+01 -1.675
  941 1  16.795619 -3.146833e+01 -1.675
  942 1  15.575506 -3.074188e+01 -1.675
  943 1  15.594571 -2.932201e+01 -1.675
  944 1  16.833748 -2.862858e+01 -1.675
  945 1  14.336329 -3.143531e+01 -1.675
  946 1  13.116216 -3.070886e+01 -1.675
  947 1  13.135280 -2.928899e+01 -1.675
  948 1  14.374458 -2.859556e+01 -1.675
  949 1  11.877039 -3.140229e+01 -1.675
  950 1  10.656925 -3.067584e+01 -1.675
  951 1  10.675990 -2.925597e+01 -1.675
  952 1  11.915167 -2.856254e+01 -1.675
  953 1   9.417748 -3.136927e+01 -1.675
  954 1   8.197635 -3.064282e+01 -1.675
  955 1   8.216699 -2.922295e+01 -1.675
  956 1   9.455877 -2.852952e+01 -1.675
  957 1   6.958458 -3.133625e+01 -1.675
  958 1   5.738344 -3.060980e+01 -1.675
  959 1   5.757409 -2.918993e+01 -1.675
  960 1   6.996586 -2.849650e+01 -1.675
  961 1   4.499167 -3.130323e+01 -1.675
  962 1   3.279054 -3.057678e+01 -1.675
  963 1   3.298118 -2.915691e+01 -1.675
  964 1   4.537296 -2.846348e+01 -1.675
  965 1   2.039877 -3.127020e+01 -1.675
  966 1   0.819763 -3.054376e+01 -1.675
  967 1   0.838828 -2.912389e+01 -1.675
  968 1   2.078005 -2.843046e+01 -1.675
  969 1  -0.419414 -3.123718e+01 -1.675
  970 1  -1.639527 -3.051074e+01 -1.675
  971 1  -1.620463 -2.909087e+01 -1.675
  972 1  -0.381285 -2.839744e+01 -1.675
  973 1  -2.878704 -3.120416e+01 -1.675
  974 1  -4.098817 -3.047772e+01 -1.675
  975 1  -4.079753 -2.905785e+01 -1.675
  976 1  -2.840576 -2.836442e+01 -1.675
  977 1  -5.337995 -3.117114e+01 -1.675
  978 1  -6.558108 -3.044470e+01 -1.675
  979 1  -6.539044 -2.902483e+01 -1.675
  980 1  -5.299866 -2.833140e+01 -1.675
  981 1  -7.797285 -3.113812e+01 -1.675
  982 1  -9.017398 -3.041168e+01 -1.675
  983 1  -8.998334 -2.899181e+01 -1.675
  984 1  -7.759157 -2.829838e+01 -1.675
  985 1 -10.256576 -3.110510e+01 -1.675
  986 1 -11.476689 -3.037866e+01 -1.675
  987 1 -11.457625 -2.895879e+01 -1.675
  988 1 -10.218447 -2.826536e+01 -1.675
  989 1 -12.715866 -3.107208e+01 -1.675
  990 1 -13.935979 -3.034564e+01 -1.675
  991 1 -13.916915 -2.892576e+01 -1.675
  992 1 -12.677738 -2.823234e+01 -1.675
  993 1 -15.175157 -3.103906e+01 -1.675
  994 1 -16.395270 -3.031262e+01 -1.675
  995 1 -16.376206 -2.889274e+01 -1.675
  996 1 -15.137028 -2.819932e+01 -1.675
  997 1 -17.634447 -3.100604e+01 -1.675
  998 1 -18.854560 -3.027960e+01 -1.675
  999 1 -18.835496 -2.885972e+01 -1.675
 1000 1 -17.596319 -2.816630e+01 -1.675
 1001 1 -20.093738 -3.097302e+01 -1.675
 1002 1 -21.313851 -3.024658e+01 -1.675
 1003 1 -21.294787 -2.882670e+01 -1.675
 1004 1 -20.055609 -2.813328e+01 -1.675
 1005 1 -22.553028 -3.094000e+01 -1.675
 1006 1 -23.773141 -3.021356e+01 -1.675
 1007 1 -23.754077 -2.879368e+01 -1.675
 1008 1 -22.514900 -2.810026e+01 -1.675
 1009 1 -25.012319 -3.090698e+01 -1.675
 1010 1 -26.232432 -3.018054e+01 -1.675
 1011 1 -26.213368 -2.876066e+01 -1.675
 1012 1 -24.974190 -2.806724e+01 -1.675
 1013 1 -27.471609 -3.087396e+01 -1.675
 1014 1 -28.691722 -3.014752e+01 -1.675
 1015 1 -28.672658 -2.872764e+01 -1.675
 1016 1 -27.433481 -2.803422e+01 -1.675
 1017 1 -29.930900 -3.084094e+01 -1.675
 1018 1 -31.151013 -3.011449e+01 -1.675
 1019 1 -31.131948 -2.869462e+01 -1.675
 1020 1 -29.892771 -2.800120e+01 -1.675
 1021 1 -32.390190 -3.080792e+01 -1.675
 1022 1 -33.610303 -3.008147e+01 -1.675
 1023 1 -33.591239 -2.866160e+01 -1.675
 1024 1 -32.352062 -2.796818e+01 -1.675
 1025 1 -34.849481 -3.077490e+01 -1.675
 1026 1 -36.069594 -3.004845e+01 -1.675
 1027 1 -36.050529 -2.862858e+01 -1.675
 1028 1 -34.811352 -2.793516e+01 -1.675
 1029 1 -37.308771 -3.074188e+01 -1.675
 1030 1 -38.528884 -3.001543e+01 -1.675
 1031 1 -38.509820 -2.859556e+01 -1.675
 1032 1 -37.270643 -2.790214e+01 -1.675
 1033 1 -39.768062 -3.070886e+01 -1.675
 1034 1 -40.988175 -2.998241e+01 -1.675
 1035 1 -40.969110 -2.856254e+01 -1.675
 1036 1 -39.729933 -2.786912e+01 -1.675
 1037 1 -42.227352 -3.067584e+01 -1.675
 1038 1 -43.447465 -2.994939e+01 -1.675
 1039 1 -43.428401 -2.852952e+01 -1.675
 1040 1 -42.189223 -2.783610e+01 -1.675
 1041 1 -44.686643 -3.064282e+01 -1.675
 1042 1 -45.906756 -2.991637e+01 -1.675
 1043 1 -45.887691 -2.849650e+01 -1.675
 1044 1 -44.648514 -2.780308e+01 -1.675
 1045 1 -47.145933 -3.060980e+01 -1.675
 1046 1 -48.366046 -2.988335e+01 -1.675
 1047 1 -48.346982 -2.846348e+01 -1.675
 1048 1 -47.107804 -2.777006e+01 -1.675
 1049 1 -49.605223 -3.057678e+01 -1.675
 1050 1 -50.825337 -2.985033e+01 -1.675
 1051 1 -50.806272 -2.843046e+01 -1.675
 1052 1 -49.567095 -2.773703e+01 -1.675
 1053 1 -52.064514 -3.054376e+01 -1.675
 1054 1 -53.284627 -2.981731e+01 -1.675
 1055 1 -53.265563 -2.839744e+01 -1.675
 1056 1 -52.026385 -2.770401e+01 -1.675
 1057 1 -54.523804 -3.051074e+01 -1.675
 1058 1 -55.743918 -2.978429e+01 -1.675
 1059 1 -55.724853 -2.836442e+01 -1.675
 1060 1 -54.485676 -2.767099e+01 -1.675
 1061 1 -56.983095 -3.047772e+01 -1.675
 1062 1 -58.203208 -2.975127e+01 -1.675
 1063 1 -58.184144 -2.833140e+01 -1.675
 1064 1 -56.944966 -2.763797e+01 -1.675
 1065 1 -59.442385 -3.044470e+01 -1.675
 1066 1 -60.662498 -2.971825e+01 -1.675
 1067 1 -60.643434 -2.829838e+01 -1.675
 1068 1 -59.404257 -2.760495e+01 -1.675
 1069 1 -61.901676 -3.041168e+01 -1.675
 1070 1 -63.121789 -2.968523e+01 -1.675
 1071 1 -63.102725 -2.826536e+01 -1.675
 1072 1 -61.863547 -2.757193e+01 -1.675
 1073 1 -64.360966 -3.037866e+01 -1.675
 1074 1 -65.581079 -2.965221e+01 -1.675
 1075 1 -65.562015 -2.823234e+01 -1.675
 1076 1 -64.322838 -2.753891e+01 -1.675
 1077 1 -66.820257 -3.034564e+01 -1.675
 1078 1 -68.040370 -2.961919e+01 -1.675
 1079 1 -68.021306 -2.819932e+01 -1.675
 1080 1 -66.782128 -2.750589e+01 -1.675
 1081 1 -69.279547 -3.031262e+01 -1.675
 1082 1 -70.499660 -2.958617e+01 -1.675
 1083 1 -70.480596 -2.816630e+01 -1.675
 1084 1 -69.241419 -2.747287e+01 -1.675
 1085 1 -71.738838 -3.027960e+01 -1.675
 1086 1 -72.958951 -2.955315e+01 -1.675
 1087 1 -72.939887 -2.813328e+01 -1.675
 1088 1 -71.700709 -2.743985e+01 -1.675
 1089 1 -74.198128 -3.024658e+01 -1.675
 1090 1 -75.418241 -2.952013e+01 -1.675
 1091 1 -75.399177 -2.810026e+01 -1.675
 1092 1 -74.160000 -2.740683e+01 -1.675
 1093 1 -76.657419 -3.021356e+01 -1.675
 1094 1 -77.877532 -2.948711e+01 -1.675
 1095 1 -77.858468 -2.806724e+01 -1.675
 1096 1 -76.619290 -2.737381e+01 -1.675
 1097 1 -79.116709 -3.018054e+01 -1.675
 1098 1 -79.078581 -2.734079e+01 -1.675
 1099 1  78.335074 -2.803422e+01 -1.675
 1100 1  77.114961 -2.730777e+01 -1.675
 1101 1  77.134025 -2.588790e+01 -1.675
 1102 1  78.373203 -2.519447e+01 -1.675
 1103 1  75.875784 -2.800120e+01 -1.675
 1104 1  74.655671 -2.727475e+01 -1.675
 1105 1  74.674735 -2.585488e+01 -1.675
 1106 1  75.913912 -2.516145e+01 -1.675
 1107 1  73.416493 -2.796818e+01 -1.675
 1108 1  72.196380 -2.724173e+01 -1.675
 1109 1  72.215444 -2.582186e+01 -1.675
 1110 1  73.454622 -2.512843e+01 -1.675
 1111 1  70.957203 -2.793516e+01 -1.675
 1112 1  69.737090 -2.720871e+01 -1.675
 1113 1  69.756154 -2.578884e+01 -1.675
 1114 1  70.995331 -2.509541e+01 -1.675
 1115 1  68.497912 -2.790214e+01 -1.675
 1116 1  67.277799 -2.717569e+01 -1.675
 1117 1  67.296864 -2.575582e+01 -1.675
 1118 1  68.536041 -2.506239e+01 -1.675
 1119 1  66.038622 -2.786912e+01 -1.675
 1120 1  64.818509 -2.714267e+01 -1.675
 1121 1  64.837573 -2.572280e+01 -1.675
 1122 1  66.076750 -2.502937e+01 -1.675
 1123 1  63.579331 -2.783610e+01 -1.675
 1124 1  62.359218 -2.710965e+01 -1.675
 1125 1  62.378283 -2.568978e+01 -1.675
 1126 1  63.617460 -2.499635e+01 -1.675
 1127 1  61.120041 -2.780308e+01 -1.675
 1128 1  59.899928 -2.707663e+01 -1.675
 1129 1  59.918992 -2.565676e+01 -1.675
 1130 1  61.158169 -2.496333e+01 -1.675
 1131 1  58.660750 -2.777006e+01 -1.675
 1132 1  57.440637 -2.704361e+01 -1.675
 1133 1  57.459702 -2.562374e+01 -1.675
 1134 1  58.698879 -2.493031e+01 -1.675
 1135 1  56.201460 -2.773703e+01 -1.675
 1136 1  54.981347 -2.701059e+01 -1.675
 1137 1  55.000411 -2.559072e+01 -1.675
 1138 1  56.239588 -2.489729e+01 -1.675
 1139 1  53.742169 -2.770401e+01 -1.675
 1140 1  52.522056 -2.697757e+01 -1.675
 1141 1  52.541121 -2.555770e+01 -1.675
 1142 1  53.780298 -2.486427e+01 -1.675
 1143 1  51.282879 -2.767099e+01 -1.675
 1144 1  50.062766 -2.694455e+01 -1.675
 1145 1  50.081830 -2.552468e+01 -1.675
 1146 1  51.321008 -2.483125e+01 -1.675
 1147 1  48.823589 -2.763797e+01 -1.675
 1148 1  47.603475 -2.691153e+01 -1.675
 1149 1  47.622540 -2.549166e+01 -1.675
 1150 1  48.861717 -2.479823e+01 -1.675
 1151 1  46.364298 -2.760495e+01 -1.675
 1152 1  45.144185 -2.687851e+01 -1.675
 1153 1  45.163249 -2.545864e+01 -1.675
 1154 1  46.402427 -2.476521e+01 -1.675
 1155 1  43.905008 -2.757193e+01 -1.675
 1156 1  42.684894 -2.684549e+01 -1.675
 1157 1  42.703959 -2.542562e+01 -1.675
 1158 1  43.943136 -2.473219e+01 -1.675
 1159 1  41.445717 -2.753891e+01 -1.675
 1160 1  40.225604 -2.681247e+01 -1.675
 1161 1  40.244668 -2.539259e+01 -1.675
 1162 1  41.483846 -2.469917e+01 -1.675
 1163 1  38.986427 -2.750589e+01 -1.675
 1164 1  37.766313 -2.677945e+01 -1.675
 1165 1  37.785378 -2.535957e+01 -1.675
 1166 1  39.024555 -2.466615e+01 -1.675
 1167 1  36.527136 -2.747287e+01 -1.675
 1168 1  35.307023 -2.674643e+01 -1.675
 1169 1  35.326087 -2.532655e+01 -1.675
 1170 1  36.565265 -2.463313e+01 -1.675
 1171 1  34.067846 -2.743985e+01 -1.675
 1172 1  32.847733 -2.671341e+01 -1.675
 1173 1  32.866797 -2.529353e+01 -1.675
 1174 1  34.105974 -2.460011e+01 -1.675
 1175 1  31.608555 -2.740683e+01 -1.675
 1176 1  30.388442 -2.668039e+01 -1.675
 1177 1  30.407506 -2.526051e+01 -1.675
 1178 1  31.646684 -2.456709e+01 -1.675
 1179 1  29.149265 -2.737381e+01 -1.675
 1180 1  27.929152 -2.664737e+01 -1.675
 1181 1  27.948216 -2.522749e+01 -1.675
 1182 1  29.187393 -2.453407e+01 -1.675
 1183 1  26.689974 -2.734079e+01 -1.675
 1184 1  25.469861 -2.661435e+01 -1.675
 1185 1  25.488925 -2.519447e+01 -1.675
 1186 1  26.728103 -2.450105e+01 -1.675
 1187 1  24.230684 -2.730777e+01 -1.675
 1188 1  23.010571 -2.658133e+01 -1.675
 1189 1  23.029635 -2.516145e+01 -1.675
 1190 1  24.268812 -2.446803e+01 -1.675
 1191 1  21.771393 -2.727475e+01 -1.675
 1192 1  20.551280 -2.654830e+01 -1.675
 1193 1  20.570344 -2.512843e+01 -1.675
 1194 1  21.809522 -2.443501e+01 -1.675
 1195 1  19.312103 -2.724173e+01 -1.675
 1196 1  18.091990 -2.651528e+01 -1.675
 1197 1  18.111054 -2.509541e+01 -1.675
 1198 1  19.350231 -2.440199e+01 -1.675
 1199 1  16.852812 -2.720871e+01 -1.675
 1200 1  15.632699 -2.648226e+01 -1.675
 1201 1  15.651763 -2.506239e+01 -1.675
 1202 1  16.890941 -2.436897e+01 -1.675
 1203 1  14.393522 -2.717569e+01 -1.675
 1204 1  13.173409 -2.644924e+01 -1.675
 1205 1  13.192473 -2.502937e+01 -1.675
 1206 1  14.431650 -2.433595e+01 -1.675
 1207 1  11.934231 -2.714267e+01 -1.675
 1208 1  10.714118 -2.641622e+01 -1.675
 1209 1  10.733182 -2.499635e+01 -1.675
 1210 1  11.972360 -2.430293e+01 -1.675
 1211 1   9.474941 -2.710965e+01 -1.675
 1212 1   8.254828 -2.638320e+01 -1.675
 1213 1   8.273892 -2.496333e+01 -1.675
 1214 1   9.513069 -2.426991e+01 -1.675
 1215 1   7.015650 -2.707663e+01 -1.675
 1216 1   5.795537 -2.635018e+01 -1.675
 1217 1   5.814602 -2.493031e+01 -1.675
 1218 1   7.053779 -2.423689e+01 -1.675
 1219 1   4.556360 -2.704361e+01 -1.675
 1220 1   3.336247 -2.631716e+01 -1.675
 1221 1   3.355311 -2.489729e+01 -1.675
 1222 1   4.594488 -2.420386e+01 -1.675
 1223 1   2.097069 -2.701059e+01 -1.675
 1224 1   0.876956 -2.628414e+01 -1.675
 1225 1   0.896021 -2.486427e+01 -1.675
 1226 1   2.135198 -2.417084e+01 -1.675
 1227 1  -0.362221 -2.697757e+01 -1.675
 1228 1  -1.582334 -2.625112e+01 -1.675
 1229 1  -1.563270 -2.483125e+01 -1.675
 1230 1  -0.324093 -2.413782e+01 -1.675
 1231 1  -2.821512 -2.694455e+01 -1.675
 1232 1  -4.041625 -2.621810e+01 -1.675
 1233 1  -4.022560 -2.479823e+01 -1.675
 1234 1  -2.783383 -2.410480e+01 -1.675
 1235 1  -5.280802 -2.691153e+01 -1.675
 1236 1  -6.500915 -2.618508e+01 -1.675
 1237 1  -6.481851 -2.476521e+01 -1.675
 1238 1  -5.242674 -2.407178e+01 -1.675
 1239 1  -7.740093 -2.687851e+01 -1.675
 1240 1  -8.960206 -2.615206e+01 -1.675
 1241 1  -8.941141 -2.473219e+01 -1.675
 1242 1  -7.701964 -2.403876e+01 -1.675
 1243 1 -10.199383 -2.684549e+01 -1.675
 1244 1 -11.419496 -2.611904e+01 -1.675
 1245 1 -11.400432 -2.469917e+01 -1.675
 1246 1 -10.161254 -2.400574e+01 -1.675
 1247 1 -12.658673 -2.681247e+01 -1.675
 1248 1 -13.878787 -2.608602e+01 -1.675
 1249 1 -13.859722 -2.466615e+01 -1.675
 1250 1 -12.620545 -2.397272e+01 -1.675
 1251 1 -15.117964 -2.677945e+01 -1.675
 1252 1 -16.338077 -2.605300e+01 -1.675
 1253 1 -16.319013 -2.463313e+01 -1.675
 1254 1 -15.079835 -2.393970e+01 -1.675
 1255 1 -17.577254 -2.674643e+01 -1.675
 1256 1 -18.797368 -2.601998e+01 -1.675
 1257 1 -18.778303 -2.460011e+01 -1.675
 1258 1 -17.539126 -2.390668e+01 -1.675
 1259 1 -20.036545 -2.671341e+01 -1.675
 1260 1 -21.256658 -2.598696e+01 -1.675
 1261 1 -21.237594 -2.456709e+01 -1.675
 1262 1 -19.998416 -2.387366e+01 -1.675
 1263 1 -22.495835 -2.668039e+01 -1.675
 1264 1 -23.715948 -2.595394e+01 -1.675
 1265 1 -23.696884 -2.453407e+01 -1.675
 1266 1 -22.457707 -2.384064e+01 -1.675
 1267 1 -24.955126 -2.664737e+01 -1.675
 1268 1 -26.175239 -2.592092e+01 -1.675
 1269 1 -26.156175 -2.450105e+01 -1.675
 1270 1 -24.916997 -2.380762e+01 -1.675
 1271 1 -27.414416 -2.661435e+01 -1.675
 1272 1 -28.634529 -2.588790e+01 -1.675
 1273 1 -28.615465 -2.446803e+01 -1.675
 1274 1 -27.376288 -2.377460e+01 -1.675
 1275 1 -29.873707 -2.658133e+01 -1.675
 1276 1 -31.093820 -2.585488e+01 -1.675
 1277 1 -31.074756 -2.443501e+01 -1.675
 1278 1 -29.835578 -2.374158e+01 -1.675
 1279 1 -32.332997 -2.654830e+01 -1.675
 1280 1 -33.553110 -2.582186e+01 -1.675
 1281 1 -33.534046 -2.440199e+01 -1.675
 1282 1 -32.294869 -2.370856e+01 -1.675
 1283 1 -34.792288 -2.651528e+01 -1.675
 1284 1 -36.012401 -2.578884e+01 -1.675
 1285 1 -35.993337 -2.436897e+01 -1.675
 1286 1 -34.754159 -2.367554e+01 -1.675
 1287 1 -37.251578 -2.648226e+01 -1.675
 1288 1 -38.471691 -2.575582e+01 -1.675
 1289 1 -38.452627 -2.433595e+01 -1.675
 1290 1 -37.213450 -2.364252e+01 -1.675
 1291 1 -39.710869 -2.644924e+01 -1.675
 1292 1 -40.930982 -2.572280e+01 -1.675
 1293 1 -40.911918 -2.430293e+01 -1.675
 1294 1 -39.672740 -2.360950e+01 -1.675
 1295 1 -42.170159 -2.641622e+01 -1.675
 1296 1 -43.390272 -2.568978e+01 -1.675
 1297 1 -43.371208 -2.426991e+01 -1.675
 1298 1 -42.132031 -2.357648e+01 -1.675
 1299 1 -44.629450 -2.638320e+01 -1.675
 1300 1 -45.849563 -2.565676e+01 -1.675
 1301 1 -45.830499 -2.423689e+01 -1.675
 1302 1 -44.591321 -2.354346e+01 -1.675
 1303 1 -47.088740 -2.635018e+01 -1.675
 1304 1 -48.308853 -2.562374e+01 -1.675
 1305 1 -48.289789 -2.420386e+01 -1.675
 1306 1 -47.050612 -2.351044e+01 -1.675
 1307 1 -49.548031 -2.631716e+01 -1.675
 1308 1 -50.768144 -2.559072e+01 -1.675
 1309 1 -50.749080 -2.417084e+01 -1.675
 1310 1 -49.509902 -2.347742e+01 -1.675
 1311 1 -52.007321 -2.628414e+01 -1.675
 1312 1 -53.227434 -2.555770e+01 -1.675
 1313 1 -53.208370 -2.413782e+01 -1.675
 1314 1 -51.969193 -2.344440e+01 -1.675
 1315 1 -54.466612 -2.625112e+01 -1.675
 1316 1 -55.686725 -2.552468e+01 -1.675
 1317 1 -55.667660 -2.410480e+01 -1.675
 1318 1 -54.428483 -2.341138e+01 -1.675
 1319 1 -56.925902 -2.621810e+01 -1.675
 1320 1 -58.146015 -2.549166e+01 -1.675
 1321 1 -58.126951 -2.407178e+01 -1.675
 1322 1 -56.887774 -2.337836e+01 -1.675
 1323 1 -59.385193 -2.618508e+01 -1.675
 1324 1 -60.605306 -2.545864e+01 -1.675
 1325 1 -60.586241 -2.403876e+01 -1.675
 1326 1 -59.347064 -2.334534e+01 -1.675
 1327 1 -61.844483 -2.615206e+01 -1.675
 1328 1 -63.064596 -2.542562e+01 -1.675
 1329 1 -63.045532 -2.400574e+01 -1.675
 1330 1 -61.806355 -2.331232e+01 -1.675
 1331 1 -64.303774 -2.611904e+01 -1.675
 1332 1 -65.523887 -2.539259e+01 -1.675
 1333 1 -65.504822 -2.397272e+01 -1.675
 1334 1 -64.265645 -2.327930e+01 -1.675
 1335 1 -66.763064 -2.608602e+01 -1.675
 1336 1 -67.983177 -2.535957e+01 -1.675
 1337 1 -67.964113 -2.393970e+01 -1.675
 1338 1 -66.724935 -2.324628e+01 -1.675
 1339 1 -69.222354 -2.605300e+01 -1.675
 1340 1 -70.442468 -2.532655e+01 -1.675
 1341 1 -70.423403 -2.390668e+01 -1.675
 1342 1 -69.184226 -2.321326e+01 -1.675
 1343 1 -71.681645 -2.601998e+01 -1.675
 1344 1 -72.901758 -2.529353e+01 -1.675
 1345 1 -72.882694 -2.387366e+01 -1.675
 1346 1 -71.643516 -2.318024e+01 -1.675
 1347 1 -74.140935 -2.598696e+01 -1.675
 1348 1 -75.361049 -2.526051e+01 -1.675
 1349 1 -75.341984 -2.384064e+01 -1.675
 1350 1 -74.102807 -2.314722e+01 -1.675
 1351 1 -76.600226 -2.595394e+01 -1.675
 1352 1 -77.820339 -2.522749e+01 -1.675
 1353 1 -77.801275 -2.380762e+01 -1.675
 1354 1 -76.562097 -2.311420e+01 -1.675
 1355 1 -79.059516 -2.592092e+01 -1.675
 1356 1 -79.021388 -2.308118e+01 -1.675
 1357 1  78.392267 -2.377460e+01 -1.675
 1358 1  77.172154 -2.304816e+01 -1.675
 1359 1  77.191218 -2.162828e+01 -1.675
 1360 1  78.430396 -2.093486e+01 -1.675
 1361 1  75.932977 -2.374158e+01 -1.675
 1362 1  74.712863 -2.301513e+01 -1.675
 1363 1  74.731928 -2.159526e+01 -1.675
 1364 1  75.971105 -2.090184e+01 -1.675
 1365 1  73.473686 -2.370856e+01 -1.675
 1366 1  72.253573 -2.298211e+01 -1.675
 1367 1  72.272637 -2.156224e+01 -1.675
 1368 1  73.511815 -2.086882e+01 -1.675
 1369 1  71.014396 -2.367554e+01 -1.675
 1370 1  69.794283 -2.294909e+01 -1.675
 1371 1  69.813347 -2.152922e+01 -1.675
 1372 1  71.052524 -2.083580e+01 -1.675
 1373 1  68.555105 -2.364252e+01 -1.675
 1374 1  67.334992 -2.291607e+01 -1.675
 1375 1  67.354056 -2.149620e+01 -1.675
 1376 1  68.593234 -2.080278e+01 -1.675
 1377 1  66.095815 -2.360950e+01 -1.675
 1378 1  64.875702 -2.288305e+01 -1.675
 1379 1  64.894766 -2.146318e+01 -1.675
 1380 1  66.133943 -2.076976e+01 -1.675
 1381 1  63.636524 -2.357648e+01 -1.675
 1382 1  62.416411 -2.285003e+01 -1.675
 1383 1  62.435475 -2.143016e+01 -1.675
 1384 1  63.674653 -2.073674e+01 -1.675
 1385 1  61.177234 -2.354346e+01 -1.675
 1386 1  59.957121 -2.281701e+01 -1.675
 1387 1  59.976185 -2.139714e+01 -1.675
 1388 1  61.215362 -2.070372e+01 -1.675
 1389 1  58.717943 -2.351044e+01 -1.675
 1390 1  57.497830 -2.278399e+01 -1.675
 1391 1  57.516894 -2.136412e+01 -1.675
 1392 1  58.756072 -2.067069e+01 -1.675
 1393 1  56.258653 -2.347742e+01 -1.675
 1394 1  55.038540 -2.275097e+01 -1.675
 1395 1  55.057604 -2.133110e+01 -1.675
 1396 1  56.296781 -2.063767e+01 -1.675
 1397 1  53.799362 -2.344440e+01 -1.675
 1398 1  52.579249 -2.271795e+01 -1.675
 1399 1  52.598313 -2.129808e+01 -1.675
 1400 1  53.837491 -2.060465e+01 -1.675
 1401 1  51.340072 -2.341138e+01 -1.675
 1402 1  50.119959 -2.268493e+01 -1.675
 1403 1  50.139023 -2.126506e+01 -1.675
 1404 1  51.378200 -2.057163e+01 -1.675
 1405 1  48.880781 -2.337836e+01 -1.675
 1406 1  47.660668 -2.265191e+01 -1.675
 1407 1  47.679732 -2.123204e+01 -1.675
 1408 1  48.918910 -2.053861e+01 -1.675
 1409 1  46.421491 -2.334534e+01 -1.675
 1410 1  45.201378 -2.261889e+01 -1.675
 1411 1  45.220442 -2.119902e+01 -1.675
 1412 1  46.459619 -2.050559e+01 -1.675
 1413 1  43.962200 -2.331232e+01 -1.675
 1414 1  42.742087 -2.258587e+01 -1.675
 1415 1  42.761152 -2.116600e+01 -1.675
 1416 1  44.000329 -2.047257e+01 -1.675
 1417 1  41.502910 -2.327930e+01 -1.675
 1418 1  40.282797 -2.255285e+01 -1.675
 1419 1  40.301861 -2.113298e+01 -1.675
 1420 1  41.541038 -2.043955e+01 -1.675
 1421 1  39.043619 -2.324628e+01 -1.675
 1422 1  37.823506 -2.251983e+01 -1.675
 1423 1  37.842571 -2.109996e+01 -1.675
 1424 1  39.081748 -2.040653e+01 -1.675
 1425 1  36.584329 -2.321326e+01 -1.675
 1426 1  35.364216 -2.248681e+01 -1.675
 1427 1  35.383280 -2.106694e+01 -1.675
 1428 1  36.622457 -2.037351e+01 -1.675
 1429 1  34.125038 -2.318024e+01 -1.675
 1430 1  32.904925 -2.245379e+01 -1.675
 1431 1  32.923990 -2.103392e+01 -1.675
 1432 1  34.163167 -2.034049e+01 -1.675
 1433 1  31.665748 -2.314722e+01 -1.675
 1434 1  30.445635 -2.242077e+01 -1.675
 1435 1  30.464699 -2.100090e+01 -1.675
 1436 1  31.703876 -2.030747e+01 -1.675
 1437 1  29.206457 -2.311420e+01 -1.675
 1438 1  27.986344 -2.238775e+01 -1.675
 1439 1  28.005409 -2.096788e+01 -1.675
 1440 1  29.244586 -2.027445e+01 -1.675
 1441 1  26.747167 -2.308118e+01 -1.675
 1442 1  25.527054 -2.235473e+01 -1.675
 1443 1  25.546118 -2.093486e+01 -1.675
 1444 1  26.785296 -2.024143e+01 -1.675
 1445 1  24.287877 -2.304816e+01 -1.675
 1446 1  23.067763 -2.232171e+01 -1.675
 1447 1  23.086828 -2.090184e+01 -1.675
 1448 1  24.326005 -2.020841e+01 -1.675
 1449 1  21.828586 -2.301513e+01 -1.675
 1450 1  20.608473 -2.228869e+01 -1.675
 1451 1  20.627537 -2.086882e+01 -1.675
 1452 1  21.866715 -2.017539e+01 -1.675
 1453 1  19.369296 -2.298211e+01 -1.675
 1454 1  18.149182 -2.225567e+01 -1.675
 1455 1  18.168247 -2.083580e+01 -1.675
 1456 1  19.407424 -2.014237e+01 -1.675
 1457 1  16.910005 -2.294909e+01 -1.675
 1458 1  15.689892 -2.222265e+01 -1.675
 1459 1  15.708956 -2.080278e+01 -1.675
 1460 1  16.948134 -2.010935e+01 -1.675
 1461 1  14.450715 -2.291607e+01 -1.675
 1462 1  13.230601 -2.218963e+01 -1.675
 1463 1  13.249666 -2.076976e+01 -1.675
 1464 1  14.488843 -2.007633e+01 -1.675
 1465 1  11.991424 -2.288305e+01 -1.675
 1466 1  10.771311 -2.215661e+01 -1.675
 1467 1  10.790375 -2.073674e+01 -1.675
 1468 1  12.029553 -2.004331e+01 -1.675
 1469 1   9.532134 -2.285003e+01 -1.675
 1470 1   8.312021 -2.212359e+01 -1.675
 1471 1   8.331085 -2.070372e+01 -1.675
 1472 1   9.570262 -2.001029e+01 -1.675
 1473 1   7.072843 -2.281701e+01 -1.675
 1474 1   5.852730 -2.209057e+01 -1.675
 1475 1   5.871794 -2.067069e+01 -1.675
 1476 1   7.110972 -1.997727e+01 -1.675
 1477 1   4.613553 -2.278399e+01 -1.675
 1478 1   3.393440 -2.205755e+01 -1.675
 1479 1   3.412504 -2.063767e+01 -1.675
 1480 1   4.651681 -1.994425e+01 -1.675
 1481 1   2.154262 -2.275097e+01 -1.675
 1482 1   0.934149 -2.202453e+01 -1.675
 1483 1   0.953213 -2.060465e+01 -1.675
 1484 1   2.192391 -1.991123e+01 -1.675
 1485 1  -0.305028 -2.271795e+01 -1.675
 1486 1  -1.525141 -2.199151e+01 -1.675
 1487 1  -1.506077 -2.057163e+01 -1.675
 1488 1  -0.266900 -1.987821e+01 -1.675
 1489 1  -2.764319 -2.268493e+01 -1.675
 1490 1  -3.984432 -2.195849e+01 -1.675
 1491 1  -3.965368 -2.053861e+01 -1.675
 1492 1  -2.726190 -1.984519e+01 -1.675
 1493 1  -5.223609 -2.265191e+01 -1.675
 1494 1  -6.443722 -2.192547e+01 -1.675
 1495 1  -6.424658 -2.050559e+01 -1.675
 1496 1  -5.185481 -1.981217e+01 -1.675
 1497 1  -7.682900 -2.261889e+01 -1.675
 1498 1  -8.903013 -2.189245e+01 -1.675
 1499 1  -8.883949 -2.047257e+01 -1.675
 1500 1  -7.644771 -1.977915e+01 -1.675
 1501 1 -10.142190 -2.258587e+01 -1.675
 1502 1 -11.362303 -2.185943e+01 -1.675
 1503 1 -11.343239 -2.043955e+01 -1.675
 1504 1 -10.104062 -1.974613e+01 -1.675
 1505 1 -12.601481 -2.255285e+01 -1.675
 1506 1 -13.821594 -2.182640e+01 -1.675
 1507 1 -13.802530 -2.040653e+01 -1.675
 1508 1 -12.563352 -1.971311e+01 -1.675
 1509 1 -15.060771 -2.251983e+01 -1.675
 1510 1 -16.280884 -2.179338e+01 -1.675
 1511 1 -16.261820 -2.037351e+01 -1.675
 1512 1 -15.022643 -1.968009e+01 -1.675
 1513 1 -17.520062 -2.248681e+01 -1.675
 1514 1 -18.740175 -2.176036e+01 -1.675
 1515 1 -18.721110 -2.034049e+01 -1.675
 1516 1 -17.481933 -1.964707e+01 -1.675
 1517 1 -19.979352 -2.245379e+01 -1.675
 1518 1 -21.199465 -2.172734e+01 -1.675
 1519 1 -21.180401 -2.030747e+01 -1.675
 1520 1 -19.941224 -1.961405e+01 -1.675
 1521 1 -22.438643 -2.242077e+01 -1.675
 1522 1 -23.658756 -2.169432e+01 -1.675
 1523 1 -23.639691 -2.027445e+01 -1.675
 1524 1 -22.400514 -1.958103e+01 -1.675
 1525 1 -24.897933 -2.238775e+01 -1.675
 1526 1 -26.118046 -2.166130e+01 -1.675
 1527 1 -26.098982 -2.024143e+01 -1.675
 1528 1 -24.859805 -1.954801e+01 -1.675
 1529 1 -27.357224 -2.235473e+01 -1.675
 1530 1 -28.577337 -2.162828e+01 -1.675
 1531 1 -28.558272 -2.020841e+01 -1.675
 1532 1 -27.319095 -1.951499e+01 -1.675
 1533 1 -29.816514 -2.232171e+01 -1.675
 1534 1 -31.036627 -2.159526e+01 -1.675
 1535 1 -31.017563 -2.017539e+01 -1.675
 1536 1 -29.778385 -1.948196e+01 -1.675
 1537 1 -32.275805 -2.228869e+01 -1.675
 1538 1 -33.495918 -2.156224e+01 -1.675
 1539 1 -33.476853 -2.014237e+01 -1.675
 1540 1 -32.237676 -1.944894e+01 -1.675
 1541 1 -34.735095 -2.225567e+01 -1.675
 1542 1 -35.955208 -2.152922e+01 -1.675
 1543 1 -35.936144 -2.010935e+01 -1.675
 1544 1 -34.696966 -1.941592e+01 -1.675
 1545 1 -37.194385 -2.222265e+01 -1.675
 1546 1 -38.414499 -2.149620e+01 -1.675
 1547 1 -38.395434 -2.007633e+01 -1.675
 1548 1 -37.156257 -1.938290e+01 -1.675
 1549 1 -39.653676 -2.218963e+01 -1.675
 1550 1 -40.873789 -2.146318e+01 -1.675
 1551 1 -40.854725 -2.004331e+01 -1.675
 1552 1 -39.615547 -1.934988e+01 -1.675
 1553 1 -42.112966 -2.215661e+01 -1.675
 1554 1 -43.333080 -2.143016e+01 -1.675
 1555 1 -43.314015 -2.001029e+01 -1.675
 1556 1 -42.074838 -1.931686e+01 -1.675
 1557 1 -44.572257 -2.212359e+01 -1.675
 1558 1 -45.792370 -2.139714e+01 -1.675
 1559 1 -45.773306 -1.997727e+01 -1.675
 1560 1 -44.534128 -1.928384e+01 -1.675
 1561 1 -47.031547 -2.209057e+01 -1.675
 1562 1 -48.251660 -2.136412e+01 -1.675
 1563 1 -48.232596 -1.994425e+01 -1.675
 1564 1 -46.993419 -1.925082e+01 -1.675
 1565 1 -49.490838 -2.205755e+01 -1.675
 1566 1 -50.710951 -2.133110e+01 -1.675
 1567 1 -50.691887 -1.991123e+01 -1.675
 1568 1 -49.452709 -1.921780e+01 -1.675
 1569 1 -51.950128 -2.202453e+01 -1.675
 1570 1 -53.170241 -2.129808e+01 -1.675
 1571 1 -53.151177 -1.987821e+01 -1.675
 1572 1 -51.912000 -1.918478e+01 -1.675
 1573 1 -54.409419 -2.199151e+01 -1.675
 1574 1 -55.629532 -2.126506e+01 -1.675
 1575 1 -55.610468 -1.984519e+01 -1.675
 1576 1 -54.371290 -1.915176e+01 -1.675
 1577 1 -56.868709 -2.195849e+01 -1.675
 1578 1 -58.088822 -2.123204e+01 -1.675
 1579 1 -58.069758 -1.981217e+01 -1.675
 1580 1 -56.830581 -1.911874e+01 -1.675
 1581 1 -59.328000 -2.192547e+01 -1.675
 1582 1 -60.548113 -2.119902e+01 -1.675
 1583 1 -60.529049 -1.977915e+01 -1.675
 1584 1 -59.289871 -1.908572e+01 -1.675
 1585 1 -61.787290 -2.189245e+01 -1.675
 1586 1 -63.007403 -2.116600e+01 -1.675
 1587 1 -62.988339 -1.974613e+01 -1.675
 1588 1 -61.749162 -1.905270e+01 -1.675
 1589 1 -64.246581 -2.185943e+01 -1.675
 1590 1 -65.466694 -2.113298e+01 -1.675
 1591 1 -65.447630 -1.971311e+01 -1.675
 1592 1 -64.208452 -1.901968e+01 -1.675
 1593 1 -66.705871 -2.182640e+01 -1.675
 1594 1 -67.925984 -2.109996e+01 -1.675
 1595 1 -67.906920 -1.968009e+01 -1.675
 1596 1 -66.667743 -1.898666e+01 -1.675
 1597 1 -69.165162 -2.179338e+01 -1.675
 1598 1 -70.385275 -2.106694e+01 -1.675
 1599 1 -70.366211 -1.964707e+01 -1.675
 1600 1 -69.127033 -1.895364e+01 -1.675
 1601 1 -71.624452 -2.176036e+01 -1.675
 1602 1 -72.844565 -2.103392e+01 -1.675
 1603 1 -72.825501 -1.961405e+01 -1.675
 1604 1 -71.586324 -1.892062e+01 -1.675
 1605 1 -74.083743 -2.172734e+01 -1.675
 1606 1 -75.303856 -2.100090e+01 -1.675
 1607 1 -75.284791 -1.958103e+01 -1.675
 1608 1 -74.045614 -1.888760e+01 -1.675
 1609 1 -76.543033 -2.169432e+01 -1.675
 1610 1 -77.763146 -2.096788e+01 -1.675
 1611 1 -77.744082 -1.954801e+01 -1.675
 1612 1 -76.504905 -1.885458e+01 -1.675
 1613 1 -79.002324 -2.166130e+01 -1.675
 1614 1 -78.964195 -1.882156e+01 -1.675
 1615 1  78.449460 -1.951499e+01 -1.675
 1616 1  77.229347 -1.878854e+01 -1.675
 1617 1  77.248411 -1.736867e+01 -1.675
 1618 1  78.487588 -1.667524e+01 -1.675
 1619 1  75.990169 -1.948196e+01 -1.675
 1620 1  74.770056 -1.875552e+01 -1.675
 1621 1  74.789121 -1.733565e+01 -1.675
 1622 1  76.028298 -1.664222e+01 -1.675
 1623 1  73.530879 -1.944894e+01 -1.675
 1624 1  72.310766 -1.872250e+01 -1.675
 1625 1  72.329830 -1.730263e+01 -1.675
 1626 1  73.569007 -1.660920e+01 -1.675
 1627 1  71.071588 -1.941592e+01 -1.675
 1628 1  69.851475 -1.868948e+01 -1.675
 1629 1  69.870540 -1.726961e+01 -1.675
 1630 1  71.109717 -1.657618e+01 -1.675
 1631 1  68.612298 -1.938290e+01 -1.675
 1632 1  67.392185 -1.865646e+01 -1.675
 1633 1  67.411249 -1.723659e+01 -1.675
 1634 1  68.650426 -1.654316e+01 -1.675
 1635 1  66.153007 -1.934988e+01 -1.675
 1636 1  64.932894 -1.862344e+01 -1.675
 1637 1  64.951959 -1.720357e+01 -1.675
 1638 1  66.191136 -1.651014e+01 -1.675
 1639 1  63.693717 -1.931686e+01 -1.675
 1640 1  62.473604 -1.859042e+01 -1.675
 1641 1  62.492668 -1.717055e+01 -1.675
 1642 1  63.731846 -1.647712e+01 -1.675
 1643 1  61.234427 -1.928384e+01 -1.675
 1644 1  60.014313 -1.855740e+01 -1.675
 1645 1  60.033378 -1.713753e+01 -1.675
 1646 1  61.272555 -1.644410e+01 -1.675
 1647 1  58.775136 -1.925082e+01 -1.675
 1648 1  57.555023 -1.852438e+01 -1.675
 1649 1  57.574087 -1.710450e+01 -1.675
 1650 1  58.813265 -1.641108e+01 -1.675
 1651 1  56.315846 -1.921780e+01 -1.675
 1652 1  55.095732 -1.849136e+01 -1.675
 1653 1  55.114797 -1.707148e+01 -1.675
 1654 1  56.353974 -1.637806e+01 -1.675
 1655 1  53.856555 -1.918478e+01 -1.675
 1656 1  52.636442 -1.845834e+01 -1.675
 1657 1  52.655506 -1.703846e+01 -1.675
 1658 1  53.894684 -1.634504e+01 -1.675
 1659 1  51.397265 -1.915176e+01 -1.675
 1660 1  50.177151 -1.842532e+01 -1.675
 1661 1  50.196216 -1.700544e+01 -1.675
 1662 1  51.435393 -1.631202e+01 -1.675
 1663 1  48.937974 -1.911874e+01 -1.675
 1664 1  47.717861 -1.839230e+01 -1.675
 1665 1  47.736925 -1.697242e+01 -1.675
 1666 1  48.976103 -1.627900e+01 -1.675
 1667 1  46.478684 -1.908572e+01 -1.675
 1668 1  45.258571 -1.835928e+01 -1.675
 1669 1  45.277635 -1.693940e+01 -1.675
 1670 1  46.516812 -1.624598e+01 -1.675
 1671 1  44.019393 -1.905270e+01 -1.675
 1672 1  42.799280 -1.832626e+01 -1.675
 1673 1  42.818344 -1.690638e+01 -1.675
 1674 1  44.057522 -1.621296e+01 -1.675
 1675 1  41.560103 -1.901968e+01 -1.675
 1676 1  40.339990 -1.829323e+01 -1.675
 1677 1  40.359054 -1.687336e+01 -1.675
 1678 1  41.598231 -1.617994e+01 -1.675
 1679 1  39.100812 -1.898666e+01 -1.675
 1680 1  37.880699 -1.826021e+01 -1.675
 1681 1  37.899763 -1.684034e+01 -1.675
 1682 1  39.138941 -1.614692e+01 -1.675
 1683 1  36.641522 -1.895364e+01 -1.675
 1684 1  35.421409 -1.822719e+01 -1.675
 1685 1  35.440473 -1.680732e+01 -1.675
 1686 1  36.679650 -1.611390e+01 -1.675
 1687 1  34.182231 -1.892062e+01 -1.675
 1688 1  32.962118 -1.819417e+01 -1.675
 1689 1  32.981182 -1.677430e+01 -1.675
 1690 1  34.220360 -1.608088e+01 -1.675
 1691 1  31.722941 -1.888760e+01 -1.675
 1692 1  30.502828 -1.816115e+01 -1.675
 1693 1  30.521892 -1.674128e+01 -1.675
 1694 1  31.761069 -1.604786e+01 -1.675
 1695 1  29.263650 -1.885458e+01 -1.675
 1696 1  28.043537 -1.812813e+01 -1.675
 1697 1  28.062601 -1.670826e+01 -1.675
 1698 1  29.301779 -1.601484e+01 -1.675
 1699 1  26.804360 -1.882156e+01 -1.675
 1700 1  25.584247 -1.809511e+01 -1.675
 1701 1  25.603311 -1.667524e+01 -1.675
 1702 1  26.842488 -1.598182e+01 -1.675
 1703 1  24.345069 -1.878854e+01 -1.675
 1704 1  23.124956 -1.806209e+01 -1.675
 1705 1  23.144020 -1.664222e+01 -1.675
 1706 1  24.383198 -1.594880e+01 -1.675
 1707 1  21.885779 -1.875552e+01 -1.675
 1708 1  20.665666 -1.802907e+01 -1.675
 1709 1  20.684730 -1.660920e+01 -1.675
 1710 1  21.923907 -1.591577e+01 -1.675
 1711 1  19.426488 -1.872250e+01 -1.675
 1712 1  18.206375 -1.799605e+01 -1.675
 1713 1  18.225440 -1.657618e+01 -1.675
 1714 1  19.464617 -1.588275e+01 -1.675
 1715 1  16.967198 -1.868948e+01 -1.675
 1716 1  15.747085 -1.796303e+01 -1.675
 1717 1  15.766149 -1.654316e+01 -1.675
 1718 1  17.005326 -1.584973e+01 -1.675
 1719 1  14.507907 -1.865646e+01 -1.675
 1720 1  13.287794 -1.793001e+01 -1.675
 1721 1  13.306859 -1.651014e+01 -1.675
 1722 1  14.546036 -1.581671e+01 -1.675
 1723 1  12.048617 -1.862344e+01 -1.675
 1724 1  10.828504 -1.789699e+01 -1.675
 1725 1  10.847568 -1.647712e+01 -1.675
 1726 1  12.086745 -1.578369e+01 -1.675
 1727 1   9.589326 -1.859042e+01 -1.675
 1728 1   8.369213 -1.786397e+01 -1.675
 1729 1   8.388278 -1.644410e+01 -1.675
 1730 1   9.627455 -1.575067e+01 -1.675
 1731 1   7.130036 -1.855740e+01 -1.675
 1732 1   5.909923 -1.783095e+01 -1.675
 1733 1   5.928987 -1.641108e+01 -1.675
 1734 1   7.168164 -1.571765e+01 -1.675
 1735 1   4.670745 -1.852438e+01 -1.675
 1736 1   3.450632 -1.779793e+01 -1.675
 1737 1   3.469697 -1.637806e+01 -1.675
 1738 1   4.708874 -1.568463e+01 -1.675
 1739 1   2.211455 -1.849136e+01 -1.675
 1740 1   0.991342 -1.776491e+01 -1.675
 1741 1   1.010406 -1.634504e+01 -1.675
 1742 1   2.249584 -1.565161e+01 -1.675
 1743 1  -0.247835 -1.845834e+01 -1.675
 1744 1  -1.467949 -1.773189e+01 -1.675
 1745 1  -1.448884 -1.631202e+01 -1.675
 1746 1  -0.209707 -1.561859e+01 -1.675
 1747 1  -2.707126 -1.842532e+01 -1.675
 1748 1  -3.927239 -1.769887e+01 -1.675
 1749 1  -3.908175 -1.627900e+01 -1.675
 1750 1  -2.668997 -1.558557e+01 -1.675
 1751 1  -5.166416 -1.839230e+01 -1.675
 1752 1  -6.386530 -1.766585e+01 -1.675
 1753 1  -6.367465 -1.624598e+01 -1.675
 1754 1  -5.128288 -1.555255e+01 -1.675
 1755 1  -7.625707 -1.835928e+01 -1.675
 1756 1  -8.845820 -1.763283e+01 -1.675
 1757 1  -8.826756 -1.621296e+01 -1.675
 1758 1  -7.587578 -1.551953e+01 -1.675
 1759 1 -10.084997 -1.832626e+01 -1.675
 1760 1 -11.305110 -1.759981e+01 -1.675
 1761 1 -11.286046 -1.617994e+01 -1.675
 1762 1 -10.046869 -1.548651e+01 -1.675
 1763 1 -12.544288 -1.829323e+01 -1.675
 1764 1 -13.764401 -1.756679e+01 -1.675
 1765 1 -13.745337 -1.614692e+01 -1.675
 1766 1 -12.506159 -1.545349e+01 -1.675
 1767 1 -15.003578 -1.826021e+01 -1.675
 1768 1 -16.223691 -1.753377e+01 -1.675
 1769 1 -16.204627 -1.611390e+01 -1.675
 1770 1 -14.965450 -1.542047e+01 -1.675
 1771 1 -17.462869 -1.822719e+01 -1.675
 1772 1 -18.682982 -1.750075e+01 -1.675
 1773 1 -18.663918 -1.608088e+01 -1.675
 1774 1 -17.424740 -1.538745e+01 -1.675
 1775 1 -19.922159 -1.819417e+01 -1.675
 1776 1 -21.142272 -1.746773e+01 -1.675
 1777 1 -21.123208 -1.604786e+01 -1.675
 1778 1 -19.884031 -1.535443e+01 -1.675
 1779 1 -22.381450 -1.816115e+01 -1.675
 1780 1 -23.601563 -1.743471e+01 -1.675
 1781 1 -23.582499 -1.601484e+01 -1.675
 1782 1 -22.343321 -1.532141e+01 -1.675
 1783 1 -24.840740 -1.812813e+01 -1.675
 1784 1 -26.060853 -1.740169e+01 -1.675
 1785 1 -26.041789 -1.598182e+01 -1.675
 1786 1 -24.802612 -1.528839e+01 -1.675
 1787 1 -27.300031 -1.809511e+01 -1.675
 1788 1 -28.520144 -1.736867e+01 -1.675
 1789 1 -28.501080 -1.594880e+01 -1.675
 1790 1 -27.261902 -1.525537e+01 -1.675
 1791 1 -29.759321 -1.806209e+01 -1.675
 1792 1 -30.979434 -1.733565e+01 -1.675
 1793 1 -30.960370 -1.591577e+01 -1.675
 1794 1 -29.721193 -1.522235e+01 -1.675
 1795 1 -32.218612 -1.802907e+01 -1.675
 1796 1 -33.438725 -1.730263e+01 -1.675
 1797 1 -33.419661 -1.588275e+01 -1.675
 1798 1 -32.180483 -1.518933e+01 -1.675
 1799 1 -34.677902 -1.799605e+01 -1.675
 1800 1 -35.898015 -1.726961e+01 -1.675
 1801 1 -35.878951 -1.584973e+01 -1.675
 1802 1 -34.639774 -1.515631e+01 -1.675
 1803 1 -37.137193 -1.796303e+01 -1.675
 1804 1 -38.357306 -1.723659e+01 -1.675
 1805 1 -38.338242 -1.581671e+01 -1.675
 1806 1 -37.099064 -1.512329e+01 -1.675
 1807 1 -39.596483 -1.793001e+01 -1.675
 1808 1 -40.816596 -1.720357e+01 -1.675
 1809 1 -40.797532 -1.578369e+01 -1.675
 1810 1 -39.558355 -1.509027e+01 -1.675
 1811 1 -42.055774 -1.789699e+01 -1.675
 1812 1 -43.275887 -1.717055e+01 -1.675
 1813 1 -43.256822 -1.575067e+01 -1.675
 1814 1 -42.017645 -1.505725e+01 -1.675
 1815 1 -44.515064 -1.786397e+01 -1.675
 1816 1 -45.735177 -1.713753e+01 -1.675
 1817 1 -45.716113 -1.571765e+01 -1.675
 1818 1 -44.476936 -1.502423e+01 -1.675
 1819 1 -46.974355 -1.783095e+01 -1.675
 1820 1 -48.194468 -1.710450e+01 -1.675
 1821 1 -48.175403 -1.568463e+01 -1.675
 1822 1 -46.936226 -1.499121e+01 -1.675
 1823 1 -49.433645 -1.779793e+01 -1.675
 1824 1 -50.653758 -1.707148e+01 -1.675
 1825 1 -50.634694 -1.565161e+01 -1.675
 1826 1 -49.395517 -1.495819e+01 -1.675
 1827 1 -51.892936 -1.776491e+01 -1.675
 1828 1 -53.113049 -1.703846e+01 -1.675
 1829 1 -53.093984 -1.561859e+01 -1.675
 1830 1 -51.854807 -1.492517e+01 -1.675
 1831 1 -54.352226 -1.773189e+01 -1.675
 1832 1 -55.572339 -1.700544e+01 -1.675
 1833 1 -55.553275 -1.558557e+01 -1.675
 1834 1 -54.314097 -1.489215e+01 -1.675
 1835 1 -56.811516 -1.769887e+01 -1.675
 1836 1 -58.031630 -1.697242e+01 -1.675
 1837 1 -58.012565 -1.555255e+01 -1.675
 1838 1 -56.773388 -1.485913e+01 -1.675
 1839 1 -59.270807 -1.766585e+01 -1.675
 1840 1 -60.490920 -1.693940e+01 -1.675
 1841 1 -60.471856 -1.551953e+01 -1.675
 1842 1 -59.232678 -1.482611e+01 -1.675
 1843 1 -61.730097 -1.763283e+01 -1.675
 1844 1 -62.950211 -1.690638e+01 -1.675
 1845 1 -62.931146 -1.548651e+01 -1.675
 1846 1 -61.691969 -1.479309e+01 -1.675
 1847 1 -64.189388 -1.759981e+01 -1.675
 1848 1 -65.409501 -1.687336e+01 -1.675
 1849 1 -65.390437 -1.545349e+01 -1.675
 1850 1 -64.151259 -1.476006e+01 -1.675
 1851 1 -66.648678 -1.756679e+01 -1.675
 1852 1 -67.868792 -1.684034e+01 -1.675
 1853 1 -67.849727 -1.542047e+01 -1.675
 1854 1 -66.610550 -1.472704e+01 -1.675
 1855 1 -69.107969 -1.753377e+01 -1.675
 1856 1 -70.328082 -1.680732e+01 -1.675
 1857 1 -70.309018 -1.538745e+01 -1.675
 1858 1 -69.069840 -1.469402e+01 -1.675
 1859 1 -71.567259 -1.750075e+01 -1.675
 1860 1 -72.787372 -1.677430e+01 -1.675
 1861 1 -72.768308 -1.535443e+01 -1.675
 1862 1 -71.529131 -1.466100e+01 -1.675
 1863 1 -74.026550 -1.746773e+01 -1.675
 1864 1 -75.246663 -1.674128e+01 -1.675
 1865 1 -75.227599 -1.532141e+01 -1.675
 1866 1 -73.988421 -1.462798e+01 -1.675
 1867 1 -76.485840 -1.743471e+01 -1.675
 1868 1 -77.705953 -1.670826e+01 -1.675
 1869 1 -77.686889 -1.528839e+01 -1.675
 1870 1 -76.447712 -1.459496e+01 -1.675
 1871 1 -78.945131 -1.740169e+01 -1.675
 1872 1 -78.907002 -1.456194e+01 -1.675
 1873 1  78.506653 -1.525537e+01 -1.675
 1874 1  77.286540 -1.452892e+01 -1.675
 1875 1  77.305604 -1.310905e+01 -1.675
 1876 1  78.544781 -1.241563e+01 -1.675
 1877 1  76.047362 -1.522235e+01 -1.675
 1878 1  74.827249 -1.449590e+01 -1.675
 1879 1  74.846313 -1.307603e+01 -1.675
 1880 1  76.085491 -1.238260e+01 -1.675
 1881 1  73.588072 -1.518933e+01 -1.675
 1882 1  72.367959 -1.446288e+01 -1.675
 1883 1  72.387023 -1.304301e+01 -1.675
 1884 1  73.626200 -1.234958e+01 -1.675
 1885 1  71.128781 -1.515631e+01 -1.675
 1886 1  69.908668 -1.442986e+01 -1.675
 1887 1  69.927732 -1.300999e+01 -1.675
 1888 1  71.166910 -1.231656e+01 -1.675
 1889 1  68.669491 -1.512329e+01 -1.675
 1890 1  67.449378 -1.439684e+01 -1.675
 1891 1  67.468442 -1.297697e+01 -1.675
 1892 1  68.707619 -1.228354e+01 -1.675
 1893 1  66.210200 -1.509027e+01 -1.675
 1894 1  64.990087 -1.436382e+01 -1.675
 1895 1  65.009151 -1.294395e+01 -1.675
 1896 1  66.248329 -1.225052e+01 -1.675
 1897 1  63.750910 -1.505725e+01 -1.675
 1898 1  62.530797 -1.433080e+01 -1.675
 1899 1  62.549861 -1.291093e+01 -1.675
 1900 1  63.789038 -1.221750e+01 -1.675
 1901 1  61.291619 -1.502423e+01 -1.675
 1902 1  60.071506 -1.429778e+01 -1.675
 1903 1  60.090570 -1.287791e+01 -1.675
 1904 1  61.329748 -1.218448e+01 -1.675
 1905 1  58.832329 -1.499121e+01 -1.675
 1906 1  57.612216 -1.426476e+01 -1.675
 1907 1  57.631280 -1.284489e+01 -1.675
 1908 1  58.870457 -1.215146e+01 -1.675
 1909 1  56.373038 -1.495819e+01 -1.675
 1910 1  55.152925 -1.423174e+01 -1.675
 1911 1  55.171990 -1.281187e+01 -1.675
 1912 1  56.411167 -1.211844e+01 -1.675
 1913 1  53.913748 -1.492517e+01 -1.675
 1914 1  52.693635 -1.419872e+01 -1.675
 1915 1  52.712699 -1.277885e+01 -1.675
 1916 1  53.951876 -1.208542e+01 -1.675
 1917 1  51.454457 -1.489215e+01 -1.675
 1918 1  50.234344 -1.416570e+01 -1.675
 1919 1  50.253409 -1.274583e+01 -1.675
 1920 1  51.492586 -1.205240e+01 -1.675
 1921 1  48.995167 -1.485913e+01 -1.675
 1922 1  47.775054 -1.413268e+01 -1.675
 1923 1  47.794118 -1.271281e+01 -1.675
 1924 1  49.033295 -1.201938e+01 -1.675
 1925 1  46.535876 -1.482611e+01 -1.675
 1926 1  45.315763 -1.409966e+01 -1.675
 1927 1  45.334828 -1.267979e+01 -1.675
 1928 1  46.574005 -1.198636e+01 -1.675
 1929 1  44.076586 -1.479309e+01 -1.675
 1930 1  42.856473 -1.406664e+01 -1.675
 1931 1  42.875537 -1.264677e+01 -1.675
 1932 1  44.114714 -1.195334e+01 -1.675
 1933 1  41.617295 -1.476006e+01 -1.675
 1934 1  40.397182 -1.403362e+01 -1.675
 1935 1  40.416247 -1.261375e+01 -1.675
 1936 1  41.655424 -1.192032e+01 -1.675
 1937 1  39.158005 -1.472704e+01 -1.675
 1938 1  37.937892 -1.400060e+01 -1.675
 1939 1  37.956956 -1.258073e+01 -1.675
 1940 1  39.196134 -1.188730e+01 -1.675
 1941 1  36.698715 -1.469402e+01 -1.675
 1942 1  35.478601 -1.396758e+01 -1.675
 1943 1  35.497666 -1.254771e+01 -1.675
 1944 1  36.736843 -1.185428e+01 -1.675
 1945 1  34.239424 -1.466100e+01 -1.675
 1946 1  33.019311 -1.393456e+01 -1.675
 1947 1  33.038375 -1.251469e+01 -1.675
 1948 1  34.277553 -1.182126e+01 -1.675
 1949 1  31.780134 -1.462798e+01 -1.675
 1950 1  30.560020 -1.390154e+01 -1.675
 1951 1  30.579085 -1.248167e+01 -1.675
 1952 1  31.818262 -1.178824e+01 -1.675
 1953 1  29.320843 -1.459496e+01 -1.675
 1954 1  28.100730 -1.386852e+01 -1.675
 1955 1  28.119794 -1.244865e+01 -1.675
 1956 1  29.358972 -1.175522e+01 -1.675
 1957 1  26.861553 -1.456194e+01 -1.675
 1958 1  25.641439 -1.383550e+01 -1.675
 1959 1  25.660504 -1.241563e+01 -1.675
 1960 1  26.899681 -1.172220e+01 -1.675
 1961 1  24.402262 -1.452892e+01 -1.675
 1962 1  23.182149 -1.380248e+01 -1.675
 1963 1  23.201213 -1.238260e+01 -1.675
 1964 1  24.440391 -1.168918e+01 -1.675
 1965 1  21.942972 -1.449590e+01 -1.675
 1966 1  20.722859 -1.376946e+01 -1.675
 1967 1  20.741923 -1.234958e+01 -1.675
 1968 1  21.981100 -1.165616e+01 -1.675
 1969 1  19.483681 -1.446288e+01 -1.675
 1970 1  18.263568 -1.373644e+01 -1.675
 1971 1  18.282632 -1.231656e+01 -1.675
 1972 1  19.521810 -1.162314e+01 -1.675
 1973 1  17.024391 -1.442986e+01 -1.675
 1974 1  15.804278 -1.370342e+01 -1.675
 1975 1  15.823342 -1.228354e+01 -1.675
 1976 1  17.062519 -1.159012e+01 -1.675
 1977 1  14.565100 -1.439684e+01 -1.675
 1978 1  13.344987 -1.367040e+01 -1.675
 1979 1  13.364051 -1.225052e+01 -1.675
 1980 1  14.603229 -1.155710e+01 -1.675
 1981 1  12.105810 -1.436382e+01 -1.675
 1982 1  10.885697 -1.363738e+01 -1.675
 1983 1  10.904761 -1.221750e+01 -1.675
 1984 1  12.143938 -1.152408e+01 -1.675
 1985 1   9.646519 -1.433080e+01 -1.675
 1986 1   8.426406 -1.360436e+01 -1.675
 1987 1   8.445470 -1.218448e+01 -1.675
 1988 1   9.684648 -1.149106e+01 -1.675
 1989 1   7.187229 -1.429778e+01 -1.675
 1990 1   5.967116 -1.357133e+01 -1.675
 1991 1   5.986180 -1.215146e+01 -1.675
 1992 1   7.225357 -1.145804e+01 -1.675
 1993 1   4.727938 -1.426476e+01 -1.675
 1994 1   3.507825 -1.353831e+01 -1.675
 1995 1   3.526889 -1.211844e+01 -1.675
 1996 1   4.766067 -1.142502e+01 -1.675
 1997 1   2.268648 -1.423174e+01 -1.675
 1998 1   1.048535 -1.350529e+01 -1.675
 1999 1   1.067599 -1.208542e+01 -1.675
 2000 1   2.306776 -1.139200e+01 -1.675
 2001 1  -0.190643 -1.419872e+01 -1.675
 2002 1  -1.410756 -1.347227e+01 -1.675
 2003 1  -1.391692 -1.205240e+01 -1.675
 2004 1  -0.152514 -1.135898e+01 -1.675
 2005 1  -2.649933 -1.416570e+01 -1.675
 2006 1  -3.870046 -1.343925e+01 -1.675
 2007 1  -3.850982 -1.201938e+01 -1.675
 2008 1  -2.611805 -1.132596e+01 -1.675
 2009 1  -5.109224 -1.413268e+01 -1.675
 2010 1  -6.329337 -1.340623e+01 -1.675
 2011 1  -6.310272 -1.198636e+01 -1.675
 2012 1  -5.071095 -1.129294e+01 -1.675
 2013 1  -7.568514 -1.409966e+01 -1.675
 2014 1  -8.788627 -1.337321e+01 -1.675
 2015 1  -8.769563 -1.195334e+01 -1.675
 2016 1  -7.530386 -1.125992e+01 -1.675
 2017 1 -10.027805 -1.406664e+01 -1.675
 2018 1 -11.247918 -1.334019e+01 -1.675
 2019 1 -11.228853 -1.192032e+01 -1.675
 2020 1  -9.989676 -1.122690e+01 -1.675
 2021 1 -12.487095 -1.403362e+01 -1.675
 2022 1 -13.707208 -1.330717e+01 -1.675
 2023 1 -13.688144 -1.188730e+01 -1.675
 2024 1 -12.448967 -1.119387e+01 -1.675
 2025 1 -14.946386 -1.400060e+01 -1.675
 2026 1 -16.166499 -1.327415e+01 -1.675
 2027 1 -16.147434 -1.185428e+01 -1.675
 2028 1 -14.908257 -1.116085e+01 -1.675
 2029 1 -17.405676 -1.396758e+01 -1.675
 2030 1 -18.625789 -1.324113e+01 -1.675
 2031 1 -18.606725 -1.182126e+01 -1.675
 2032 1 -17.367547 -1.112783e+01 -1.675
 2033 1 -19.864967 -1.393456e+01 -1.675
 2034 1 -21.085080 -1.320811e+01 -1.675
 2035 1 -21.066015 -1.178824e+01 -1.675
 2036 1 -19.826838 -1.109481e+01 -1.675
 2037 1 -22.324257 -1.390154e+01 -1.675
 2038 1 -23.544370 -1.317509e+01 -1.675
 2039 1 -23.525306 -1.175522e+01 -1.675
 2040 1 -22.286128 -1.106179e+01 -1.675
 2041 1 -24.783547 -1.386852e+01 -1.675
 2042 1 -26.003661 -1.314207e+01 -1.675
 2043 1 -25.984596 -1.172220e+01 -1.675
 2044 1 -24.745419 -1.102877e+01 -1.675
 2045 1 -27.242838 -1.383550e+01 -1.675
 2046 1 -28.462951 -1.310905e+01 -1.675
 2047 1 -28.443887 -1.168918e+01 -1.675
 2048 1 -27.204709 -1.099575e+01 -1.675
 2049 1 -29.702128 -1.380248e+01 -1.675
 2050 1 -30.922242 -1.307603e+01 -1.675
 2051 1 -30.903177 -1.165616e+01 -1.675
 2052 1 -29.664000 -1.096273e+01 -1.675
 2053 1 -32.161419 -1.376946e+01 -1.675
 2054 1 -33.381532 -1.304301e+01 -1.675
 2055 1 -33.362468 -1.162314e+01 -1.675
 2056 1 -32.123290 -1.092971e+01 -1.675
 2057 1 -34.620709 -1.373644e+01 -1.675
 2058 1 -35.840822 -1.300999e+01 -1.675
 2059 1 -35.821758 -1.159012e+01 -1.675
 2060 1 -34.582581 -1.089669e+01 -1.675
 2061 1 -37.080000 -1.370342e+01 -1.675
 2062 1 -38.300113 -1.297697e+01 -1.675
 2063 1 -38.281049 -1.155710e+01 -1.675
 2064 1 -37.041871 -1.086367e+01 -1.675
 2065 1 -39.539290 -1.367040e+01 -1.675
 2066 1 -40.759403 -1.294395e+01 -1.675
 2067 1 -40.740339 -1.152408e+01 -1.675
 2068 1 -39.501162 -1.083065e+01 -1.675
 2069 1 -41.998581 -1.363738e+01 -1.675
 2070 1 -43.218694 -1.291093e+01 -1.675
 2071 1 -43.199630 -1.149106e+01 -1.675
 2072 1 -41.960452 -1.079763e+01 -1.675
 2073 1 -44.457871 -1.360436e+01 -1.675
 2074 1 -45.677984 -1.287791e+01 -1.675
 2075 1 -45.658920 -1.145804e+01 -1.675
 2076 1 -44.419743 -1.076461e+01 -1.675
 2077 1 -46.917162 -1.357133e+01 -1.675
 2078 1 -48.137275 -1.284489e+01 -1.675
 2079 1 -48.118211 -1.142502e+01 -1.675
 2080 1 -46.879033 -1.073159e+01 -1.675
 2081 1 -49.376452 -1.353831e+01 -1.675
 2082 1 -50.596565 -1.281187e+01 -1.675
 2083 1 -50.577501 -1.139200e+01 -1.675
 2084 1 -49.338324 -1.069857e+01 -1.675
 2085 1 -51.835743 -1.350529e+01 -1.675
 2086 1 -53.055856 -1.277885e+01 -1.675
 2087 1 -53.036792 -1.135898e+01 -1.675
 2088 1 -51.797614 -1.066555e+01 -1.675
 2089 1 -54.295033 -1.347227e+01 -1.675
 2090 1 -55.515146 -1.274583e+01 -1.675
 2091 1 -55.496082 -1.132596e+01 -1.675
 2092 1 -54.256905 -1.063253e+01 -1.675
 2093 1 -56.754324 -1.343925e+01 -1.675
 2094 1 -57.974437 -1.271281e+01 -1.675
 2095 1 -57.955373 -1.129294e+01 -1.675
 2096 1 -56.716195 -1.059951e+01 -1.675
 2097 1 -59.213614 -1.340623e+01 -1.675
 2098 1 -60.433727 -1.267979e+01 -1.675
 2099 1 -60.414663 -1.125992e+01 -1.675
 2100 1 -59.175486 -1.056649e+01 -1.675
 2101 1 -61.672905 -1.337321e+01 -1.675
 2102 1 -62.893018 -1.264677e+01 -1.675
 2103 1 -62.873953 -1.122690e+01 -1.675
 2104 1 -61.634776 -1.053347e+01 -1.675
 2105 1 -64.132195 -1.334019e+01 -1.675
 2106 1 -65.352308 -1.261375e+01 -1.675
 2107 1 -65.333244 -1.119387e+01 -1.675
 2108 1 -64.094067 -1.050045e+01 -1.675
 2109 1 -66.591486 -1.330717e+01 -1.675
 2110 1 -67.811599 -1.258073e+01 -1.675
 2111 1 -67.792534 -1.116085e+01 -1.675
 2112 1 -66.553357 -1.046743e+01 -1.675
 2113 1 -69.050776 -1.327415e+01 -1.675
 2114 1 -70.270889 -1.254771e+01 -1.675
 2115 1 -70.251825 -1.112783e+01 -1.675
 2116 1 -69.012648 -1.043441e+01 -1.675
 2117 1 -71.510067 -1.324113e+01 -1.675
 2118 1 -72.730180 -1.251469e+01 -1.675
 2119 1 -72.711115 -1.109481e+01 -1.675
 2120 1 -71.471938 -1.040139e+01 -1.675
 2121 1 -73.969357 -1.320811e+01 -1.675
 2122 1 -75.189470 -1.248167e+01 -1.675
 2123 1 -75.170406 -1.106179e+01 -1.675
 2124 1 -73.931229 -1.036837e+01 -1.675
 2125 1 -76.428648 -1.317509e+01 -1.675
 2126 1 -77.648761 -1.244865e+01 -1.675
 2127 1 -77.629696 -1.102877e+01 -1.675
 2128 1 -76.390519 -1.033535e+01 -1.675
 2129 1 -78.887938 -1.314207e+01 -1.675
 2130 1 -78.849809 -1.030233e+01 -1.675
 2131 1  78.563845 -1.099575e+01 -1.675
 2132 1  77.343732 -1.026931e+01 -1.675
 2133 1  77.362797 -8.849435e+00 -1.675
 2134 1  78.601974 -8.156009e+00 -1.675
 2135 1  76.104555 -1.096273e+01 -1.675
 2136 1  74.884442 -1.023629e+01 -1.675
 2137 1  74.903506 -8.816415e+00 -1.675
 2138 1  76.142684 -8.122989e+00 -1.675
 2139 1  73.645265 -1.092971e+01 -1.675
 2140 1  72.425151 -1.020327e+01 -1.675
 2141 1  72.444216 -8.783394e+00 -1.675
 2142 1  73.683393 -8.089968e+00 -1.675
 2143 1  71.185974 -1.089669e+01 -1.675
 2144 1  69.965861 -1.017025e+01 -1.675
 2145 1  69.984925 -8.750374e+00 -1.675
 2146 1  71.224103 -8.056948e+00 -1.675
 2147 1  68.726684 -1.086367e+01 -1.675
 2148 1  67.506570 -1.013723e+01 -1.675
 2149 1  67.525635 -8.717354e+00 -1.675
 2150 1  68.764812 -8.023928e+00 -1.675
 2151 1  66.267393 -1.083065e+01 -1.675
 2152 1  65.047280 -1.010421e+01 -1.675
 2153 1  65.066344 -8.684334e+00 -1.675
 2154 1  66.305522 -7.990908e+00 -1.675
 2155 1  63.808103 -1.079763e+01 -1.675
 2156 1  62.587989 -1.007119e+01 -1.675
 2157 1  62.607054 -8.651313e+00 -1.675
 2158 1  63.846231 -7.957887e+00 -1.675
 2159 1  61.348812 -1.076461e+01 -1.675
 2160 1  60.128699 -1.003816e+01 -1.675
 2161 1  60.147763 -8.618293e+00 -1.675
 2162 1  61.386941 -7.924867e+00 -1.675
 2163 1  58.889522 -1.073159e+01 -1.675
 2164 1  57.669409 -1.000514e+01 -1.675
 2165 1  57.688473 -8.585273e+00 -1.675
 2166 1  58.927650 -7.891847e+00 -1.675
 2167 1  56.430231 -1.069857e+01 -1.675
 2168 1  55.210118 -9.972124e+00 -1.675
 2169 1  55.229182 -8.552252e+00 -1.675
 2170 1  56.468360 -7.858827e+00 -1.675
 2171 1  53.970941 -1.066555e+01 -1.675
 2172 1  52.750828 -9.939104e+00 -1.675
 2173 1  52.769892 -8.519232e+00 -1.675
 2174 1  54.009069 -7.825806e+00 -1.675
 2175 1  51.511650 -1.063253e+01 -1.675
 2176 1  50.291537 -9.906084e+00 -1.675
 2177 1  50.310601 -8.486212e+00 -1.675
 2178 1  51.549779 -7.792786e+00 -1.675
 2179 1  49.052360 -1.059951e+01 -1.675
 2180 1  47.832247 -9.873064e+00 -1.675
 2181 1  47.851311 -8.453192e+00 -1.675
 2182 1  49.090488 -7.759766e+00 -1.675
 2183 1  46.593069 -1.056649e+01 -1.675
 2184 1  45.372956 -9.840043e+00 -1.675
 2185 1  45.392020 -8.420171e+00 -1.675
 2186 1  46.631198 -7.726745e+00 -1.675
 2187 1  44.133779 -1.053347e+01 -1.675
 2188 1  42.913666 -9.807023e+00 -1.675
 2189 1  42.932730 -8.387151e+00 -1.675
 2190 1  44.171907 -7.693725e+00 -1.675
 2191 1  41.674488 -1.050045e+01 -1.675
 2192 1  40.454375 -9.774003e+00 -1.675
 2193 1  40.473439 -8.354131e+00 -1.675
 2194 1  41.712617 -7.660705e+00 -1.675
 2195 1  39.215198 -1.046743e+01 -1.675
 2196 1  37.995085 -9.740982e+00 -1.675
 2197 1  38.014149 -8.321110e+00 -1.675
 2198 1  39.253326 -7.627685e+00 -1.675
 2199 1  36.755907 -1.043441e+01 -1.675
 2200 1  35.535794 -9.707962e+00 -1.675
 2201 1  35.554858 -8.288090e+00 -1.675
 2202 1  36.794036 -7.594664e+00 -1.675
 2203 1  34.296617 -1.040139e+01 -1.675
 2204 1  33.076504 -9.674942e+00 -1.675
 2205 1  33.095568 -8.255070e+00 -1.675
 2206 1  34.334745 -7.561644e+00 -1.675
 2207 1  31.837326 -1.036837e+01 -1.675
 2208 1  30.617213 -9.641922e+00 -1.675
 2209 1  30.636278 -8.222050e+00 -1.675
 2210 1  31.875455 -7.528624e+00 -1.675
 2211 1  29.378036 -1.033535e+01 -1.675
 2212 1  28.157923 -9.608901e+00 -1.675
 2213 1  28.176987 -8.189029e+00 -1.675
 2214 1  29.416164 -7.495603e+00 -1.675
 2215 1  26.918745 -1.030233e+01 -1.675
 2216 1  25.698632 -9.575881e+00 -1.675
 2217 1  25.717697 -8.156009e+00 -1.675
 2218 1  26.956874 -7.462583e+00 -1.675
 2219 1  24.459455 -1.026931e+01 -1.675
 2220 1  23.239342 -9.542861e+00 -1.675
 2221 1  23.258406 -8.122989e+00 -1.675
 2222 1  24.497583 -7.429563e+00 -1.675
 2223 1  22.000164 -1.023629e+01 -1.675
 2224 1  20.780051 -9.509841e+00 -1.675
 2225 1  20.799116 -8.089968e+00 -1.675
 2226 1  22.038293 -7.396543e+00 -1.675
 2227 1  19.540874 -1.020327e+01 -1.675
 2228 1  18.320761 -9.476820e+00 -1.675
 2229 1  18.339825 -8.056948e+00 -1.675
 2230 1  19.579002 -7.363522e+00 -1.675
 2231 1  17.081583 -1.017025e+01 -1.675
 2232 1  15.861470 -9.443800e+00 -1.675
 2233 1  15.880535 -8.023928e+00 -1.675
 2234 1  17.119712 -7.330502e+00 -1.675
 2235 1  14.622293 -1.013723e+01 -1.675
 2236 1  13.402180 -9.410780e+00 -1.675
 2237 1  13.421244 -7.990908e+00 -1.675
 2238 1  14.660422 -7.297482e+00 -1.675
 2239 1  12.163003 -1.010421e+01 -1.675
 2240 1  10.942889 -9.377759e+00 -1.675
 2241 1  10.961954 -7.957887e+00 -1.675
 2242 1  12.201131 -7.264461e+00 -1.675
 2243 1   9.703712 -1.007119e+01 -1.675
 2244 1   8.483599 -9.344739e+00 -1.675
 2245 1   8.502663 -7.924867e+00 -1.675
 2246 1   9.741841 -7.231441e+00 -1.675
 2247 1   7.244422 -1.003816e+01 -1.675
 2248 1   6.024308 -9.311719e+00 -1.675
 2249 1   6.043373 -7.891847e+00 -1.675
 2250 1   7.282550 -7.198421e+00 -1.675
 2251 1   4.785131 -1.000514e+01 -1.675
 2252 1   3.565018 -9.278699e+00 -1.675
 2253 1   3.584082 -7.858827e+00 -1.675
 2254 1   4.823260 -7.165401e+00 -1.675
 2255 1   2.325841 -9.972124e+00 -1.675
 2256 1   1.105728 -9.245678e+00 -1.675
 2257 1   1.124792 -7.825806e+00 -1.675
 2258 1   2.363969 -7.132380e+00 -1.675
 2259 1  -0.133450 -9.939104e+00 -1.675
 2260 1  -1.353563 -9.212658e+00 -1.675
 2261 1  -1.334499 -7.792786e+00 -1.675
 2262 1  -0.095321 -7.099360e+00 -1.675
 2263 1  -2.592740 -9.906084e+00 -1.675
 2264 1  -3.812853 -9.179638e+00 -1.675
 2265 1  -3.793789 -7.759766e+00 -1.675
 2266 1  -2.554612 -7.066340e+00 -1.675
 2267 1  -5.052031 -9.873064e+00 -1.675
 2268 1  -6.272144 -9.146617e+00 -1.675
 2269 1  -6.253080 -7.726745e+00 -1.675
 2270 1  -5.013902 -7.033320e+00 -1.675
 2271 1  -7.511321 -9.840043e+00 -1.675
 2272 1  -8.731434 -9.113597e+00 -1.675
 2273 1  -8.712370 -7.693725e+00 -1.675
 2274 1  -7.473193 -7.000299e+00 -1.675
 2275 1  -9.970612 -9.807023e+00 -1.675
 2276 1 -11.190725 -9.080577e+00 -1.675
 2277 1 -11.171661 -7.660705e+00 -1.675
 2278 1  -9.932483 -6.967279e+00 -1.675
 2279 1 -12.429902 -9.774003e+00 -1.675
 2280 1 -13.650015 -9.047557e+00 -1.675
 2281 1 -13.630951 -7.627685e+00 -1.675
 2282 1 -12.391774 -6.934259e+00 -1.675
 2283 1 -14.889193 -9.740982e+00 -1.675
 2284 1 -16.109306 -9.014536e+00 -1.675
 2285 1 -16.090242 -7.594664e+00 -1.675
 2286 1 -14.851064 -6.901238e+00 -1.675
 2287 1 -17.348483 -9.707962e+00 -1.675
 2288 1 -18.568596 -8.981516e+00 -1.675
 2289 1 -18.549532 -7.561644e+00 -1.675
 2290 1 -17.310355 -6.868218e+00 -1.675
 2291 1 -19.807774 -9.674942e+00 -1.675
 2292 1 -21.027887 -8.948496e+00 -1.675
 2293 1 -21.008823 -7.528624e+00 -1.675
 2294 1 -19.769645 -6.835198e+00 -1.675
 2295 1 -22.267064 -9.641922e+00 -1.675
 2296 1 -23.487177 -8.915475e+00 -1.675
 2297 1 -23.468113 -7.495603e+00 -1.675
 2298 1 -22.228936 -6.802178e+00 -1.675
 2299 1 -24.726355 -9.608901e+00 -1.675
 2300 1 -25.946468 -8.882455e+00 -1.675
 2301 1 -25.927404 -7.462583e+00 -1.675
 2302 1 -24.688226 -6.769157e+00 -1.675
 2303 1 -27.185645 -9.575881e+00 -1.675
 2304 1 -28.405758 -8.849435e+00 -1.675
 2305 1 -28.386694 -7.429563e+00 -1.675
 2306 1 -27.147517 -6.736137e+00 -1.675
 2307 1 -29.644936 -9.542861e+00 -1.675
 2308 1 -30.865049 -8.816415e+00 -1.675
 2309 1 -30.845984 -7.396543e+00 -1.675
 2310 1 -29.606807 -6.703117e+00 -1.675
 2311 1 -32.104226 -9.509841e+00 -1.675
 2312 1 -33.324339 -8.783394e+00 -1.675
 2313 1 -33.305275 -7.363522e+00 -1.675
 2314 1 -32.066098 -6.670096e+00 -1.675
 2315 1 -34.563517 -9.476820e+00 -1.675
 2316 1 -35.783630 -8.750374e+00 -1.675
 2317 1 -35.764565 -7.330502e+00 -1.675
 2318 1 -34.525388 -6.637076e+00 -1.675
 2319 1 -37.022807 -9.443800e+00 -1.675
 2320 1 -38.242920 -8.717354e+00 -1.675
 2321 1 -38.223856 -7.297482e+00 -1.675
 2322 1 -36.984679 -6.604056e+00 -1.675
 2323 1 -39.482098 -9.410780e+00 -1.675
 2324 1 -40.702211 -8.684334e+00 -1.675
 2325 1 -40.683146 -7.264461e+00 -1.675
 2326 1 -39.443969 -6.571036e+00 -1.675
 2327 1 -41.941388 -9.377759e+00 -1.675
 2328 1 -43.161501 -8.651313e+00 -1.675
 2329 1 -43.142437 -7.231441e+00 -1.675
 2330 1 -41.903259 -6.538015e+00 -1.675
 2331 1 -44.400678 -9.344739e+00 -1.675
 2332 1 -45.620792 -8.618293e+00 -1.675
 2333 1 -45.601727 -7.198421e+00 -1.675
 2334 1 -44.362550 -6.504995e+00 -1.675
 2335 1 -46.859969 -9.311719e+00 -1.675
 2336 1 -48.080082 -8.585273e+00 -1.675
 2337 1 -48.061018 -7.165401e+00 -1.675
 2338 1 -46.821840 -6.471975e+00 -1.675
 2339 1 -49.319259 -9.278699e+00 -1.675
 2340 1 -50.539373 -8.552252e+00 -1.675
 2341 1 -50.520308 -7.132380e+00 -1.675
 2342 1 -49.281131 -6.438955e+00 -1.675
 2343 1 -51.778550 -9.245678e+00 -1.675
 2344 1 -52.998663 -8.519232e+00 -1.675
 2345 1 -52.979599 -7.099360e+00 -1.675
 2346 1 -51.740421 -6.405934e+00 -1.675
 2347 1 -54.237840 -9.212658e+00 -1.675
 2348 1 -55.457954 -8.486212e+00 -1.675
 2349 1 -55.438889 -7.066340e+00 -1.675
 2350 1 -54.199712 -6.372914e+00 -1.675
 2351 1 -56.697131 -9.179638e+00 -1.675
 2352 1 -57.917244 -8.453192e+00 -1.675
 2353 1 -57.898180 -7.033320e+00 -1.675
 2354 1 -56.659002 -6.339894e+00 -1.675
 2355 1 -59.156421 -9.146617e+00 -1.675
 2356 1 -60.376534 -8.420171e+00 -1.675
 2357 1 -60.357470 -7.000299e+00 -1.675
 2358 1 -59.118293 -6.306873e+00 -1.675
 2359 1 -61.615712 -9.113597e+00 -1.675
 2360 1 -62.835825 -8.387151e+00 -1.675
 2361 1 -62.816761 -6.967279e+00 -1.675
 2362 1 -61.577583 -6.273853e+00 -1.675
 2363 1 -64.075002 -9.080577e+00 -1.675
 2364 1 -65.295115 -8.354131e+00 -1.675
 2365 1 -65.276051 -6.934259e+00 -1.675
 2366 1 -64.036874 -6.240833e+00 -1.675
 2367 1 -66.534293 -9.047557e+00 -1.675
 2368 1 -67.754406 -8.321110e+00 -1.675
 2369 1 -67.735342 -6.901238e+00 -1.675
 2370 1 -66.496164 -6.207813e+00 -1.675
 2371 1 -68.993583 -9.014536e+00 -1.675
 2372 1 -70.213696 -8.288090e+00 -1.675
 2373 1 -70.194632 -6.868218e+00 -1.675
 2374 1 -68.955455 -6.174792e+00 -1.675
 2375 1 -71.452874 -8.981516e+00 -1.675
 2376 1 -72.672987 -8.255070e+00 -1.675
 2377 1 -72.653923 -6.835198e+00 -1.675
 2378 1 -71.414745 -6.141772e+00 -1.675
 2379 1 -73.912164 -8.948496e+00 -1.675
 2380 1 -75.132277 -8.222050e+00 -1.675
 2381 1 -75.113213 -6.802178e+00 -1.675
 2382 1 -73.874036 -6.108752e+00 -1.675
 2383 1 -76.371455 -8.915475e+00 -1.675
 2384 1 -77.591568 -8.189029e+00 -1.675
 2385 1 -77.572504 -6.769157e+00 -1.675
 2386 1 -76.333326 -6.075731e+00 -1.675
 2387 1 -78.830745 -8.882455e+00 -1.675
 2388 1 -78.792617 -6.042711e+00 -1.675
 2389 1  78.621038 -6.736137e+00 -1.675
 2390 1  77.400925 -6.009691e+00 -1.675
 2391 1  77.419989 -4.589819e+00 -1.675
 2392 1  78.659167 -3.896393e+00 -1.675
 2393 1  76.161748 -6.703117e+00 -1.675
 2394 1  74.941635 -5.976671e+00 -1.675
 2395 1  74.960699 -4.556799e+00 -1.675
 2396 1  76.199876 -3.863373e+00 -1.675
 2397 1  73.702457 -6.670096e+00 -1.675
 2398 1  72.482344 -5.943650e+00 -1.675
 2399 1  72.501408 -4.523778e+00 -1.675
 2400 1  73.740586 -3.830352e+00 -1.675
 2401 1  71.243167 -6.637076e+00 -1.675
 2402 1  70.023054 -5.910630e+00 -1.675
 2403 1  70.042118 -4.490758e+00 -1.675
 2404 1  71.281295 -3.797332e+00 -1.675
 2405 1  68.783876 -6.604056e+00 -1.675
 2406 1  67.563763 -5.877610e+00 -1.675
 2407 1  67.582828 -4.457738e+00 -1.675
 2408 1  68.822005 -3.764312e+00 -1.675
 2409 1  66.324586 -6.571036e+00 -1.675
 2410 1  65.104473 -5.844589e+00 -1.675
 2411 1  65.123537 -4.424717e+00 -1.675
 2412 1  66.362714 -3.731292e+00 -1.675
 2413 1  63.865295 -6.538015e+00 -1.675
 2414 1  62.645182 -5.811569e+00 -1.675
 2415 1  62.664247 -4.391697e+00 -1.675
 2416 1  63.903424 -3.698271e+00 -1.675
 2417 1  61.406005 -6.504995e+00 -1.675
 2418 1  60.185892 -5.778549e+00 -1.675
 2419 1  60.204956 -4.358677e+00 -1.675
 2420 1  61.444133 -3.665251e+00 -1.675
 2421 1  58.946714 -6.471975e+00 -1.675
 2422 1  57.726601 -5.745529e+00 -1.675
 2423 1  57.745666 -4.325657e+00 -1.675
 2424 1  58.984843 -3.632231e+00 -1.675
 2425 1  56.487424 -6.438955e+00 -1.675
 2426 1  55.267311 -5.712508e+00 -1.675
 2427 1  55.286375 -4.292636e+00 -1.675
 2428 1  56.525552 -3.599210e+00 -1.675
 2429 1  54.028133 -6.405934e+00 -1.675
 2430 1  52.808020 -5.679488e+00 -1.675
 2431 1  52.827085 -4.259616e+00 -1.675
 2432 1  54.066262 -3.566190e+00 -1.675
 2433 1  51.568843 -6.372914e+00 -1.675
 2434 1  50.348730 -5.646468e+00 -1.675
 2435 1  50.367794 -4.226596e+00 -1.675
 2436 1  51.606972 -3.533170e+00 -1.675
 2437 1  49.109553 -6.339894e+00 -1.675
 2438 1  47.889439 -5.613448e+00 -1.675
 2439 1  47.908504 -4.193576e+00 -1.675
 2440 1  49.147681 -3.500150e+00 -1.675
 2441 1  46.650262 -6.306873e+00 -1.675
 2442 1  45.430149 -5.580427e+00 -1.675
 2443 1  45.449213 -4.160555e+00 -1.675
 2444 1  46.688391 -3.467129e+00 -1.675
 2445 1  44.190972 -6.273853e+00 -1.675
 2446 1  42.970858 -5.547407e+00 -1.675
 2447 1  42.989923 -4.127535e+00 -1.675
 2448 1  44.229100 -3.434109e+00 -1.675
 2449 1  41.731681 -6.240833e+00 -1.675
 2450 1  40.511568 -5.514387e+00 -1.675
 2451 1  40.530632 -4.094515e+00 -1.675
 2452 1  41.769810 -3.401089e+00 -1.675
 2453 1  39.272391 -6.207813e+00 -1.675
 2454 1  38.052277 -5.481366e+00 -1.675
 2455 1  38.071342 -4.061494e+00 -1.675
 2456 1  39.310519 -3.368069e+00 -1.675
 2457 1  36.813100 -6.174792e+00 -1.675
 2458 1  35.592987 -5.448346e+00 -1.675
 2459 1  35.612051 -4.028474e+00 -1.675
 2460 1  36.851229 -3.335048e+00 -1.675
 2461 1  34.353810 -6.141772e+00 -1.675
 2462 1  33.133697 -5.415326e+00 -1.675
 2463 1  33.152761 -3.995454e+00 -1.675
 2464 1  34.391938 -3.302028e+00 -1.675
 2465 1  31.894519 -6.108752e+00 -1.675
 2466 1  30.674406 -5.382306e+00 -1.675
 2467 1  30.693470 -3.962434e+00 -1.675
 2468 1  31.932648 -3.269008e+00 -1.675
 2469 1  29.435229 -6.075731e+00 -1.675
 2470 1  28.215116 -5.349285e+00 -1.675
 2471 1  28.234180 -3.929413e+00 -1.675
 2472 1  29.473357 -3.235987e+00 -1.675
 2473 1  26.975938 -6.042711e+00 -1.675
 2474 1  25.755825 -5.316265e+00 -1.675
 2475 1  25.774889 -3.896393e+00 -1.675
 2476 1  27.014067 -3.202967e+00 -1.675
 2477 1  24.516648 -6.009691e+00 -1.675
 2478 1  23.296535 -5.283245e+00 -1.675
 2479 1  23.315599 -3.863373e+00 -1.675
 2480 1  24.554776 -3.169947e+00 -1.675
 2481 1  22.057357 -5.976671e+00 -1.675
 2482 1  20.837244 -5.250224e+00 -1.675
 2483 1  20.856308 -3.830352e+00 -1.675
 2484 1  22.095486 -3.136927e+00 -1.675
 2485 1  19.598067 -5.943650e+00 -1.675
 2486 1  18.377954 -5.217204e+00 -1.675
 2487 1  18.397018 -3.797332e+00 -1.675
 2488 1  19.636195 -3.103906e+00 -1.675
 2489 1  17.138776 -5.910630e+00 -1.675
 2490 1  15.918663 -5.184184e+00 -1.675
 2491 1  15.937727 -3.764312e+00 -1.675
 2492 1  17.176905 -3.070886e+00 -1.675
 2493 1  14.679486 -5.877610e+00 -1.675
 2494 1  13.459373 -5.151164e+00 -1.675
 2495 1  13.478437 -3.731292e+00 -1.675
 2496 1  14.717614 -3.037866e+00 -1.675
 2497 1  12.220195 -5.844589e+00 -1.675
 2498 1  11.000082 -5.118143e+00 -1.675
 2499 1  11.019146 -3.698271e+00 -1.675
 2500 1  12.258324 -3.004845e+00 -1.675
 2501 1   9.760905 -5.811569e+00 -1.675
 2502 1   8.540792 -5.085123e+00 -1.675
 2503 1   8.559856 -3.665251e+00 -1.675
 2504 1   9.799033 -2.971825e+00 -1.675
 2505 1   7.301614 -5.778549e+00 -1.675
 2506 1   6.081501 -5.052103e+00 -1.675
 2507 1   6.100566 -3.632231e+00 -1.675
 2508 1   7.339743 -2.938805e+00 -1.675
 2509 1   4.842324 -5.745529e+00 -1.675
 2510 1   3.622211 -5.019082e+00 -1.675
 2511 1   3.641275 -3.599210e+00 -1.675
 2512 1   4.880452 -2.905785e+00 -1.675
 2513 1   2.383033 -5.712508e+00 -1.675
 2514 1   1.162920 -4.986062e+00 -1.675
 2515 1   1.181985 -3.566190e+00 -1.675
 2516 1   2.421162 -2.872764e+00 -1.675
 2517 1  -0.076257 -5.679488e+00 -1.675
 2518 1  -1.296370 -4.953042e+00 -1.675
 2519 1  -1.277306 -3.533170e+00 -1.675
 2520 1  -0.038129 -2.839744e+00 -1.675
 2521 1  -2.535548 -5.646468e+00 -1.675
 2522 1  -3.755661 -4.920022e+00 -1.675
 2523 1  -3.736596 -3.500150e+00 -1.675
 2524 1  -2.497419 -2.806724e+00 -1.675
 2525 1  -4.994838 -5.613448e+00 -1.675
 2526 1  -6.214951 -4.887001e+00 -1.675
 2527 1  -6.195887 -3.467129e+00 -1.675
 2528 1  -4.956709 -2.773703e+00 -1.675
 2529 1  -7.454129 -5.580427e+00 -1.675
 2530 1  -8.674242 -4.853981e+00 -1.675
 2531 1  -8.655177 -3.434109e+00 -1.675
 2532 1  -7.416000 -2.740683e+00 -1.675
 2533 1  -9.913419 -5.547407e+00 -1.675
 2534 1 -11.133532 -4.820961e+00 -1.675
 2535 1 -11.114468 -3.401089e+00 -1.675
 2536 1  -9.875290 -2.707663e+00 -1.675
 2537 1 -12.372709 -5.514387e+00 -1.675
 2538 1 -13.592823 -4.787941e+00 -1.675
 2539 1 -13.573758 -3.368069e+00 -1.675
 2540 1 -12.334581 -2.674643e+00 -1.675
 2541 1 -14.832000 -5.481366e+00 -1.675
 2542 1 -16.052113 -4.754920e+00 -1.675
 2543 1 -16.033049 -3.335048e+00 -1.675
 2544 1 -14.793871 -2.641622e+00 -1.675
 2545 1 -17.291290 -5.448346e+00 -1.675
 2546 1 -18.511404 -4.721900e+00 -1.675
 2547 1 -18.492339 -3.302028e+00 -1.675
 2548 1 -17.253162 -2.608602e+00 -1.675
 2549 1 -19.750581 -5.415326e+00 -1.675
 2550 1 -20.970694 -4.688880e+00 -1.675
 2551 1 -20.951630 -3.269008e+00 -1.675
 2552 1 -19.712452 -2.575582e+00 -1.675
 2553 1 -22.209871 -5.382306e+00 -1.675
 2554 1 -23.429984 -4.655859e+00 -1.675
 2555 1 -23.410920 -3.235987e+00 -1.675
 2556 1 -22.171743 -2.542562e+00 -1.675
 2557 1 -24.669162 -5.349285e+00 -1.675
 2558 1 -25.889275 -4.622839e+00 -1.675
 2559 1 -25.870211 -3.202967e+00 -1.675
 2560 1 -24.631033 -2.509541e+00 -1.675
 2561 1 -27.128452 -5.316265e+00 -1.675
 2562 1 -28.348565 -4.589819e+00 -1.675
 2563 1 -28.329501 -3.169947e+00 -1.675
 2564 1 -27.090324 -2.476521e+00 -1.675
 2565 1 -29.587743 -5.283245e+00 -1.675
 2566 1 -30.807856 -4.556799e+00 -1.675
 2567 1 -30.788792 -3.136927e+00 -1.675
 2568 1 -29.549614 -2.443501e+00 -1.675
 2569 1 -32.047033 -5.250224e+00 -1.675
 2570 1 -33.267146 -4.523778e+00 -1.675
 2571 1 -33.248082 -3.103906e+00 -1.675
 2572 1 -32.008905 -2.410480e+00 -1.675
 2573 1 -34.506324 -5.217204e+00 -1.675
 2574 1 -35.726437 -4.490758e+00 -1.675
 2575 1 -35.707373 -3.070886e+00 -1.675
 2576 1 -34.468195 -2.377460e+00 -1.675
 2577 1 -36.965614 -5.184184e+00 -1.675
 2578 1 -38.185727 -4.457738e+00 -1.675
 2579 1 -38.166663 -3.037866e+00 -1.675
 2580 1 -36.927486 -2.344440e+00 -1.675
 2581 1 -39.424905 -5.151164e+00 -1.675
 2582 1 -40.645018 -4.424717e+00 -1.675
 2583 1 -40.625954 -3.004845e+00 -1.675
 2584 1 -39.386776 -2.311420e+00 -1.675
 2585 1 -41.884195 -5.118143e+00 -1.675
 2586 1 -43.104308 -4.391697e+00 -1.675
 2587 1 -43.085244 -2.971825e+00 -1.675
 2588 1 -41.846067 -2.278399e+00 -1.675
 2589 1 -44.343486 -5.085123e+00 -1.675
 2590 1 -45.563599 -4.358677e+00 -1.675
 2591 1 -45.544535 -2.938805e+00 -1.675
 2592 1 -44.305357 -2.245379e+00 -1.675
 2593 1 -46.802776 -5.052103e+00 -1.675
 2594 1 -48.022889 -4.325657e+00 -1.675
 2595 1 -48.003825 -2.905785e+00 -1.675
 2596 1 -46.764648 -2.212359e+00 -1.675
 2597 1 -49.262067 -5.019082e+00 -1.675
 2598 1 -50.482180 -4.292636e+00 -1.675
 2599 1 -50.463115 -2.872764e+00 -1.675
 2600 1 -49.223938 -2.179338e+00 -1.675
 2601 1 -51.721357 -4.986062e+00 -1.675
 2602 1 -52.941470 -4.259616e+00 -1.675
 2603 1 -52.922406 -2.839744e+00 -1.675
 2604 1 -51.683229 -2.146318e+00 -1.675
 2605 1 -54.180648 -4.953042e+00 -1.675
 2606 1 -55.400761 -4.226596e+00 -1.675
 2607 1 -55.381696 -2.806724e+00 -1.675
 2608 1 -54.142519 -2.113298e+00 -1.675
 2609 1 -56.639938 -4.920022e+00 -1.675
 2610 1 -57.860051 -4.193576e+00 -1.675
 2611 1 -57.840987 -2.773703e+00 -1.675
 2612 1 -56.601810 -2.080278e+00 -1.675
 2613 1 -59.099229 -4.887001e+00 -1.675
 2614 1 -60.319342 -4.160555e+00 -1.675
 2615 1 -60.300277 -2.740683e+00 -1.675
 2616 1 -59.061100 -2.047257e+00 -1.675
 2617 1 -61.558519 -4.853981e+00 -1.675
 2618 1 -62.778632 -4.127535e+00 -1.675
 2619 1 -62.759568 -2.707663e+00 -1.675
 2620 1 -61.520391 -2.014237e+00 -1.675
 2621 1 -64.017810 -4.820961e+00 -1.675
 2622 1 -65.237923 -4.094515e+00 -1.675
 2623 1 -65.218858 -2.674643e+00 -1.675
 2624 1 -63.979681 -1.981217e+00 -1.675
 2625 1 -66.477100 -4.787941e+00 -1.675
 2626 1 -67.697213 -4.061494e+00 -1.675
 2627 1 -67.678149 -2.641622e+00 -1.675
 2628 1 -66.438971 -1.948196e+00 -1.675
 2629 1 -68.936390 -4.754920e+00 -1.675
 2630 1 -70.156504 -4.028474e+00 -1.675
 2631 1 -70.137439 -2.608602e+00 -1.675
 2632 1 -68.898262 -1.915176e+00 -1.675
 2633 1 -71.395681 -4.721900e+00 -1.675
 2634 1 -72.615794 -3.995454e+00 -1.675
 2635 1 -72.596730 -2.575582e+00 -1.675
 2636 1 -71.357552 -1.882156e+00 -1.675
 2637 1 -73.854971 -4.688880e+00 -1.675
 2638 1 -75.075085 -3.962434e+00 -1.675
 2639 1 -75.056020 -2.542562e+00 -1.675
 2640 1 -73.816843 -1.849136e+00 -1.675
 2641 1 -76.314262 -4.655859e+00 -1.675
 2642 1 -77.534375 -3.929413e+00 -1.675
 2643 1 -77.515311 -2.509541e+00 -1.675
 2644 1 -76.276133 -1.816115e+00 -1.675
 2645 1 -78.773552 -4.622839e+00 -1.675
 2646 1 -78.735424 -1.783095e+00 -1.675
 2647 1  78.678231 -2.476521e+00 -1.675
 2648 1  77.458118 -1.750075e+00 -1.675
 2649 1  77.477182 -3.302028e-01 -1.675
 2650 1  78.716360  3.632231e-01 -1.675
 2651 1  76.218941 -2.443501e+00 -1.675
 2652 1  74.998827 -1.717055e+00 -1.675
 2653 1  75.017892 -2.971825e-01 -1.675
 2654 1  76.257069  3.962434e-01 -1.675
 2655 1  73.759650 -2.410480e+00 -1.675
 2656 1  72.539537 -1.684034e+00 -1.675
 2657 1  72.558601 -2.641622e-01 -1.675
 2658 1  73.797779  4.292636e-01 -1.675
 2659 1  71.300360 -2.377460e+00 -1.675
 2660 1  70.080247 -1.651014e+00 -1.675
 2661 1  70.099311 -2.311420e-01 -1.675
 2662 1  71.338488  4.622839e-01 -1.675
 2663 1  68.841069 -2.344440e+00 -1.675
 2664 1  67.620956 -1.617994e+00 -1.675
 2665 1  67.640020 -1.981217e-01 -1.675
 2666 1  68.879198  4.953042e-01 -1.675
 2667 1  66.381779 -2.311420e+00 -1.675
 2668 1  65.161666 -1.584973e+00 -1.675
 2669 1  65.180730 -1.651014e-01 -1.675
 2670 1  66.419907  5.283245e-01 -1.675
 2671 1  63.922488 -2.278399e+00 -1.675
 2672 1  62.702375 -1.551953e+00 -1.675
 2673 1  62.721439 -1.320811e-01 -1.675
 2674 1  63.960617  5.613448e-01 -1.675
 2675 1  61.463198 -2.245379e+00 -1.675
 2676 1  60.243085 -1.518933e+00 -1.675
 2677 1  60.262149 -9.906084e-02 -1.675
 2678 1  61.501326  5.943650e-01 -1.675
 2679 1  59.003907 -2.212359e+00 -1.675
 2680 1  57.783794 -1.485913e+00 -1.675
 2681 1  57.802858 -6.604056e-02 -1.675
 2682 1  59.042036  6.273853e-01 -1.675
 2683 1  56.544617 -2.179338e+00 -1.675
 2684 1  55.324504 -1.452892e+00 -1.675
 2685 1  55.343568 -3.302028e-02 -1.675
 2686 1  56.582745  6.604056e-01 -1.675
 2687 1  54.085326 -2.146318e+00 -1.675
 2688 1  52.865213 -1.419872e+00 -1.675
 2689 1  52.884277 -3.409275e-15 -1.675
 2690 1  54.123455  6.934259e-01 -1.675
 2691 1  51.626036 -2.113298e+00 -1.675
 2692 1  50.405923 -1.386852e+00 -1.675
 2693 1  50.424987  3.302028e-02 -1.675
 2694 1  51.664164  7.264461e-01 -1.675
 2695 1  49.166745 -2.080278e+00 -1.675
 2696 1  47.946632 -1.353831e+00 -1.675
 2697 1  47.965696  6.604056e-02 -1.675
 2698 1  49.204874  7.594664e-01 -1.675
 2699 1  46.707455 -2.047257e+00 -1.675
 2700 1  45.487342 -1.320811e+00 -1.675
 2701 1  45.506406  9.906084e-02 -1.675
 2702 1  46.745583  7.924867e-01 -1.675
 2703 1  44.248164 -2.014237e+00 -1.675
 2704 1  43.028051 -1.287791e+00 -1.675
 2705 1  43.047116  1.320811e-01 -1.675
 2706 1  44.286293  8.255070e-01 -1.675
 2707 1  41.788874 -1.981217e+00 -1.675
 2708 1  40.568761 -1.254771e+00 -1.675
 2709 1  40.587825  1.651014e-01 -1.675
 2710 1  41.827002  8.585273e-01 -1.675
 2711 1  39.329583 -1.948196e+00 -1.675
 2712 1  38.109470 -1.221750e+00 -1.675
 2713 1  38.128535  1.981217e-01 -1.675
 2714 1  39.367712  8.915475e-01 -1.675
 2715 1  36.870293 -1.915176e+00 -1.675
 2716 1  35.650180 -1.188730e+00 -1.675
 2717 1  35.669244  2.311420e-01 -1.675
 2718 1  36.908421  9.245678e-01 -1.675
 2719 1  34.411002 -1.882156e+00 -1.675
 2720 1  33.190889 -1.155710e+00 -1.675
 2721 1  33.209954  2.641622e-01 -1.675
 2722 1  34.449131  9.575881e-01 -1.675
 2723 1  31.951712 -1.849136e+00 -1.675
 2724 1  30.731599 -1.122690e+00 -1.675
 2725 1  30.750663  2.971825e-01 -1.675
 2726 1  31.989840  9.906084e-01 -1.675
 2727 1  29.492421 -1.816115e+00 -1.675
 2728 1  28.272308 -1.089669e+00 -1.675
 2729 1  28.291373  3.302028e-01 -1.675
 2730 1  29.530550  1.023629e+00 -1.675
 2731 1  27.033131 -1.783095e+00 -1.675
 2732 1  25.813018 -1.056649e+00 -1.675
 2733 1  25.832082  3.632231e-01 -1.675
 2734 1  27.071260  1.056649e+00 -1.675
 2735 1  24.573841 -1.750075e+00 -1.675
 2736 1  23.353727 -1.023629e+00 -1.675
 2737 1  23.372792  3.962434e-01 -1.675
 2738 1  24.611969  1.089669e+00 -1.675
 2739 1  22.114550 -1.717055e+00 -1.675
 2740 1  20.894437 -9.906084e-01 -1.675
 2741 1  20.913501  4.292636e-01 -1.675
 2742 1  22.152679  1.122690e+00 -1.675
 2743 1  19.655260 -1.684034e+00 -1.675
 2744 1  18.435146 -9.575881e-01 -1.675
 2745 1  18.454211  4.622839e-01 -1.675
 2746 1  19.693388  1.155710e+00 -1.675
 2747 1  17.195969 -1.651014e+00 -1.675
 2748 1  15.975856 -9.245678e-01 -1.675
 2749 1  15.994920  4.953042e-01 -1.675
 2750 1  17.234098  1.188730e+00 -1.675
 2751 1  14.736679 -1.617994e+00 -1.675
 2752 1  13.516566 -8.915475e-01 -1.675
 2753 1  13.535630  5.283245e-01 -1.675
 2754 1  14.774807  1.221750e+00 -1.675
 2755 1  12.277388 -1.584973e+00 -1.675
 2756 1  11.057275 -8.585273e-01 -1.675
 2757 1  11.076339  5.613448e-01 -1.675
 2758 1  12.315517  1.254771e+00 -1.675
 2759 1   9.818098 -1.551953e+00 -1.675
 2760 1   8.597985 -8.255070e-01 -1.675
 2761 1   8.617049  5.943650e-01 -1.675
 2762 1   9.856226  1.287791e+00 -1.675
 2763 1   7.358807 -1.518933e+00 -1.675
 2764 1   6.138694 -7.924867e-01 -1.675
 2765 1   6.157758  6.273853e-01 -1.675
 2766 1   7.396936  1.320811e+00 -1.675
 2767 1   4.899517 -1.485913e+00 -1.675
 2768 1   3.679404 -7.594664e-01 -1.675
 2769 1   3.698468  6.604056e-01 -1.675
 2770 1   4.937645  1.353831e+00 -1.675
 2771 1   2.440226 -1.452892e+00 -1.675
 2772 1   1.220113 -7.264461e-01 -1.675
 2773 1   1.239177  6.934259e-01 -1.675
 2774 1   2.478355  1.386852e+00 -1.675
 2775 1  -0.019064 -1.419872e+00 -1.675
 2776 1  -1.239177 -6.934259e-01 -1.675
 2777 1  -1.220113  7.264461e-01 -1.675
 2778 1   0.019064  1.419872e+00 -1.675
 2779 1  -2.478355 -1.386852e+00 -1.675
 2780 1  -3.698468 -6.604056e-01 -1.675
 2781 1  -3.679404  7.594664e-01 -1.675
 2782 1  -2.440226  1.452892e+00 -1.675
 2783 1  -4.937645 -1.353831e+00 -1.675
 2784 1  -6.157758 -6.273853e-01 -1.675
 2785 1  -6.138694  7.924867e-01 -1.675
 2786 1  -4.899517  1.485913e+00 -1.675
 2787 1  -7.396936 -1.320811e+00 -1.675
 2788 1  -8.617049 -5.943650e-01 -1.675
 2789 1  -8.597985  8.255070e-01 -1.675
 2790 1  -7.358807  1.518933e+00 -1.675
 2791 1  -9.856226 -1.287791e+00 -1.675
 2792 1 -11.076339 -5.613448e-01 -1.675
 2793 1 -11.057275  8.585273e-01 -1.675
 2794 1  -9.818098  1.551953e+00 -1.675
 2795 1 -12.315517 -1.254771e+00 -1.675
 2796 1 -13.535630 -5.283245e-01 -1.675
 2797 1 -13.516566  8.915475e-01 -1.675
 2798 1 -12.277388  1.584973e+00 -1.675
 2799 1 -14.774807 -1.221750e+00 -1.675
 2800 1 -15.994920 -4.953042e-01 -1.675
 2801 1 -15.975856  9.245678e-01 -1.675
 2802 1 -14.736679  1.617994e+00 -1.675
 2803 1 -17.234098 -1.188730e+00 -1.675
 2804 1 -18.454211 -4.622839e-01 -1.675
 2805 1 -18.435146  9.575881e-01 -1.675
 2806 1 -17.195969  1.651014e+00 -1.675
 2807 1 -19.693388 -1.155710e+00 -1.675
 2808 1 -20.913501 -4.292636e-01 -1.675
 2809 1 -20.894437  9.906084e-01 -1.675
 2810 1 -19.655260  1.684034e+00 -1.675
 2811 1 -22.152679 -1.122690e+00 -1.675
 2812 1 -23.372792 -3.962434e-01 -1.675
 2813 1 -23.353727  1.023629e+00 -1.675
 2814 1 -22.114550  1.717055e+00 -1.675
 2815 1 -24.611969 -1.089669e+00 -1.675
 2816 1 -25.832082 -3.632231e-01 -1.675
 2817 1 -25.813018  1.056649e+00 -1.675
 2818 1 -24.573841  1.750075e+00 -1.675
 2819 1 -27.071260 -1.056649e+00 -1.675
 2820 1 -28.291373 -3.302028e-01 -1.675
 2821 1 -28.272308  1.089669e+00 -1.675
 2822 1 -27.033131  1.783095e+00 -1.675
 2823 1 -29.530550 -1.023629e+00 -1.675
 2824 1 -30.750663 -2.971825e-01 -1.675
 2825 1 -30.731599  1.122690e+00 -1.675
 2826 1 -29.492421  1.816115e+00 -1.675
 2827 1 -31.989840 -9.906084e-01 -1.675
 2828 1 -33.209954 -2.641622e-01 -1.675
 2829 1 -33.190889  1.155710e+00 -1.675
 2830 1 -31.951712  1.849136e+00 -1.675
 2831 1 -34.449131 -9.575881e-01 -1.675
 2832 1 -35.669244 -2.311420e-01 -1.675
 2833 1 -35.650180  1.188730e+00 -1.675
 2834 1 -34.411002  1.882156e+00 -1.675
 2835 1 -36.908421 -9.245678e-01 -1.675
 2836 1 -38.128535 -1.981217e-01 -1.675
 2837 1 -38.109470  1.221750e+00 -1.675
 2838 1 -36.870293  1.915176e+00 -1.675
 2839 1 -39.367712 -8.915475e-01 -1.675
 2840 1 -40.587825 -1.651014e-01 -1.675
 2841 1 -40.568761  1.254771e+00 -1.675
 2842 1 -39.329583  1.948196e+00 -1.675
 2843 1 -41.827002 -8.585273e-01 -1.675
 2844 1 -43.047116 -1.320811e-01 -1.675
 2845 1 -43.028051  1.287791e+00 -1.675
 2846 1 -41.788874  1.981217e+00 -1.675
 2847 1 -44.286293 -8.255070e-01 -1.675
 2848 1 -45.506406 -9.906084e-02 -1.675
 2849 1 -45.487342  1.320811e+00 -1.675
 2850 1 -44.248164  2.014237e+00 -1.675
 2851 1 -46.745583 -7.924867e-01 -1.675
 2852 1 -47.965696 -6.604056e-02 -1.675
 2853 1 -47.946632  1.353831e+00 -1.675
 2854 1 -46.707455  2.047257e+00 -1.675
 2855 1 -49.204874 -7.594664e-01 -1.675
 2856 1 -50.424987 -3.302028e-02 -1.675
 2857 1 -50.405923  1.386852e+00 -1.675
 2858 1 -49.166745  2.080278e+00 -1.675
 2859 1 -51.664164 -7.264461e-01 -1.675
 2860 1 -52.884277  3.615691e-15 -1.675
 2861 1 -52.865213  1.419872e+00 -1.675
 2862 1 -51.626036  2.113298e+00 -1.675
 2863 1 -54.123455 -6.934259e-01 -1.675
 2864 1 -55.343568  3.302028e-02 -1.675
 2865 1 -55.324504  1.452892e+00 -1.675
 2866 1 -54.085326  2.146318e+00 -1.675
 2867 1 -56.582745 -6.604056e-01 -1.675
 2868 1 -57.802858  6.604056e-02 -1.675
 2869 1 -57.783794  1.485913e+00 -1.675
 2870 1 -56.544617  2.179338e+00 -1.675
 2871 1 -59.042036 -6.273853e-01 -1.675
 2872 1 -60.262149  9.906084e-02 -1.675
 2873 1 -60.243085  1.518933e+00 -1.675
 2874 1 -59.003907  2.212359e+00 -1.675
 2875 1 -61.501326 -5.943650e-01 -1.675
 2876 1 -62.721439  1.320811e-01 -1.675
 2877 1 -62.702375  1.551953e+00 -1.675
 2878 1 -61.463198  2.245379e+00 -1.675
 2879 1 -63.960617 -5.613448e-01 -1.675
 2880 1 -65.180730  1.651014e-01 -1.675
 2881 1 -65.161666  1.584973e+00 -1.675
 2882 1 -63.922488  2.278399e+00 -1.675
 2883 1 -66.419907 -5.283245e-01 -1.675
 2884 1 -67.640020  1.981217e-01 -1.675
 2885 1 -67.620956  1.617994e+00 -1.675
 2886 1 -66.381779  2.311420e+00 -1.675
 2887 1 -68.879198 -4.953042e-01 -1.675
 2888 1 -70.099311  2.311420e-01 -1.675
 2889 1 -70.080247  1.651014e+00 -1.675
 2890 1 -68.841069  2.344440e+00 -1.675
 2891 1 -71.338488 -4.622839e-01 -1.675
 2892 1 -72.558601  2.641622e-01 -1.675
 2893 1 -72.539537  1.684034e+00 -1.675
 2894 1 -71.300360  2.377460e+00 -1.675
 2895 1 -73.797779 -4.292636e-01 -1.675
 2896 1 -75.017892  2.971825e-01 -1.675
 2897 1 -74.998827  1.717055e+00 -1.675
 2898 1 -73.759650  2.410480e+00 -1.675
 2899 1 -76.257069 -3.962434e-01 -1.675
 2900 1 -77.477182  3.302028e-01 -1.675
 2901 1 -77.458118  1.750075e+00 -1.675
 2902 1 -76.218941  2.443501e+00 -1.675
 2903 1 -78.716360 -3.632231e-01 -1.675
 2904 1 -78.678231  2.476521e+00 -1.675
 2905 1  78.735424  1.783095e+00 -1.675
 2906 1  77.515311  2.509541e+00 -1.675
 2907 1  77.534375  3.929413e+00 -1.675
 2908 1  78.773552  4.622839e+00 -1.675
 2909 1  76.276133  1.816115e+00 -1.675
 2910 1  75.056020  2.542562e+00 -1.675
 2911 1  75.075085  3.962434e+00 -1.675
 2912 1  76.314262  4.655859e+00 -1.675
 2913 1  73.816843  1.849136e+00 -1.675
 2914 1  72.596730  2.575582e+00 -1.675
 2915 1  72.615794  3.995454e+00 -1.675
 2916 1  73.854971  4.688880e+00 -1.675
 2917 1  71.357552  1.882156e+00 -1.675
 2918 1  70.137439  2.608602e+00 -1.675
 2919 1  70.156504  4.028474e+00 -1.675
 2920 1  71.395681  4.721900e+00 -1.675
 2921 1  68.898262  1.915176e+00 -1.675
 2922 1  67.678149  2.641622e+00 -1.675
 2923 1  67.697213  4.061494e+00 -1.675
 2924 1  68.936390  4.754920e+00 -1.675
 2925 1  66.438971  1.948196e+00 -1.675
 2926 1  65.218858  2.674643e+00 -1.675
 2927 1  65.237923  4.094515e+00 -1.675
 2928 1  66.477100  4.787941e+00 -1.675
 2929 1  63.979681  1.981217e+00 -1.675
 2930 1  62.759568  2.707663e+00 -1.675
 2931 1  62.778632  4.127535e+00 -1.675
 2932 1  64.017810  4.820961e+00 -1.675
 2933 1  61.520391  2.014237e+00 -1.675
 2934 1  60.300277  2.740683e+00 -1.675
 2935 1  60.319342  4.160555e+00 -1.675
 2936 1  61.558519  4.853981e+00 -1.675
 2937 1  59.061100  2.047257e+00 -1.675
 2938 1  57.840987  2.773703e+00 -1.675
 2939 1  57.860051  4.193576e+00 -1.675
 2940 1  59.099229  4.887001e+00 -1.675
 2941 1  56.601810  2.080278e+00 -1.675
 2942 1  55.381696  2.806724e+00 -1.675
 2943 1  55.400761  4.226596e+00 -1.675
 2944 1  56.639938  4.920022e+00 -1.675
 2945 1  54.142519  2.113298e+00 -1.675
 2946 1  52.922406  2.839744e+00 -1.675
 2947 1  52.941470  4.259616e+00 -1.675
 2948 1  54.180648  4.953042e+00 -1.675
 2949 1  51.683229  2.146318e+00 -1.675
 2950 1  50.463115  2.872764e+00 -1.675
 2951 1  50.482180  4.292636e+00 -1.675
 2952 1  51.721357  4.986062e+00 -1.675
 2953 1  49.223938  2.179338e+00 -1.675
 2954 1  48.003825  2.905785e+00 -1.675
 2955 1  48.022889  4.325657e+00 -1.675
 2956 1  49.262067  5.019082e+00 -1.675
 2957 1  46.764648  2.212359e+00 -1.675
 2958 1  45.544535  2.938805e+00 -1.675
 2959 1  45.563599  4.358677e+00 -1.675
 2960 1  46.802776  5.052103e+00 -1.675
 2961 1  44.305357  2.245379e+00 -1.675
 2962 1  43.085244  2.971825e+00 -1.675
 2963 1  43.104308  4.391697e+00 -1.675
 2964 1  44.343486  5.085123e+00 -1.675
 2965 1  41.846067  2.278399e+00 -1.675
 2966 1  40.625954  3.004845e+00 -1.675
 2967 1  40.645018  4.424717e+00 -1.675
 2968 1  41.884195  5.118143e+00 -1.675
 2969 1  39.386776  2.311420e+00 -1.675
 2970 1  38.166663  3.037866e+00 -1.675
 2971 1  38.185727  4.457738e+00 -1.675
 2972 1  39.424905  5.151164e+00 -1.675
 2973 1  36.927486  2.344440e+00 -1.675
 2974 1  35.707373  3.070886e+00 -1.675
 2975 1  35.726437  4.490758e+00 -1.675
 2976 1  36.965614  5.184184e+00 -1.675
 2977 1  34.468195  2.377460e+00 -1.675
 2978 1  33.248082  3.103906e+00 -1.675
 2979 1  33.267146  4.523778e+00 -1.675
 2980 1  34.506324  5.217204e+00 -1.675
 2981 1  32.008905  2.410480e+00 -1.675
 2982 1  30.788792  3.136927e+00 -1.675
 2983 1  30.807856  4.556799e+00 -1.675
 2984 1  32.047033  5.250224e+00 -1.675
 2985 1  29.549614  2.443501e+00 -1.675
 2986 1  28.329501  3.169947e+00 -1.675
 2987 1  28.348565  4.589819e+00 -1.675
 2988 1  29.587743  5.283245e+00 -1.675
 2989 1  27.090324  2.476521e+00 -1.675
 2990 1  25.870211  3.202967e+00 -1.675
 2991 1  25.889275  4.622839e+00 -1.675
 2992 1  27.128452  5.316265e+00 -1.675
 2993 1  24.631033  2.509541e+00 -1.675
 2994 1  23.410920  3.235987e+00 -1.675
 2995 1  23.429984  4.655859e+00 -1.675
 2996 1  24.669162  5.349285e+00 -1.675
 2997 1  22.171743  2.542562e+00 -1.675
 2998 1  20.951630  3.269008e+00 -1.675
 2999 1  20.970694  4.688880e+00 -1.675
 3000 1  22.209871  5.382306e+00 -1.675
 3001 1  19.712452  2.575582e+00 -1.675
 3002 1  18.492339  3.302028e+00 -1.675
 3003 1  18.511404  4.721900e+00 -1.675
 3004 1  19.750581  5.415326e+00 -1.675
 3005 1  17.253162  2.608602e+00 -1.675
 3006 1  16.033049  3.335048e+00 -1.675
 3007 1  16.052113  4.754920e+00 -1.675
 3008 1  17.291290  5.448346e+00 -1.675
 3009 1  14.793871  2.641622e+00 -1.675
 3010 1  13.573758  3.368069e+00 -1.675
 3011 1  13.592823  4.787941e+00 -1.675
 3012 1  14.832000  5.481366e+00 -1.675
 3013 1  12.334581  2.674643e+00 -1.675
 3014 1  11.114468  3.401089e+00 -1.675
 3015 1  11.133532  4.820961e+00 -1.675
 3016 1  12.372709  5.514387e+00 -1.675
 3017 1   9.875290  2.707663e+00 -1.675
 3018 1   8.655177  3.434109e+00 -1.675
 3019 1   8.674242  4.853981e+00 -1.675
 3020 1   9.913419  5.547407e+00 -1.675
 3021 1   7.416000  2.740683e+00 -1.675
 3022 1   6.195887  3.467129e+00 -1.675
 3023 1   6.214951  4.887001e+00 -1.675
 3024 1   7.454129  5.580427e+00 -1.675
 3025 1   4.956709  2.773703e+00 -1.675
 3026 1   3.736596  3.500150e+00 -1.675
 3027 1   3.755661  4.920022e+00 -1.675
 3028 1   4.994838  5.613448e+00 -1.675
 3029 1   2.497419  2.806724e+00 -1.675
 3030 1   1.277306  3.533170e+00 -1.675
 3031 1   1.296370  4.953042e+00 -1.675
 3032 1   2.535548  5.646468e+00 -1.675
 3033 1   0.038129  2.839744e+00 -1.675
 3034 1  -1.181985  3.566190e+00 -1.675
 3035 1  -1.162920  4.986062e+00 -1.675
 3036 1   0.076257  5.679488e+00 -1.675
 3037 1  -2.421162  2.872764e+00 -1.675
 3038 1  -3.641275  3.599210e+00 -1.675
 3039 1  -3.622211  5.019082e+00 -1.675
 3040 1  -2.383033  5.712508e+00 -1.675
 3041 1  -4.880452  2.905785e+00 -1.675
 3042 1  -6.100566  3.632231e+00 -1.675
 3043 1  -6.081501  5.052103e+00 -1.675
 3044 1  -4.842324  5.745529e+00 -1.675
 3045 1  -7.339743  2.938805e+00 -1.675
 3046 1  -8.559856  3.665251e+00 -1.675
 3047 1  -8.540792  5.085123e+00 -1.675
 3048 1  -7.301614  5.778549e+00 -1.675
 3049 1  -9.799033  2.971825e+00 -1.675
 3050 1 -11.019146  3.698271e+00 -1.675
 3051 1 -11.000082  5.118143e+00 -1.675
 3052 1  -9.760905  5.811569e+00 -1.675
 3053 1 -12.258324  3.004845e+00 -1.675
 3054 1 -13.478437  3.731292e+00 -1.675
 3055 1 -13.459373  5.151164e+00 -1.675
 3056 1 -12.220195  5.844589e+00 -1.675
 3057 1 -14.717614  3.037866e+00 -1.675
 3058 1 -15.937727  3.764312e+00 -1.675
 3059 1 -15.918663  5.184184e+00 -1.675
 3060 1 -14.679486  5.877610e+00 -1.675
 3061 1 -17.176905  3.070886e+00 -1.675
 3062 1 -18.397018  3.797332e+00 -1.675
 3063 1 -18.377954  5.217204e+00 -1.675
 3064 1 -17.138776  5.910630e+00 -1.675
 3065 1 -19.636195  3.103906e+00 -1.675
 3066 1 -20.856308  3.830352e+00 -1.675
 3067 1 -20.837244  5.250224e+00 -1.675
 3068 1 -19.598067  5.943650e+00 -1.675
 3069 1 -22.095486  3.136927e+00 -1.675
 3070 1 -23.315599  3.863373e+00 -1.675
 3071 1 -23.296535  5.283245e+00 -1.675
 3072 1 -22.057357  5.976671e+00 -1.675
 3073 1 -24.554776  3.169947e+00 -1.675
 3074 1 -25.774889  3.896393e+00 -1.675
 3075 1 -25.755825  5.316265e+00 -1.675
 3076 1 -24.516648  6.009691e+00 -1.675
 3077 1 -27.014067  3.202967e+00 -1.675
 3078 1 -28.234180  3.929413e+00 -1.675
 3079 1 -28.215116  5.349285e+00 -1.675
 3080 1 -26.975938  6.042711e+00 -1.675
 3081 1 -29.473357  3.235987e+00 -1.675
 3082 1 -30.693470  3.962434e+00 -1.675
 3083 1 -30.674406  5.382306e+00 -1.675
 3084 1 -29.435229  6.075731e+00 -1.675
 3085 1 -31.932648  3.269008e+00 -1.675
 3086 1 -33.152761  3.995454e+00 -1.675
 3087 1 -33.133697  5.415326e+00 -1.675
 3088 1 -31.894519  6.108752e+00 -1.675
 3089 1 -34.391938  3.302028e+00 -1.675
 3090 1 -35.612051  4.028474e+00 -1.675
 3091 1 -35.592987  5.448346e+00 -1.675
 3092 1 -34.353810  6.141772e+00 -1.675
 3093 1 -36.851229  3.335048e+00 -1.675
 3094 1 -38.071342  4.061494e+00 -1.675
 3095 1 -38.052277  5.481366e+00 -1.675
 3096 1 -36.813100  6.174792e+00 -1.675
 3097 1 -39.310519  3.368069e+00 -1.675
 3098 1 -40.530632  4.094515e+00 -1.675
 3099 1 -40.511568  5.514387e+00 -1.675
 3100 1 -39.272391  6.207813e+00 -1.675
 3101 1 -41.769810  3.401089e+00 -1.675
 3102 1 -42.989923  4.127535e+00 -1.675
 3103 1 -42.970858  5.547407e+00 -1.675
 3104 1 -41.731681  6.240833e+00 -1.675
 3105 1 -44.229100  3.434109e+00 -1.675
 3106 1 -45.449213  4.160555e+00 -1.675
 3107 1 -45.430149  5.580427e+00 -1.675
 3108 1 -44.190972  6.273853e+00 -1.675
 3109 1 -46.688391  3.467129e+00 -1.675
 3110 1 -47.908504  4.193576e+00 -1.675
 3111 1 -47.889439  5.613448e+00 -1.675
 3112 1 -46.650262  6.306873e+00 -1.675
 3113 1 -49.147681  3.500150e+00 -1.675
 3114 1 -50.367794  4.226596e+00 -1.675
 3115 1 -50.348730  5.646468e+00 -1.675
 3116 1 -49.109553  6.339894e+00 -1.675
 3117 1 -51.606972  3.533170e+00 -1.675
 3118 1 -52.827085  4.259616e+00 -1.675
 3119 1 -52.808020  5.679488e+00 -1.675
 3120 1 -51.568843  6.372914e+00 -1.675
 3121 1 -54.066262  3.566190e+00 -1.675
 3122 1 -55.286375  4.292636e+00 -1.675
 3123 1 -55.267311  5.712508e+00 -1.675
 3124 1 -54.028133  6.405934e+00 -1.675
 3125 1 -56.525552  3.599210e+00 -1.675
 3126 1 -57.745666  4.325657e+00 -1.675
 3127 1 -57.726601  5.745529e+00 -1.675
 3128 1 -56.487424  6.438955e+00 -1.675
 3129 1 -58.984843  3.632231e+00 -1.675
 3130 1 -60.204956  4.358677e+00 -1.675
 3131 1 -60.185892  5.778549e+00 -1.675
 3132 1 -58.946714  6.471975e+00 -1.675
 3133 1 -61.444133  3.665251e+00 -1.675
 3134 1 -62.664247  4.391697e+00 -1.675
 3135 1 -62.645182  5.811569e+00 -1.675
 3136 1 -61.406005  6.504995e+00 -1.675
 3137 1 -63.903424  3.698271e+00 -1.675
 3138 1 -65.123537  4.424717e+00 -1.675
 3139 1 -65.104473  5.844589e+00 -1.675
 3140 1 -63.865295  6.538015e+00 -1.675
 3141 1 -66.362714  3.731292e+00 -1.675
 3142 1 -67.582828  4.457738e+00 -1.675
 3143 1 -67.563763  5.877610e+00 -1.675
 3144 1 -66.324586  6.571036e+00 -1.675
 3145 1 -68.822005  3.764312e+00 -1.675
 3146 1 -70.042118  4.490758e+00 -1.675
 3147 1 -70.023054  5.910630e+00 -1.675
 3148 1 -68.783876  6.604056e+00 -1.675
 3149 1 -71.281295  3.797332e+00 -1.675
 3150 1 -72.501408  4.523778e+00 -1.675
 3151 1 -72.482344  5.943650e+00 -1.675
 3152 1 -71.243167  6.637076e+00 -1.675
 3153 1 -73.740586  3.830352e+00 -1.675
 3154 1 -74.960699  4.556799e+00 -1.675
 3155 1 -74.941635  5.976671e+00 -1.675
 3156 1 -73.702457  6.670096e+00 -1.675
 3157 1 -76.199876  3.863373e+00 -1.675
 3158 1 -77.419989  4.589819e+00 -1.675
 3159 1 -77.400925  6.009691e+00 -1.675
 3160 1 -76.161748  6.703117e+00 -1.675
 3161 1 -78.659167  3.896393e+00 -1.675
 3162 1 -78.621038  6.736137e+00 -1.675
 3163 1  78.792617  6.042711e+00 -1.675
 3164 1  77.572504  6.769157e+00 -1.675
 3165 1  77.591568  8.189029e+00 -1.675
 3166 1  78.830745  8.882455e+00 -1.675
 3167 1  76.333326  6.075731e+00 -1.675
 3168 1  75.113213  6.802178e+00 -1.675
 3169 1  75.132277  8.222050e+00 -1.675
 3170 1  76.371455  8.915475e+00 -1.675
 3171 1  73.874036  6.108752e+00 -1.675
 3172 1  72.653923  6.835198e+00 -1.675
 3173 1  72.672987  8.255070e+00 -1.675
 3174 1  73.912164  8.948496e+00 -1.675
 3175 1  71.414745  6.141772e+00 -1.675
 3176 1  70.194632  6.868218e+00 -1.675
 3177 1  70.213696  8.288090e+00 -1.675
 3178 1  71.452874  8.981516e+00 -1.675
 3179 1  68.955455  6.174792e+00 -1.675
 3180 1  67.735342  6.901238e+00 -1.675
 3181 1  67.754406  8.321110e+00 -1.675
 3182 1  68.993583  9.014536e+00 -1.675
 3183 1  66.496164  6.207813e+00 -1.675
 3184 1  65.276051  6.934259e+00 -1.675
 3185 1  65.295115  8.354131e+00 -1.675
 3186 1  66.534293  9.047557e+00 -1.675
 3187 1  64.036874  6.240833e+00 -1.675
 3188 1  62.816761  6.967279e+00 -1.675
 3189 1  62.835825  8.387151e+00 -1.675
 3190 1  64.075002  9.080577e+00 -1.675
 3191 1  61.577583  6.273853e+00 -1.675
 3192 1  60.357470  7.000299e+00 -1.675
 3193 1  60.376534  8.420171e+00 -1.675
 3194 1  61.615712  9.113597e+00 -1.675
 3195 1  59.118293  6.306873e+00 -1.675
 3196 1  57.898180  7.033320e+00 -1.675
 3197 1  57.917244  8.453192e+00 -1.675
 3198 1  59.156421  9.146617e+00 -1.675
 3199 1  56.659002  6.339894e+00 -1.675
 3200 1  55.438889  7.066340e+00 -1.675
 3201 1  55.457954  8.486212e+00 -1.675
 3202 1  56.697131  9.179638e+00 -1.675
 3203 1  54.199712  6.372914e+00 -1.675
 3204 1  52.979599  7.099360e+00 -1.675
 3205 1  52.998663  8.519232e+00 -1.675
 3206 1  54.237840  9.212658e+00 -1.675
 3207 1  51.740421  6.405934e+00 -1.675
 3208 1  50.520308  7.132380e+00 -1.675
 3209 1  50.539373  8.552252e+00 -1.675
 3210 1  51.778550  9.245678e+00 -1.675
 3211 1  49.281131  6.438955e+00 -1.675
 3212 1  48.061018  7.165401e+00 -1.675
 3213 1  48.080082  8.585273e+00 -1.675
 3214 1  49.319259  9.278699e+00 -1.675
 3215 1  46.821840  6.471975e+00 -1.675
 3216 1  45.601727  7.198421e+00 -1.675
 3217 1  45.620792  8.618293e+00 -1.675
 3218 1  46.859969  9.311719e+00 -1.675
 3219 1  44.362550  6.504995e+00 -1.675
 3220 1  43.142437  7.231441e+00 -1.675
 3221 1  43.161501  8.651313e+00 -1.675
 3222 1  44.400678  9.344739e+00 -1.675
 3223 1  41.903259  6.538015e+00 -1.675
 3224 1  40.683146  7.264461e+00 -1.675
 3225 1  40.702211  8.684334e+00 -1.675
 3226 1  41.941388  9.377759e+00 -1.675
 3227 1  39.443969  6.571036e+00 -1.675
 3228 1  38.223856  7.297482e+00 -1.675
 3229 1  38.242920  8.717354e+00 -1.675
 3230 1  39.482098  9.410780e+00 -1.675
 3231 1  36.984679  6.604056e+00 -1.675
 3232 1  35.764565  7.330502e+00 -1.675
 3233 1  35.783630  8.750374e+00 -1.675
 3234 1  37.022807  9.443800e+00 -1.675
 3235 1  34.525388  6.637076e+00 -1.675
 3236 1  33.305275  7.363522e+00 -1.675
 3237 1  33.324339  8.783394e+00 -1.675
 3238 1  34.563517  9.476820e+00 -1.675
 3239 1  32.066098  6.670096e+00 -1.675
 3240 1  30.845984  7.396543e+00 -1.675
 3241 1  30.865049  8.816415e+00 -1.675
 3242 1  32.104226  9.509841e+00 -1.675
 3243 1  29.606807  6.703117e+00 -1.675
 3244 1  28.386694  7.429563e+00 -1.675
 3245 1  28.405758  8.849435e+00 -1.675
 3246 1  29.644936  9.542861e+00 -1.675
 3247 1  27.147517  6.736137e+00 -1.675
 3248 1  25.927404  7.462583e+00 -1.675
 3249 1  25.946468  8.882455e+00 -1.675
 3250 1  27.185645  9.575881e+00 -1.675
 3251 1  24.688226  6.769157e+00 -1.675
 3252 1  23.468113  7.495603e+00 -1.675
 3253 1  23.487177  8.915475e+00 -1.675
 3254 1  24.726355  9.608901e+00 -1.675
 3255 1  22.228936  6.802178e+00 -1.675
 3256 1  21.008823  7.528624e+00 -1.675
 3257 1  21.027887  8.948496e+00 -1.675
 3258 1  22.267064  9.641922e+00 -1.675
 3259 1  19.769645  6.835198e+00 -1.675
 3260 1  18.549532  7.561644e+00 -1.675
 3261 1  18.568596  8.981516e+00 -1.675
 3262 1  19.807774  9.674942e+00 -1.675
 3263 1  17.310355  6.868218e+00 -1.675
 3264 1  16.090242  7.594664e+00 -1.675
 3265 1  16.109306  9.014536e+00 -1.675
 3266 1  17.348483  9.707962e+00 -1.675
 3267 1  14.851064  6.901238e+00 -1.675
 3268 1  13.630951  7.627685e+00 -1.675
 3269 1  13.650015  9.047557e+00 -1.675
 3270 1  14.889193  9.740982e+00 -1.675
 3271 1  12.391774  6.934259e+00 -1.675
 3272 1  11.171661  7.660705e+00 -1.675
 3273 1  11.190725  9.080577e+00 -1.675
 3274 1  12.429902  9.774003e+00 -1.675
 3275 1   9.932483  6.967279e+00 -1.675
 3276 1   8.712370  7.693725e+00 -1.675
 3277 1   8.731434  9.113597e+00 -1.675
 3278 1   9.970612  9.807023e+00 -1.675
 3279 1   7.473193  7.000299e+00 -1.675
 3280 1   6.253080  7.726745e+00 -1.675
 3281 1   6.272144  9.146617e+00 -1.675
 3282 1   7.511321  9.840043e+00 -1.675
 3283 1   5.013902  7.033320e+00 -1.675
 3284 1   3.793789  7.759766e+00 -1.675
 3285 1   3.812853  9.179638e+00 -1.675
 3286 1   5.052031  9.873064e+00 -1.675
 3287 1   2.554612  7.066340e+00 -1.675
 3288 1   1.334499  7.792786e+00 -1.675
 3289 1   1.353563  9.212658e+00 -1.675
 3290 1   2.592740  9.906084e+00 -1.675
 3291 1   0.095321  7.099360e+00 -1.675
 3292 1  -1.124792  7.825806e+00 -1.675
 3293 1  -1.105728  9.245678e+00 -1.675
 3294 1   0.133450  9.939104e+00 -1.675
 3295 1  -2.363969  7.132380e+00 -1.675
 3296 1  -3.584082  7.858827e+00 -1.675
 3297 1  -3.565018  9.278699e+00 -1.675
 3298 1  -2.325841  9.972124e+00 -1.675
 3299 1  -4.823260  7.165401e+00 -1.675
 3300 1  -6.043373  7.891847e+00 -1.675
 3301 1  -6.024308  9.311719e+00 -1.675
 3302 1  -4.785131  1.000514e+01 -1.675
 3303 1  -7.282550  7.198421e+00 -1.675
 3304 1  -8.502663  7.924867e+00 -1.675
 3305 1  -8.483599  9.344739e+00 -1.675
 3306 1  -7.244422  1.003816e+01 -1.675
 3307 1  -9.741841  7.231441e+00 -1.675
 3308 1 -10.961954  7.957887e+00 -1.675
 3309 1 -10.942889  9.377759e+00 -1.675
 3310 1  -9.703712  1.007119e+01 -1.675
 3311 1 -12.201131  7.264461e+00 -1.675
 3312 1 -13.421244  7.990908e+00 -1.675
 3313 1 -13.402180  9.410780e+00 -1.675
 3314 1 -12.163003  1.010421e+01 -1.675
 3315 1 -14.660422  7.297482e+00 -1.675
 3316 1 -15.880535  8.023928e+00 -1.675
 3317 1 -15.861470  9.443800e+00 -1.675
 3318 1 -14.622293  1.013723e+01 -1.675
 3319 1 -17.119712  7.330502e+00 -1.675
 3320 1 -18.339825  8.056948e+00 -1.675
 3321 1 -18.320761  9.476820e+00 -1.675
 3322 1 -17.081583  1.017025e+01 -1.675
 3323 1 -19.579002  7.363522e+00 -1.675
 3324 1 -20.799116  8.089968e+00 -1.675
 3325 1 -20.780051  9.509841e+00 -1.675
 3326 1 -19.540874  1.020327e+01 -1.675
 3327 1 -22.038293  7.396543e+00 -1.675
 3328 1 -23.258406  8.122989e+00 -1.675
 3329 1 -23.239342  9.542861e+00 -1.675
 3330 1 -22.000164  1.023629e+01 -1.675
 3331 1 -24.497583  7.429563e+00 -1.675
 3332 1 -25.717697  8.156009e+00 -1.675
 3333 1 -25.698632  9.575881e+00 -1.675
 3334 1 -24.459455  1.026931e+01 -1.675
 3335 1 -26.956874  7.462583e+00 -1.675
 3336 1 -28.176987  8.189029e+00 -1.675
 3337 1 -28.157923  9.608901e+00 -1.675
 3338 1 -26.918745  1.030233e+01 -1.675
 3339 1 -29.416164  7.495603e+00 -1.675
 3340 1 -30.636278  8.222050e+00 -1.675
 3341 1 -30.617213  9.641922e+00 -1.675
 3342 1 -29.378036  1.033535e+01 -1.675
 3343 1 -31.875455  7.528624e+00 -1.675
 3344 1 -33.095568  8.255070e+00 -1.675
 3345 1 -33.076504  9.674942e+00 -1.675
 3346 1 -31.837326  1.036837e+01 -1.675
 3347 1 -34.334745  7.561644e+00 -1.675
 3348 1 -35.554858  8.288090e+00 -1.675
 3349 1 -35.535794  9.707962e+00 -1.675
 3350 1 -34.296617  1.040139e+01 -1.675
 3351 1 -36.794036  7.594664e+00 -1.675
 3352 1 -38.014149  8.321110e+00 -1.675
 3353 1 -37.995085  9.740982e+00 -1.675
 3354 1 -36.755907  1.043441e+01 -1.675
 3355 1 -39.253326  7.627685e+00 -1.675
 3356 1 -40.473439  8.354131e+00 -1.675
 3357 1 -40.454375  9.774003e+00 -1.675
 3358 1 -39.215198  1.046743e+01 -1.675
 3359 1 -41.712617  7.660705e+00 -1.675
 3360 1 -42.932730  8.387151e+00 -1.675
 3361 1 -42.913666  9.807023e+00 -1.675
 3362 1 -41.674488  1.050045e+01 -1.675
 3363 1 -44.171907  7.693725e+00 -1.675
 3364 1 -45.392020  8.420171e+00 -1.675
 3365 1 -45.372956  9.840043e+00 -1.675
 3366 1 -44.133779  1.053347e+01 -1.675
 3367 1 -46.631198  7.726745e+00 -1.675
 3368 1 -47.851311  8.453192e+00 -1.675
 3369 1 -47.832247  9.873064e+00 -1.675
 3370 1 -46.593069  1.056649e+01 -1.675
 3371 1 -49.090488  7.759766e+00 -1.675
 3372 1 -50.310601  8.486212e+00 -1.675
 3373 1 -50.291537  9.906084e+00 -1.675
 3374 1 -49.052360  1.059951e+01 -1.675
 3375 1 -51.549779  7.792786e+00 -1.675
 3376 1 -52.769892  8.519232e+00 -1.675
 3377 1 -52.750828  9.939104e+00 -1.675
 3378 1 -51.511650  1.063253e+01 -1.675
 3379 1 -54.009069  7.825806e+00 -1.675
 3380 1 -55.229182  8.552252e+00 -1.675
 3381 1 -55.210118  9.972124e+00 -1.675
 3382 1 -53.970941  1.066555e+01 -1.675
 3383 1 -56.468360  7.858827e+00 -1.675
 3384 1 -57.688473  8.585273e+00 -1.675
 3385 1 -57.669409  1.000514e+01 -1.675
 3386 1 -56.430231  1.069857e+01 -1.675
 3387 1 -58.927650  7.891847e+00 -1.675
 3388 1 -60.147763  8.618293e+00 -1.675
 3389 1 -60.128699  1.003816e+01 -1.675
 3390 1 -58.889522  1.073159e+01 -1.675
 3391 1 -61.386941  7.924867e+00 -1.675
 3392 1 -62.607054  8.651313e+00 -1.675
 3393 1 -62.587989  1.007119e+01 -1.675
 3394 1 -61.348812  1.076461e+01 -1.675
 3395 1 -63.846231  7.957887e+00 -1.675
 3396 1 -65.066344  8.684334e+00 -1.675
 3397 1 -65.047280  1.010421e+01 -1.675
 3398 1 -63.808103  1.079763e+01 -1.675
 3399 1 -66.305522  7.990908e+00 -1.675
 3400 1 -67.525635  8.717354e+00 -1.675
 3401 1 -67.506570  1.013723e+01 -1.675
 3402 1 -66.267393  1.083065e+01 -1.675
 3403 1 -68.764812  8.023928e+00 -1.675
 3404 1 -69.984925  8.750374e+00 -1.675
 3405 1 -69.965861  1.017025e+01 -1.675
 3406 1 -68.726684  1.086367e+01 -1.675
 3407 1 -71.224103  8.056948e+00 -1.675
 3408 1 -72.444216  8.783394e+00 -1.675
 3409 1 -72.425151  1.020327e+01 -1.675
 3410 1 -71.185974  1.089669e+01 -1.675
 3411 1 -73.683393  8.089968e+00 -1.675
 3412 1 -74.903506  8.816415e+00 -1.675
 3413 1 -74.884442  1.023629e+01 -1.675
 3414 1 -73.645265  1.092971e+01 -1.675
 3415 1 -76.142684  8.122989e+00 -1.675
 3416 1 -77.362797  8.849435e+00 -1.675
 3417 1 -77.343732  1.026931e+01 -1.675
 3418 1 -76.104555  1.096273e+01 -1.675
 3419 1 -78.601974  8.156009e+00 -1.675
 3420 1 -78.563845  1.099575e+01 -1.675
 3421 1  78.849809  1.030233e+01 -1.675
 3422 1  77.629696  1.102877e+01 -1.675
 3423 1  77.648761  1.244865e+01 -1.675
 3424 1  78.887938  1.314207e+01 -1.675
 3425 1  76.390519  1.033535e+01 -1.675
 3426 1  75.170406  1.106179e+01 -1.675
 3427 1  75.189470  1.248167e+01 -1.675
 3428 1  76.428648  1.317509e+01 -1.675
 3429 1  73.931229  1.036837e+01 -1.675
 3430 1  72.711115  1.109481e+01 -1.675
 3431 1  72.730180  1.251469e+01 -1.675
 3432 1  73.969357  1.320811e+01 -1.675
 3433 1  71.471938  1.040139e+01 -1.675
 3434 1  70.251825  1.112783e+01 -1.675
 3435 1  70.270889  1.254771e+01 -1.675
 3436 1  71.510067  1.324113e+01 -1.675
 3437 1  69.012648  1.043441e+01 -1.675
 3438 1  67.792534  1.116085e+01 -1.675
 3439 1  67.811599  1.258073e+01 -1.675
 3440 1  69.050776  1.327415e+01 -1.675
 3441 1  66.553357  1.046743e+01 -1.675
 3442 1  65.333244  1.119387e+01 -1.675
 3443 1  65.352308  1.261375e+01 -1.675
 3444 1  66.591486  1.330717e+01 -1.675
 3445 1  64.094067  1.050045e+01 -1.675
 3446 1  62.873953  1.122690e+01 -1.675
 3447 1  62.893018  1.264677e+01 -1.675
 3448 1  64.132195  1.334019e+01 -1.675
 3449 1  61.634776  1.053347e+01 -1.675
 3450 1  60.414663  1.125992e+01 -1.675
 3451 1  60.433727  1.267979e+01 -1.675
 3452 1  61.672905  1.337321e+01 -1.675
 3453 1  59.175486  1.056649e+01 -1.675
 3454 1  57.955373  1.129294e+01 -1.675
 3455 1  57.974437  1.271281e+01 -1.675
 3456 1  59.213614  1.340623e+01 -1.675
 3457 1  56.716195  1.059951e+01 -1.675
 3458 1  55.496082  1.132596e+01 -1.675
 3459 1  55.515146  1.274583e+01 -1.675
 3460 1  56.754324  1.343925e+01 -1.675
 3461 1  54.256905  1.063253e+01 -1.675
 3462 1  53.036792  1.135898e+01 -1.675
 3463 1  53.055856  1.277885e+01 -1.675
 3464 1  54.295033  1.347227e+01 -1.675
 3465 1  51.797614  1.066555e+01 -1.675
 3466 1  50.577501  1.139200e+01 -1.675
 3467 1  50.596565  1.281187e+01 -1.675
 3468 1  51.835743  1.350529e+01 -1.675
 3469 1  49.338324  1.069857e+01 -1.675
 3470 1  48.118211  1.142502e+01 -1.675
 3471 1  48.137275  1.284489e+01 -1.675
 3472 1  49.376452  1.353831e+01 -1.675
 3473 1  46.879033  1.073159e+01 -1.675
 3474 1  45.658920  1.145804e+01 -1.675
 3475 1  45.677984  1.287791e+01 -1.675
 3476 1  46.917162  1.357133e+01 -1.675
 3477 1  44.419743  1.076461e+01 -1.675
 3478 1  43.199630  1.149106e+01 -1.675
 3479 1  43.218694  1.291093e+01 -1.675
 3480 1  44.457871  1.360436e+01 -1.675
 3481 1  41.960452  1.079763e+01 -1.675
 3482 1  40.740339  1.152408e+01 -1.675
 3483 1  40.759403  1.294395e+01 -1.675
 3484 1  41.998581  1.363738e+01 -1.675
 3485 1  39.501162  1.083065e+01 -1.675
 3486 1  38.281049  1.155710e+01 -1.675
 3487 1  38.300113  1.297697e+01 -1.675
 3488 1  39.539290  1.367040e+01 -1.675
 3489 1  37.041871  1.086367e+01 -1.675
 3490 1  35.821758  1.159012e+01 -1.675
 3491 1  35.840822  1.300999e+01 -1.675
 3492 1  37.080000  1.370342e+01 -1.675
 3493 1  34.582581  1.089669e+01 -1.675
 3494 1  33.362468  1.162314e+01 -1.675
 3495 1  33.381532  1.304301e+01 -1.675
 3496 1  34.620709  1.373644e+01 -1.675
 3497 1  32.123290  1.092971e+01 -1.675
 3498 1  30.903177  1.165616e+01 -1.675
 3499 1  30.922242  1.307603e+01 -1.675
 3500 1  32.161419  1.376946e+01 -1.675
 3501 1  29.664000  1.096273e+01 -1.675
 3502 1  28.443887  1.168918e+01 -1.675
 3503 1  28.462951  1.310905e+01 -1.675
 3504 1  29.702128  1.380248e+01 -1.675
 3505 1  27.204709  1.099575e+01 -1.675
 3506 1  25.984596  1.172220e+01 -1.675
 3507 1  26.003661  1.314207e+01 -1.675
 3508 1  27.242838  1.383550e+01 -1.675
 3509 1  24.745419  1.102877e+01 -1.675
 3510 1  23.525306  1.175522e+01 -1.675
 3511 1  23.544370  1.317509e+01 -1.675
 3512 1  24.783547  1.386852e+01 -1.675
 3513 1  22.286128  1.106179e+01 -1.675
 3514 1  21.066015  1.178824e+01 -1.675
 3515 1  21.085080  1.320811e+01 -1.675
 3516 1  22.324257  1.390154e+01 -1.675
 3517 1  19.826838  1.109481e+01 -1.675
 3518 1  18.606725  1.182126e+01 -1.675
 3519 1  18.625789  1.324113e+01 -1.675
 3520 1  19.864967  1.393456e+01 -1.675
 3521 1  17.367547  1.112783e+01 -1.675
 3522 1  16.147434  1.185428e+01 -1.675
 3523 1  16.166499  1.327415e+01 -1.675
 3524 1  17.405676  1.396758e+01 -1.675
 3525 1  14.908257  1.116085e+01 -1.675
 3526 1  13.688144  1.188730e+01 -1.675
 3527 1  13.707208  1.330717e+01 -1.675
 3528 1  14.946386  1.400060e+01 -1.675
 3529 1  12.448967  1.119387e+01 -1.675
 3530 1  11.228853  1.192032e+01 -1.675
 3531 1  11.247918  1.334019e+01 -1.675
 3532 1  12.487095  1.403362e+01 -1.675
 3533 1   9.989676  1.122690e+01 -1.675
 3534 1   8.769563  1.195334e+01 -1.675
 3535 1   8.788627  1.337321e+01 -1.675
 3536 1  10.027805  1.406664e+01 -1.675
 3537 1   7.530386  1.125992e+01 -1.675
 3538 1   6.310272  1.198636e+01 -1.675
 3539 1   6.329337  1.340623e+01 -1.675
 3540 1   7.568514  1.409966e+01 -1.675
 3541 1   5.071095  1.129294e+01 -1.675
 3542 1   3.850982  1.201938e+01 -1.675
 3543 1   3.870046  1.343925e+01 -1.675
 3544 1   5.109224  1.413268e+01 -1.675
 3545 1   2.611805  1.132596e+01 -1.675
 3546 1   1.391692  1.205240e+01 -1.675
 3547 1   1.410756  1.347227e+01 -1.675
 3548 1   2.649933  1.416570e+01 -1.675
 3549 1   0.152514  1.135898e+01 -1.675
 3550 1  -1.067599  1.208542e+01 -1.675
 3551 1  -1.048535  1.350529e+01 -1.675
 3552 1   0.190643  1.419872e+01 -1.675
 3553 1  -2.306776  1.139200e+01 -1.675
 3554 1  -3.526889  1.211844e+01 -1.675
 3555 1  -3.507825  1.353831e+01 -1.675
 3556 1  -2.268648  1.423174e+01 -1.675
 3557 1  -4.766067  1.142502e+01 -1.675
 3558 1  -5.986180  1.215146e+01 -1.675
 3559 1  -5.967116  1.357133e+01 -1.675
 3560 1  -4.727938  1.426476e+01 -1.675
 3561 1  -7.225357  1.145804e+01 -1.675
 3562 1  -8.445470  1.218448e+01 -1.675
 3563 1  -8.426406  1.360436e+01 -1.675
 3564 1  -7.187229  1.429778e+01 -1.675
 3565 1  -9.684648  1.149106e+01 -1.675
 3566 1 -10.904761  1.221750e+01 -1.675
 3567 1 -10.885697  1.363738e+01 -1.675
 3568 1  -9.646519  1.433080e+01 -1.675
 3569 1 -12.143938  1.152408e+01 -1.675
 3570 1 -13.364051  1.225052e+01 -1.675
 3571 1 -13.344987  1.367040e+01 -1.675
 3572 1 -12.105810  1.436382e+01 -1.675
 3573 1 -14.603229  1.155710e+01 -1.675
 3574 1 -15.823342  1.228354e+01 -1.675
 3575 1 -15.804278  1.370342e+01 -1.675
 3576 1 -14.565100  1.439684e+01 -1.675
 3577 1 -17.062519  1.159012e+01 -1.675
 3578 1 -18.282632  1.231656e+01 -1.675
 3579 1 -18.263568  1.373644e+01 -1.675
 3580 1 -17.024391  1.442986e+01 -1.675
 3581 1 -19.521810  1.162314e+01 -1.675
 3582 1 -20.741923  1.234958e+01 -1.675
 3583 1 -20.722859  1.376946e+01 -1.675
 3584 1 -19.483681  1.446288e+01 -1.675
 3585 1 -21.981100  1.165616e+01 -1.675
 3586 1 -23.201213  1.238260e+01 -1.675
 3587 1 -23.182149  1.380248e+01 -1.675
 3588 1 -21.942972  1.449590e+01 -1.675
 3589 1 -24.440391  1.168918e+01 -1.675
 3590 1 -25.660504  1.241563e+01 -1.675
 3591 1 -25.641439  1.383550e+01 -1.675
 3592 1 -24.402262  1.452892e+01 -1.675
 3593 1 -26.899681  1.172220e+01 -1.675
 3594 1 -28.119794  1.244865e+01 -1.675
 3595 1 -28.100730  1.386852e+01 -1.675
 3596 1 -26.861553  1.456194e+01 -1.675
 3597 1 -29.358972  1.175522e+01 -1.675
 3598 1 -30.579085  1.248167e+01 -1.675
 3599 1 -30.560020  1.390154e+01 -1.675
 3600 1 -29.320843  1.459496e+01 -1.675
 3601 1 -31.818262  1.178824e+01 -1.675
 3602 1 -33.038375  1.251469e+01 -1.675
 3603 1 -33.019311  1.393456e+01 -1.675
 3604 1 -31.780134  1.462798e+01 -1.675
 3605 1 -34.277553  1.182126e+01 -1.675
 3606 1 -35.497666  1.254771e+01 -1.675
 3607 1 -35.478601  1.396758e+01 -1.675
 3608 1 -34.239424  1.466100e+01 -1.675
 3609 1 -36.736843  1.185428e+01 -1.675
 3610 1 -37.956956  1.258073e+01 -1.675
 3611 1 -37.937892  1.400060e+01 -1.675
 3612 1 -36.698715  1.469402e+01 -1.675
 3613 1 -39.196134  1.188730e+01 -1.675
 3614 1 -40.416247  1.261375e+01 -1.675
 3615 1 -40.397182  1.403362e+01 -1.675
 3616 1 -39.158005  1.472704e+01 -1.675
 3617 1 -41.655424  1.192032e+01 -1.675
 3618 1 -42.875537  1.264677e+01 -1.675
 3619 1 -42.856473  1.406664e+01 -1.675
 3620 1 -41.617295  1.476006e+01 -1.675
 3621 1 -44.114714  1.195334e+01 -1.675
 3622 1 -45.334828  1.267979e+01 -1.675
 3623 1 -45.315763  1.409966e+01 -1.675
 3624 1 -44.076586  1.479309e+01 -1.675
 3625 1 -46.574005  1.198636e+01 -1.675
 3626 1 -47.794118  1.271281e+01 -1.675
 3627 1 -47.775054  1.413268e+01 -1.675
 3628 1 -46.535876  1.482611e+01 -1.675
 3629 1 -49.033295  1.201938e+01 -1.675
 3630 1 -50.253409  1.274583e+01 -1.675
 3631 1 -50.234344  1.416570e+01 -1.675
 3632 1 -48.995167  1.485913e+01 -1.675
 3633 1 -51.492586  1.205240e+01 -1.675
 3634 1 -52.712699  1.277885e+01 -1.675
 3635 1 -52.693635  1.419872e+01 -1.675
 3636 1 -51.454457  1.489215e+01 -1.675
 3637 1 -53.951876  1.208542e+01 -1.675
 3638 1 -55.171990  1.281187e+01 -1.675
 3639 1 -55.152925  1.423174e+01 -1.675
 3640 1 -53.913748  1.492517e+01 -1.675
 3641 1 -56.411167  1.211844e+01 -1.675
 3642 1 -57.631280  1.284489e+01 -1.675
 3643 1 -57.612216  1.426476e+01 -1.675
 3644 1 -56.373038  1.495819e+01 -1.675
 3645 1 -58.870457  1.215146e+01 -1.675
 3646 1 -60.090570  1.287791e+01 -1.675
 3647 1 -60.071506  1.429778e+01 -1.675
 3648 1 -58.832329  1.499121e+01 -1.675
 3649 1 -61.329748  1.218448e+01 -1.675
 3650 1 -62.549861  1.291093e+01 -1.675
 3651 1 -62.530797  1.433080e+01 -1.675
 3652 1 -61.291619  1.502423e+01 -1.675
 3653 1 -63.789038  1.221750e+01 -1.675
 3654 1 -65.009151  1.294395e+01 -1.675
 3655 1 -64.990087  1.436382e+01 -1.675
 3656 1 -63.750910  1.505725e+01 -1.675
 3657 1 -66.248329  1.225052e+01 -1.675
 3658 1 -67.468442  1.297697e+01 -1.675
 3659 1 -67.449378  1.439684e+01 -1.675
 3660 1 -66.210200  1.509027e+01 -1.675
 3661 1 -68.707619  1.228354e+01 -1.675
 3662 1 -69.927732  1.300999e+01 -1.675
 3663 1 -69.908668  1.442986e+01 -1.675
 3664 1 -68.669491  1.512329e+01 -1.675
 3665 1 -71.166910  1.231656e+01 -1.675
 3666 1 -72.387023  1.304301e+01 -1.675
 3667 1 -72.367959  1.446288e+01 -1.675
 3668 1 -71.128781  1.515631e+01 -1.675
 3669 1 -73.626200  1.234958e+01 -1.675
 3670 1 -74.846313  1.307603e+01 -1.675
 3671 1 -74.827249  1.449590e+01 -1.675
 3672 1 -73.588072  1.518933e+01 -1.675
 3673 1 -76.085491  1.238260e+01 -1.675
 3674 1 -77.305604  1.310905e+01 -1.675
 3675 1 -77.286540  1.452892e+01 -1.675
 3676 1 -76.047362  1.522235e+01 -1.675
 3677 1 -78.544781  1.241563e+01 -1.675
 3678 1 -78.506653  1.525537e+01 -1.675
 3679 1  78.907002  1.456194e+01 -1.675
 3680 1  77.686889  1.528839e+01 -1.675
 3681 1  77.705953  1.670826e+01 -1.675
 3682 1  78.945131  1.740169e+01 -1.675
 3683 1  76.447712  1.459496e+01 -1.675
 3684 1  75.227599  1.532141e+01 -1.675
 3685 1  75.246663  1.674128e+01 -1.675
 3686 1  76.485840  1.743471e+01 -1.675
 3687 1  73.988421  1.462798e+01 -1.675
 3688 1  72.768308  1.535443e+01 -1.675
 3689 1  72.787372  1.677430e+01 -1.675
 3690 1  74.026550  1.746773e+01 -1.675
 3691 1  71.529131  1.466100e+01 -1.675
 3692 1  70.309018  1.538745e+01 -1.675
 3693 1  70.328082  1.680732e+01 -1.675
 3694 1  71.567259  1.750075e+01 -1.675
 3695 1  69.069840  1.469402e+01 -1.675
 3696 1  67.849727  1.542047e+01 -1.675
 3697 1  67.868792  1.684034e+01 -1.675
 3698 1  69.107969  1.753377e+01 -1.675
 3699 1  66.610550  1.472704e+01 -1.675
 3700 1  65.390437  1.545349e+01 -1.675
 3701 1  65.409501  1.687336e+01 -1.675
 3702 1  66.648678  1.756679e+01 -1.675
 3703 1  64.151259  1.476006e+01 -1.675
 3704 1  62.931146  1.548651e+01 -1.675
 3705 1  62.950211  1.690638e+01 -1.675
 3706 1  64.189388  1.759981e+01 -1.675
 3707 1  61.691969  1.479309e+01 -1.675
 3708 1  60.471856  1.551953e+01 -1.675
 3709 1  60.490920  1.693940e+01 -1.675
 3710 1  61.730097  1.763283e+01 -1.675
 3711 1  59.232678  1.482611e+01 -1.675
 3712 1  58.012565  1.555255e+01 -1.675
 3713 1  58.031630  1.697242e+01 -1.675
 3714 1  59.270807  1.766585e+01 -1.675
 3715 1  56.773388  1.485913e+01 -1.675
 3716 1  55.553275  1.558557e+01 -1.675
 3717 1  55.572339  1.700544e+01 -1.675
 3718 1  56.811516  1.769887e+01 -1.675
 3719 1  54.314097  1.489215e+01 -1.675
 3720 1  53.093984  1.561859e+01 -1.675
 3721 1  53.113049  1.703846e+01 -1.675
 3722 1  54.352226  1.773189e+01 -1.675
 3723 1  51.854807  1.492517e+01 -1.675
 3724 1  50.634694  1.565161e+01 -1.675
 3725 1  50.653758  1.707148e+01 -1.675
 3726 1  51.892936  1.776491e+01 -1.675
 3727 1  49.395517  1.495819e+01 -1.675
 3728 1  48.175403  1.568463e+01 -1.675
 3729 1  48.194468  1.710450e+01 -1.675
 3730 1  49.433645  1.779793e+01 -1.675
 3731 1  46.936226  1.499121e+01 -1.675
 3732 1  45.716113  1.571765e+01 -1.675
 3733 1  45.735177  1.713753e+01 -1.675
 3734 1  46.974355  1.783095e+01 -1.675
 3735 1  44.476936  1.502423e+01 -1.675
 3736 1  43.256822  1.575067e+01 -1.675
 3737 1  43.275887  1.717055e+01 -1.675
 3738 1  44.515064  1.786397e+01 -1.675
 3739 1  42.017645  1.505725e+01 -1.675
 3740 1  40.797532  1.578369e+01 -1.675
 3741 1  40.816596  1.720357e+01 -1.675
 3742 1  42.055774  1.789699e+01 -1.675
 3743 1  39.558355  1.509027e+01 -1.675
 3744 1  38.338242  1.581671e+01 -1.675
 3745 1  38.357306  1.723659e+01 -1.675
 3746 1  39.596483  1.793001e+01 -1.675
 3747 1  37.099064  1.512329e+01 -1.675
 3748 1  35.878951  1.584973e+01 -1.675
 3749 1  35.898015  1.726961e+01 -1.675
 3750 1  37.137193  1.796303e+01 -1.675
 3751 1  34.639774  1.515631e+01 -1.675
 3752 1  33.419661  1.588275e+01 -1.675
 3753 1  33.438725  1.730263e+01 -1.675
 3754 1  34.677902  1.799605e+01 -1.675
 3755 1  32.180483  1.518933e+01 -1.675
 3756 1  30.960370  1.591577e+01 -1.675
 3757 1  30.979434  1.733565e+01 -1.675
 3758 1  32.218612  1.802907e+01 -1.675
 3759 1  29.721193  1.522235e+01 -1.675
 3760 1  28.501080  1.594880e+01 -1.675
 3761 1  28.520144  1.736867e+01 -1.675
 3762 1  29.759321  1.806209e+01 -1.675
 3763 1  27.261902  1.525537e+01 -1.675
 3764 1  26.041789  1.598182e+01 -1.675
 3765 1  26.060853  1.740169e+01 -1.675
 3766 1  27.300031  1.809511e+01 -1.675
 3767 1  24.802612  1.528839e+01 -1.675
 3768 1  23.582499  1.601484e+01 -1.675
 3769 1  23.601563  1.743471e+01 -1.675
 3770 1  24.840740  1.812813e+01 -1.675
 3771 1  22.343321  1.532141e+01 -1.675
 3772 1  21.123208  1.604786e+01 -1.675
 3773 1  21.142272  1.746773e+01 -1.675
 3774 1  22.381450  1.816115e+01 -1.675
 3775 1  19.884031  1.535443e+01 -1.675
 3776 1  18.663918  1.608088e+01 -1.675
 3777 1  18.682982  1.750075e+01 -1.675
 3778 1  19.922159  1.819417e+01 -1.675
 3779 1  17.424740  1.538745e+01 -1.675
 3780 1  16.204627  1.611390e+01 -1.675
 3781 1  16.223691  1.753377e+01 -1.675
 3782 1  17.462869  1.822719e+01 -1.675
 3783 1  14.965450  1.542047e+01 -1.675
 3784 1  13.745337  1.614692e+01 -1.675
 3785 1  13.764401  1.756679e+01 -1.675
 3786 1  15.003578  1.826021e+01 -1.675
 3787 1  12.506159  1.545349e+01 -1.675
 3788 1  11.286046  1.617994e+01 -1.675
 3789 1  11.305110  1.759981e+01 -1.675
 3790 1  12.544288  1.829323e+01 -1.675
 3791 1  10.046869  1.548651e+01 -1.675
 3792 1   8.826756  1.621296e+01 -1.675
 3793 1   8.845820  1.763283e+01 -1.675
 3794 1  10.084997  1.832626e+01 -1.675
 3795 1   7.587578  1.551953e+01 -1.675
 3796 1   6.367465  1.624598e+01 -1.675
 3797 1   6.386530  1.766585e+01 -1.675
 3798 1   7.625707  1.835928e+01 -1.675
 3799 1   5.128288  1.555255e+01 -1.675
 3800 1   3.908175  1.627900e+01 -1.675
 3801 1   3.927239  1.769887e+01 -1.675
 3802 1   5.166416  1.839230e+01 -1.675
 3803 1   2.668997  1.558557e+01 -1.675
 3804 1   1.448884  1.631202e+01 -1.675
 3805 1   1.467949  1.773189e+01 -1.675
 3806 1   2.707126  1.842532e+01 -1.675
 3807 1   0.209707  1.561859e+01 -1.675
 3808 1  -1.010406  1.634504e+01 -1.675
 3809 1  -0.991342  1.776491e+01 -1.675
 3810 1   0.247835  1.845834e+01 -1.675
 3811 1  -2.249584  1.565161e+01 -1.675
 3812 1  -3.469697  1.637806e+01 -1.675
 3813 1  -3.450632  1.779793e+01 -1.675
 3814 1  -2.211455  1.849136e+01 -1.675
 3815 1  -4.708874  1.568463e+01 -1.675
 3816 1  -5.928987  1.641108e+01 -1.675
 3817 1  -5.909923  1.783095e+01 -1.675
 3818 1  -4.670745  1.852438e+01 -1.675
 3819 1  -7.168164  1.571765e+01 -1.675
 3820 1  -8.388278  1.644410e+01 -1.675
 3821 1  -8.369213  1.786397e+01 -1.675
 3822 1  -7.130036  1.855740e+01 -1.675
 3823 1  -9.627455  1.575067e+01 -1.675
 3824 1 -10.847568  1.647712e+01 -1.675
 3825 1 -10.828504  1.789699e+01 -1.675
 3826 1  -9.589326  1.859042e+01 -1.675
 3827 1 -12.086745  1.578369e+01 -1.675
 3828 1 -13.306859  1.651014e+01 -1.675
 3829 1 -13.287794  1.793001e+01 -1.675
 3830 1 -12.048617  1.862344e+01 -1.675
 3831 1 -14.546036  1.581671e+01 -1.675
 3832 1 -15.766149  1.654316e+01 -1.675
 3833 1 -15.747085  1.796303e+01 -1.675
 3834 1 -14.507907  1.865646e+01 -1.675
 3835 1 -17.005326  1.584973e+01 -1.675
 3836 1 -18.225440  1.657618e+01 -1.675
 3837 1 -18.206375  1.799605e+01 -1.675
 3838 1 -16.967198  1.868948e+01 -1.675
 3839 1 -19.464617  1.588275e+01 -1.675
 3840 1 -20.684730  1.660920e+01 -1.675
 3841 1 -20.665666  1.802907e+01 -1.675
 3842 1 -19.426488  1.872250e+01 -1.675
 3843 1 -21.923907  1.591577e+01 -1.675
 3844 1 -23.144020  1.664222e+01 -1.675
 3845 1 -23.124956  1.806209e+01 -1.675
 3846 1 -21.885779  1.875552e+01 -1.675
 3847 1 -24.383198  1.594880e+01 -1.675
 3848 1 -25.603311  1.667524e+01 -1.675
 3849 1 -25.584247  1.809511e+01 -1.675
 3850 1 -24.345069  1.878854e+01 -1.675
 3851 1 -26.842488  1.598182e+01 -1.675
 3852 1 -28.062601  1.670826e+01 -1.675
 3853 1 -28.043537  1.812813e+01 -1.675
 3854 1 -26.804360  1.882156e+01 -1.675
 3855 1 -29.301779  1.601484e+01 -1.675
 3856 1 -30.521892  1.674128e+01 -1.675
 3857 1 -30.502828  1.816115e+01 -1.675
 3858 1 -29.263650  1.885458e+01 -1.675
 3859 1 -31.761069  1.604786e+01 -1.675
 3860 1 -32.981182  1.677430e+01 -1.675
 3861 1 -32.962118  1.819417e+01 -1.675
 3862 1 -31.722941  1.888760e+01 -1.675
 3863 1 -34.220360  1.608088e+01 -1.675
 3864 1 -35.440473  1.680732e+01 -1.675
 3865 1 -35.421409  1.822719e+01 -1.675
 3866 1 -34.182231  1.892062e+01 -1.675
 3867 1 -36.679650  1.611390e+01 -1.675
 3868 1 -37.899763  1.684034e+01 -1.675
 3869 1 -37.880699  1.826021e+01 -1.675
 3870 1 -36.641522  1.895364e+01 -1.675
 3871 1 -39.138941  1.614692e+01 -1.675
 3872 1 -40.359054  1.687336e+01 -1.675
 3873 1 -40.339990  1.829323e+01 -1.675
 3874 1 -39.100812  1.898666e+01 -1.675
 3875 1 -41.598231  1.617994e+01 -1.675
 3876 1 -42.818344  1.690638e+01 -1.675
 3877 1 -42.799280  1.832626e+01 -1.675
 3878 1 -41.560103  1.901968e+01 -1.675
 3879 1 -44.057522  1.621296e+01 -1.675
 3880 1 -45.277635  1.693940e+01 -1.675
 3881 1 -45.258571  1.835928e+01 -1.675
 3882 1 -44.019393  1.905270e+01 -1.675
 3883 1 -46.516812  1.624598e+01 -1.675
 3884 1 -47.736925  1.697242e+01 -1.675
 3885 1 -47.717861  1.839230e+01 -1.675
 3886 1 -46.478684  1.908572e+01 -1.675
 3887 1 -48.976103  1.627900e+01 -1.675
 3888 1 -50.196216  1.700544e+01 -1.675
 3889 1 -50.177151  1.842532e+01 -1.675
 3890 1 -48.937974  1.911874e+01 -1.675
 3891 1 -51.435393  1.631202e+01 -1.675
 3892 1 -52.655506  1.703846e+01 -1.675
 3893 1 -52.636442  1.845834e+01 -1.675
 3894 1 -51.397265  1.915176e+01 -1.675
 3895 1 -53.894684  1.634504e+01 -1.675
 3896 1 -55.114797  1.707148e+01 -1.675
 3897 1 -55.095732  1.849136e+01 -1.675
 3898 1 -53.856555  1.918478e+01 -1.675
 3899 1 -56.353974  1.637806e+01 -1.675
 3900 1 -57.574087  1.710450e+01 -1.675
 3901 1 -57.555023  1.852438e+01 -1.675
 3902 1 -56.315846  1.921780e+01 -1.675
 3903 1 -58.813265  1.641108e+01 -1.675
 3904 1 -60.033378  1.713753e+01 -1.675
 3905 1 -60.014313  1.855740e+01 -1.675
 3906 1 -58.775136  1.925082e+01 -1.675
 3907 1 -61.272555  1.644410e+01 -1.675
 3908 1 -62.492668  1.717055e+01 -1.675
 3909 1 -62.473604  1.859042e+01 -1.675
 3910 1 -61.234427  1.928384e+01 -1.675
 3911 1 -63.731846  1.647712e+01 -1.675
 3912 1 -64.951959  1.720357e+01 -1.675
 3913 1 -64.932894  1.862344e+01 -1.675
 3914 1 -63.693717  1.931686e+01 -1.675
 3915 1 -66.191136  1.651014e+01 -1.675
 3916 1 -67.411249  1.723659e+01 -1.675
 3917 1 -67.392185  1.865646e+01 -1.675
 3918 1 -66.153007  1.934988e+01 -1.675
 3919 1 -68.650426  1.654316e+01 -1.675
 3920 1 -69.870540  1.726961e+01 -1.675
 3921 1 -69.851475  1.868948e+01 -1.675
 3922 1 -68.612298  1.938290e+01 -1.675
 3923 1 -71.109717  1.657618e+01 -1.675
 3924 1 -72.329830  1.730263e+01 -1.675
 3925 1 -72.310766  1.872250e+01 -1.675
 3926 1 -71.071588  1.941592e+01 -1.675
 3927 1 -73.569007  1.660920e+01 -1.675
 3928 1 -74.789121  1.733565e+01 -1.675
 3929 1 -74.770056  1.875552e+01 -1.675
 3930 1 -73.530879  1.944894e+01 -1.675
 3931 1 -76.028298  1.664222e+01 -1.675
 3932 1 -77.248411  1.736867e+01 -1.675
 3933 1 -77.229347  1.878854e+01 -1.675
 3934 1 -75.990169  1.948196e+01 -1.675
 3935 1 -78.487588  1.667524e+01 -1.675
 3936 1 -78.449460  1.951499e+01 -1.675
 3937 1  78.964195  1.882156e+01 -1.675
 3938 1  77.744082  1.954801e+01 -1.675
 3939 1  77.763146  2.096788e+01 -1.675
 3940 1  79.002324  2.166130e+01 -1.675
 3941 1  76.504905  1.885458e+01 -1.675
 3942 1  75.284791  1.958103e+01 -1.675
 3943 1  75.303856  2.100090e+01 -1.675
 3944 1  76.543033  2.169432e+01 -1.675
 3945 1  74.045614  1.888760e+01 -1.675
 3946 1  72.825501  1.961405e+01 -1.675
 3947 1  72.844565  2.103392e+01 -1.675
 3948 1  74.083743  2.172734e+01 -1.675
 3949 1  71.586324  1.892062e+01 -1.675
 3950 1  70.366211  1.964707e+01 -1.675
 3951 1  70.385275  2.106694e+01 -1.675
 3952 1  71.624452  2.176036e+01 -1.675
 3953 1  69.127033  1.895364e+01 -1.675
 3954 1  67.906920  1.968009e+01 -1.675
 3955 1  67.925984  2.109996e+01 -1.675
 3956 1  69.165162  2.179338e+01 -1.675
 3957 1  66.667743  1.898666e+01 -1.675
 3958 1  65.447630  1.971311e+01 -1.675
 3959 1  65.466694  2.113298e+01 -1.675
 3960 1  66.705871  2.182640e+01 -1.675
 3961 1  64.208452  1.901968e+01 -1.675
 3962 1  62.988339  1.974613e+01 -1.675
 3963 1  63.007403  2.116600e+01 -1.675
 3964 1  64.246581  2.185943e+01 -1.675
 3965 1  61.749162  1.905270e+01 -1.675
 3966 1  60.529049  1.977915e+01 -1.675
 3967 1  60.548113  2.119902e+01 -1.675
 3968 1  61.787290  2.189245e+01 -1.675
 3969 1  59.289871  1.908572e+01 -1.675
 3970 1  58.069758  1.981217e+01 -1.675
 3971 1  58.088822  2.123204e+01 -1.675
 3972 1  59.328000  2.192547e+01 -1.675
 3973 1  56.830581  1.911874e+01 -1.675
 3974 1  55.610468  1.984519e+01 -1.675
 3975 1  55.629532  2.126506e+01 -1.675
 3976 1  56.868709  2.195849e+01 -1.675
 3977 1  54.371290  1.915176e+01 -1.675
 3978 1  53.151177  1.987821e+01 -1.675
 3979 1  53.170241  2.129808e+01 -1.675
 3980 1  54.409419  2.199151e+01 -1.675
 3981 1  51.912000  1.918478e+01 -1.675
 3982 1  50.691887  1.991123e+01 -1.675
 3983 1  50.710951  2.133110e+01 -1.675
 3984 1  51.950128  2.202453e+01 -1.675
 3985 1  49.452709  1.921780e+01 -1.675
 3986 1  48.232596  1.994425e+01 -1.675
 3987 1  48.251660  2.136412e+01 -1.675
 3988 1  49.490838  2.205755e+01 -1.675
 3989 1  46.993419  1.925082e+01 -1.675
 3990 1  45.773306  1.997727e+01 -1.675
 3991 1  45.792370  2.139714e+01 -1.675
 3992 1  47.031547  2.209057e+01 -1.675
 3993 1  44.534128  1.928384e+01 -1.675
 3994 1  43.314015  2.001029e+01 -1.675
 3995 1  43.333080  2.143016e+01 -1.675
 3996 1  44.572257  2.212359e+01 -1.675
 3997 1  42.074838  1.931686e+01 -1.675
 3998 1  40.854725  2.004331e+01 -1.675
 3999 1  40.873789  2.146318e+01 -1.675
 4000 1  42.112966  2.215661e+01 -1.675
 4001 1  39.615547  1.934988e+01 -1.675
 4002 1  38.395434  2.007633e+01 -1.675
 4003 1  38.414499  2.149620e+01 -1.675
 4004 1  39.653676  2.218963e+01 -1.675
 4005 1  37.156257  1.938290e+01 -1.675
 4006 1  35.936144  2.010935e+01 -1.675
 4007 1  35.955208  2.152922e+01 -1.675
 4008 1  37.194385  2.222265e+01 -1.675
 4009 1  34.696966  1.941592e+01 -1.675
 4010 1  33.476853  2.014237e+01 -1.675
 4011 1  33.495918  2.156224e+01 -1.675
 4012 1  34.735095  2.225567e+01 -1.675
 4013 1  32.237676  1.944894e+01 -1.675
 4014 1  31.017563  2.017539e+01 -1.675
 4015 1  31.036627  2.159526e+01 -1.675
 4016 1  32.275805  2.228869e+01 -1.675
 4017 1  29.778385  1.948196e+01 -1.675
 4018 1  28.558272  2.020841e+01 -1.675
 4019 1  28.577337  2.162828e+01 -1.675
 4020 1  29.816514  2.232171e+01 -1.675
 4021 1  27.319095  1.951499e+01 -1.675
 4022 1  26.098982  2.024143e+01 -1.675
 4023 1  26.118046  2.166130e+01 -1.675
 4024 1  27.357224  2.235473e+01 -1.675
 4025 1  24.859805  1.954801e+01 -1.675
 4026 1  23.639691  2.027445e+01 -1.675
 4027 1  23.658756  2.169432e+01 -1.675
 4028 1  24.897933  2.238775e+01 -1.675
 4029 1  22.400514  1.958103e+01 -1.675
 4030 1  21.180401  2.030747e+01 -1.675
 4031 1  21.199465  2.172734e+01 -1.675
 4032 1  22.438643  2.242077e+01 -1.675
 4033 1  19.941224  1.961405e+01 -1.675
 4034 1  18.721110  2.034049e+01 -1.675
 4035 1  18.740175  2.176036e+01 -1.675
 4036 1  19.979352  2.245379e+01 -1.675
 4037 1  17.481933  1.964707e+01 -1.675
 4038 1  16.261820  2.037351e+01 -1.675
 4039 1  16.280884  2.179338e+01 -1.675
 4040 1  17.520062  2.248681e+01 -1.675
 4041 1  15.022643  1.968009e+01 -1.675
 4042 1  13.802530  2.040653e+01 -1.675
 4043 1  13.821594  2.182640e+01 -1.675
 4044 1  15.060771  2.251983e+01 -1.675
 4045 1  12.563352  1.971311e+01 -1.675
 4046 1  11.343239  2.043955e+01 -1.675
 4047 1  11.362303  2.185943e+01 -1.675
 4048 1  12.601481  2.255285e+01 -1.675
 4049 1  10.104062  1.974613e+01 -1.675
 4050 1   8.883949  2.047257e+01 -1.675
 4051 1   8.903013  2.189245e+01 -1.675
 4052 1  10.142190  2.258587e+01 -1.675
 4053 1   7.644771  1.977915e+01 -1.675
 4054 1   6.424658  2.050559e+01 -1.675
 4055 1   6.443722  2.192547e+01 -1.675
 4056 1   7.682900  2.261889e+01 -1.675
 4057 1   5.185481  1.981217e+01 -1.675
 4058 1   3.965368  2.053861e+01 -1.675
 4059 1   3.984432  2.195849e+01 -1.675
 4060 1   5.223609  2.265191e+01 -1.675
 4061 1   2.726190  1.984519e+01 -1.675
 4062 1   1.506077  2.057163e+01 -1.675
 4063 1   1.525141  2.199151e+01 -1.675
 4064 1   2.764319  2.268493e+01 -1.675
 4065 1   0.266900  1.987821e+01 -1.675
 4066 1  -0.953213  2.060465e+01 -1.675
 4067 1  -0.934149  2.202453e+01 -1.675
 4068 1   0.305028  2.271795e+01 -1.675
 4069 1  -2.192391  1.991123e+01 -1.675
 4070 1  -3.412504  2.063767e+01 -1.675
 4071 1  -3.393440  2.205755e+01 -1.675
 4072 1  -2.154262  2.275097e+01 -1.675
 4073 1  -4.651681  1.994425e+01 -1.675
 4074 1  -5.871794  2.067069e+01 -1.675
 4075 1  -5.852730  2.209057e+01 -1.675
 4076 1  -4.613553  2.278399e+01 -1.675
 4077 1  -7.110972  1.997727e+01 -1.675
 4078 1  -8.331085  2.070372e+01 -1.675
 4079 1  -8.312021  2.212359e+01 -1.675
 4080 1  -7.072843  2.281701e+01 -1.675
 4081 1  -9.570262  2.001029e+01 -1.675
 4082 1 -10.790375  2.073674e+01 -1.675
 4083 1 -10.771311  2.215661e+01 -1.675
 4084 1  -9.532134  2.285003e+01 -1.675
 4085 1 -12.029553  2.004331e+01 -1.675
 4086 1 -13.249666  2.076976e+01 -1.675
 4087 1 -13.230601  2.218963e+01 -1.675
 4088 1 -11.991424  2.288305e+01 -1.675
 4089 1 -14.488843  2.007633e+01 -1.675
 4090 1 -15.708956  2.080278e+01 -1.675
 4091 1 -15.689892  2.222265e+01 -1.675
 4092 1 -14.450715  2.291607e+01 -1.675
 4093 1 -16.948134  2.010935e+01 -1.675
 4094 1 -18.168247  2.083580e+01 -1.675
 4095 1 -18.149182  2.225567e+01 -1.675
 4096 1 -16.910005  2.294909e+01 -1.675
 4097 1 -19.407424  2.014237e+01 -1.675
 4098 1 -20.627537  2.086882e+01 -1.675
 4099 1 -20.608473  2.228869e+01 -1.675
 4100 1 -19.369296  2.298211e+01 -1.675
 4101 1 -21.866715  2.017539e+01 -1.675
 4102 1 -23.086828  2.090184e+01 -1.675
 4103 1 -23.067763  2.232171e+01 -1.675
 4104 1 -21.828586  2.301513e+01 -1.675
 4105 1 -24.326005  2.020841e+01 -1.675
 4106 1 -25.546118  2.093486e+01 -1.675
 4107 1 -25.527054  2.235473e+01 -1.675
 4108 1 -24.287877  2.304816e+01 -1.675
 4109 1 -26.785296  2.024143e+01 -1.675
 4110 1 -28.005409  2.096788e+01 -1.675
 4111 1 -27.986344  2.238775e+01 -1.675
 4112 1 -26.747167  2.308118e+01 -1.675
 4113 1 -29.244586  2.027445e+01 -1.675
 4114 1 -30.464699  2.100090e+01 -1.675
 4115 1 -30.445635  2.242077e+01 -1.675
 4116 1 -29.206457  2.311420e+01 -1.675
 4117 1 -31.703876  2.030747e+01 -1.675
 4118 1 -32.923990  2.103392e+01 -1.675
 4119 1 -32.904925  2.245379e+01 -1.675
 4120 1 -31.665748  2.314722e+01 -1.675
 4121 1 -34.163167  2.034049e+01 -1.675
 4122 1 -35.383280  2.106694e+01 -1.675
 4123 1 -35.364216  2.248681e+01 -1.675
 4124 1 -34.125038  2.318024e+01 -1.675
 4125 1 -36.622457  2.037351e+01 -1.675
 4126 1 -37.842571  2.109996e+01 -1.675
 4127 1 -37.823506  2.251983e+01 -1.675
 4128 1 -36.584329  2.321326e+01 -1.675
 4129 1 -39.081748  2.040653e+01 -1.675
 4130 1 -40.301861  2.113298e+01 -1.675
 4131 1 -40.282797  2.255285e+01 -1.675
 4132 1 -39.043619  2.324628e+01 -1.675
 4133 1 -41.541038  2.043955e+01 -1.675
 4134 1 -42.761152  2.116600e+01 -1.675
 4135 1 -42.742087  2.258587e+01 -1.675
 4136 1 -41.502910  2.327930e+01 -1.675
 4137 1 -44.000329  2.047257e+01 -1.675
 4138 1 -45.220442  2.119902e+01 -1.675
 4139 1 -45.201378  2.261889e+01 -1.675
 4140 1 -43.962200  2.331232e+01 -1.675
 4141 1 -46.459619  2.050559e+01 -1.675
 4142 1 -47.679732  2.123204e+01 -1.675
 4143 1 -47.660668  2.265191e+01 -1.675
 4144 1 -46.421491  2.334534e+01 -1.675
 4145 1 -48.918910  2.053861e+01 -1.675
 4146 1 -50.139023  2.126506e+01 -1.675
 4147 1 -50.119959  2.268493e+01 -1.675
 4148 1 -48.880781  2.337836e+01 -1.675
 4149 1 -51.378200  2.057163e+01 -1.675
 4150 1 -52.598313  2.129808e+01 -1.675
 4151 1 -52.579249  2.271795e+01 -1.675
 4152 1 -51.340072  2.341138e+01 -1.675
 4153 1 -53.837491  2.060465e+01 -1.675
 4154 1 -55.057604  2.133110e+01 -1.675
 4155 1 -55.038540  2.275097e+01 -1.675
 4156 1 -53.799362  2.344440e+01 -1.675
 4157 1 -56.296781  2.063767e+01 -1.675
 4158 1 -57.516894  2.136412e+01 -1.675
 4159 1 -57.497830  2.278399e+01 -1.675
 4160 1 -56.258653  2.347742e+01 -1.675
 4161 1 -58.756072  2.067069e+01 -1.675
 4162 1 -59.976185  2.139714e+01 -1.675
 4163 1 -59.957121  2.281701e+01 -1.675
 4164 1 -58.717943  2.351044e+01 -1.675
 4165 1 -61.215362  2.070372e+01 -1.675
 4166 1 -62.435475  2.143016e+01 -1.675
 4167 1 -62.416411  2.285003e+01 -1.675
 4168 1 -61.177234  2.354346e+01 -1.675
 4169 1 -63.674653  2.073674e+01 -1.675
 4170 1 -64.894766  2.146318e+01 -1.675
 4171 1 -64.875702  2.288305e+01 -1.675
 4172 1 -63.636524  2.357648e+01 -1.675
 4173 1 -66.133943  2.076976e+01 -1.675
 4174 1 -67.354056  2.149620e+01 -1.675
 4175 1 -67.334992  2.291607e+01 -1.675
 4176 1 -66.095815  2.360950e+01 -1.675
 4177 1 -68.593234  2.080278e+01 -1.675
 4178 1 -69.813347  2.152922e+01 -1.675
 4179 1 -69.794283  2.294909e+01 -1.675
 4180 1 -68.555105  2.364252e+01 -1.675
 4181 1 -71.052524  2.083580e+01 -1.675
 4182 1 -72.272637  2.156224e+01 -1.675
 4183 1 -72.253573  2.298211e+01 -1.675
 4184 1 -71.014396  2.367554e+01 -1.675
 4185 1 -73.511815  2.086882e+01 -1.675
 4186 1 -74.731928  2.159526e+01 -1.675
 4187 1 -74.712863  2.301513e+01 -1.675
 4188 1 -73.473686  2.370856e+01 -1.675
 4189 1 -75.971105  2.090184e+01 -1.675
 4190 1 -77.191218  2.162828e+01 -1.675
 4191 1 -77.172154  2.304816e+01 -1.675
 4192 1 -75.932977  2.374158e+01 -1.675
 4193 1 -78.430396  2.093486e+01 -1.675
 4194 1 -78.392267  2.377460e+01 -1.675
 4195 1  79.021388  2.308118e+01 -1.675
 4196 1  77.801275  2.380762e+01 -1.675
 4197 1  77.820339  2.522749e+01 -1.675
 4198 1  79.059516  2.592092e+01 -1.675
 4199 1  76.562097  2.311420e+01 -1.675
 4200 1  75.341984  2.384064e+01 -1.675
 4201 1  75.361049  2.526051e+01 -1.675
 4202 1  76.600226  2.595394e+01 -1.675
 4203 1  74.102807  2.314722e+01 -1.675
 4204 1  72.882694  2.387366e+01 -1.675
 4205 1  72.901758  2.529353e+01 -1.675
 4206 1  74.140935  2.598696e+01 -1.675
 4207 1  71.643516  2.318024e+01 -1.675
 4208 1  70.423403  2.390668e+01 -1.675
 4209 1  70.442468  2.532655e+01 -1.675
 4210 1  71.681645  2.601998e+01 -1.675
 4211 1  69.184226  2.321326e+01 -1.675
 4212 1  67.964113  2.393970e+01 -1.675
 4213 1  67.983177  2.535957e+01 -1.675
 4214 1  69.222354  2.605300e+01 -1.675
 4215 1  66.724935  2.324628e+01 -1.675
 4216 1  65.504822  2.397272e+01 -1.675
 4217 1  65.523887  2.539259e+01 -1.675
 4218 1  66.763064  2.608602e+01 -1.675
 4219 1  64.265645  2.327930e+01 -1.675
 4220 1  63.045532  2.400574e+01 -1.675
 4221 1  63.064596  2.542562e+01 -1.675
 4222 1  64.303774  2.611904e+01 -1.675
 4223 1  61.806355  2.331232e+01 -1.675
 4224 1  60.586241  2.403876e+01 -1.675
 4225 1  60.605306  2.545864e+01 -1.675
 4226 1  61.844483  2.615206e+01 -1.675
 4227 1  59.347064  2.334534e+01 -1.675
 4228 1  58.126951  2.407178e+01 -1.675
 4229 1  58.146015  2.549166e+01 -1.675
 4230 1  59.385193  2.618508e+01 -1.675
 4231 1  56.887774  2.337836e+01 -1.675
 4232 1  55.667660  2.410480e+01 -1.675
 4233 1  55.686725  2.552468e+01 -1.675
 4234 1  56.925902  2.621810e+01 -1.675
 4235 1  54.428483  2.341138e+01 -1.675
 4236 1  53.208370  2.413782e+01 -1.675
 4237 1  53.227434  2.555770e+01 -1.675
 4238 1  54.466612  2.625112e+01 -1.675
 4239 1  51.969193  2.344440e+01 -1.675
 4240 1  50.749080  2.417084e+01 -1.675
 4241 1  50.768144  2.559072e+01 -1.675
 4242 1  52.007321  2.628414e+01 -1.675
 4243 1  49.509902  2.347742e+01 -1.675
 4244 1  48.289789  2.420386e+01 -1.675
 4245 1  48.308853  2.562374e+01 -1.675
 4246 1  49.548031  2.631716e+01 -1.675
 4247 1  47.050612  2.351044e+01 -1.675
 4248 1  45.830499  2.423689e+01 -1.675
 4249 1  45.849563  2.565676e+01 -1.675
 4250 1  47.088740  2.635018e+01 -1.675
 4251 1  44.591321  2.354346e+01 -1.675
 4252 1  43.371208  2.426991e+01 -1.675
 4253 1  43.390272  2.568978e+01 -1.675
 4254 1  44.629450  2.638320e+01 -1.675
 4255 1  42.132031  2.357648e+01 -1.675
 4256 1  40.911918  2.430293e+01 -1.675
 4257 1  40.930982  2.572280e+01 -1.675
 4258 1  42.170159  2.641622e+01 -1.675
 4259 1  39.672740  2.360950e+01 -1.675
 4260 1  38.452627  2.433595e+01 -1.675
 4261 1  38.471691  2.575582e+01 -1.675
 4262 1  39.710869  2.644924e+01 -1.675
 4263 1  37.213450  2.364252e+01 -1.675
 4264 1  35.993337  2.436897e+01 -1.675
 4265 1  36.012401  2.578884e+01 -1.675
 4266 1  37.251578  2.648226e+01 -1.675
 4267 1  34.754159  2.367554e+01 -1.675
 4268 1  33.534046  2.440199e+01 -1.675
 4269 1  33.553110  2.582186e+01 -1.675
 4270 1  34.792288  2.651528e+01 -1.675
 4271 1  32.294869  2.370856e+01 -1.675
 4272 1  31.074756  2.443501e+01 -1.675
 4273 1  31.093820  2.585488e+01 -1.675
 4274 1  32.332997  2.654830e+01 -1.675
 4275 1  29.835578  2.374158e+01 -1.675
 4276 1  28.615465  2.446803e+01 -1.675
 4277 1  28.634529  2.588790e+01 -1.675
 4278 1  29.873707  2.658133e+01 -1.675
 4279 1  27.376288  2.377460e+01 -1.675
 4280 1  26.156175  2.450105e+01 -1.675
 4281 1  26.175239  2.592092e+01 -1.675
 4282 1  27.414416  2.661435e+01 -1.675
 4283 1  24.916997  2.380762e+01 -1.675
 4284 1  23.696884  2.453407e+01 -1.675
 4285 1  23.715948  2.595394e+01 -1.675
 4286 1  24.955126  2.664737e+01 -1.675
 4287 1  22.457707  2.384064e+01 -1.675
 4288 1  21.237594  2.456709e+01 -1.675
 4289 1  21.256658  2.598696e+01 -1.675
 4290 1  22.495835  2.668039e+01 -1.675
 4291 1  19.998416  2.387366e+01 -1.675
 4292 1  18.778303  2.460011e+01 -1.675
 4293 1  18.797368  2.601998e+01 -1.675
 4294 1  20.036545  2.671341e+01 -1.675
 4295 1  17.539126  2.390668e+01 -1.675
 4296 1  16.319013  2.463313e+01 -1.675
 4297 1  16.338077  2.605300e+01 -1.675
 4298 1  17.577254  2.674643e+01 -1.675
 4299 1  15.079835  2.393970e+01 -1.675
 4300 1  13.859722  2.466615e+01 -1.675
 4301 1  13.878787  2.608602e+01 -1.675
 4302 1  15.117964  2.677945e+01 -1.675
 4303 1  12.620545  2.397272e+01 -1.675
 4304 1  11.400432  2.469917e+01 -1.675
 4305 1  11.419496  2.611904e+01 -1.675
 4306 1  12.658673  2.681247e+01 -1.675
 4307 1  10.161254  2.400574e+01 -1.675
 4308 1   8.941141  2.473219e+01 -1.675
 4309 1   8.960206  2.615206e+01 -1.675
 4310 1  10.199383  2.684549e+01 -1.675
 4311 1   7.701964  2.403876e+01 -1.675
 4312 1   6.481851  2.476521e+01 -1.675
 4313 1   6.500915  2.618508e+01 -1.675
 4314 1   7.740093  2.687851e+01 -1.675
 4315 1   5.242674  2.407178e+01 -1.675
 4316 1   4.022560  2.479823e+01 -1.675
 4317 1   4.041625  2.621810e+01 -1.675
 4318 1   5.280802  2.691153e+01 -1.675
 4319 1   2.783383  2.410480e+01 -1.675
 4320 1   1.563270  2.483125e+01 -1.675
 4321 1   1.582334  2.625112e+01 -1.675
 4322 1   2.821512  2.694455e+01 -1.675
 4323 1   0.324093  2.413782e+01 -1.675
 4324 1  -0.896021  2.486427e+01 -1.675
 4325 1  -0.876956  2.628414e+01 -1.675
 4326 1   0.362221  2.697757e+01 -1.675
 4327 1  -2.135198  2.417084e+01 -1.675
 4328 1  -3.355311  2.489729e+01 -1.675
 4329 1  -3.336247  2.631716e+01 -1.675
 4330 1  -2.097069  2.701059e+01 -1.675
 4331 1  -4.594488  2.420386e+01 -1.675
 4332 1  -5.814602  2.493031e+01 -1.675
 4333 1  -5.795537  2.635018e+01 -1.675
 4334 1  -4.556360  2.704361e+01 -1.675
 4335 1  -7.053779  2.423689e+01 -1.675
 4336 1  -8.273892  2.496333e+01 -1.675
 4337 1  -8.254828  2.638320e+01 -1.675
 4338 1  -7.015650  2.707663e+01 -1.675
 4339 1  -9.513069  2.426991e+01 -1.675
 4340 1 -10.733182  2.499635e+01 -1.675
 4341 1 -10.714118  2.641622e+01 -1.675
 4342 1  -9.474941  2.710965e+01 -1.675
 4343 1 -11.972360  2.430293e+01 -1.675
 4344 1 -13.192473  2.502937e+01 -1.675
 4345 1 -13.173409  2.644924e+01 -1.675
 4346 1 -11.934231  2.714267e+01 -1.675
 4347 1 -14.431650  2.433595e+01 -1.675
 4348 1 -15.651763  2.506239e+01 -1.675
 4349 1 -15.632699  2.648226e+01 -1.675
 4350 1 -14.393522  2.717569e+01 -1.675
 4351 1 -16.890941  2.436897e+01 -1.675
 4352 1 -18.111054  2.509541e+01 -1.675
 4353 1 -18.091990  2.651528e+01 -1.675
 4354 1 -16.852812  2.720871e+01 -1.675
 4355 1 -19.350231  2.440199e+01 -1.675
 4356 1 -20.570344  2.512843e+01 -1.675
 4357 1 -20.551280  2.654830e+01 -1.675
 4358 1 -19.312103  2.724173e+01 -1.675
 4359 1 -21.809522  2.443501e+01 -1.675
 4360 1 -23.029635  2.516145e+01 -1.675
 4361 1 -23.010571  2.658133e+01 -1.675
 4362 1 -21.771393  2.727475e+01 -1.675
 4363 1 -24.268812  2.446803e+01 -1.675
 4364 1 -25.488925  2.519447e+01 -1.675
 4365 1 -25.469861  2.661435e+01 -1.675
 4366 1 -24.230684  2.730777e+01 -1.675
 4367 1 -26.728103  2.450105e+01 -1.675
 4368 1 -27.948216  2.522749e+01 -1.675
 4369 1 -27.929152  2.664737e+01 -1.675
 4370 1 -26.689974  2.734079e+01 -1.675
 4371 1 -29.187393  2.453407e+01 -1.675
 4372 1 -30.407506  2.526051e+01 -1.675
 4373 1 -30.388442  2.668039e+01 -1.675
 4374 1 -29.149265  2.737381e+01 -1.675
 4375 1 -31.646684  2.456709e+01 -1.675
 4376 1 -32.866797  2.529353e+01 -1.675
 4377 1 -32.847733  2.671341e+01 -1.675
 4378 1 -31.608555  2.740683e+01 -1.675
 4379 1 -34.105974  2.460011e+01 -1.675
 4380 1 -35.326087  2.532655e+01 -1.675
 4381 1 -35.307023  2.674643e+01 -1.675
 4382 1 -34.067846  2.743985e+01 -1.675
 4383 1 -36.565265  2.463313e+01 -1.675
 4384 1 -37.785378  2.535957e+01 -1.675
 4385 1 -37.766313  2.677945e+01 -1.675
 4386 1 -36.527136  2.747287e+01 -1.675
 4387 1 -39.024555  2.466615e+01 -1.675
 4388 1 -40.244668  2.539259e+01 -1.675
 4389 1 -40.225604  2.681247e+01 -1.675
 4390 1 -38.986427  2.750589e+01 -1.675
 4391 1 -41.483846  2.469917e+01 -1.675
 4392 1 -42.703959  2.542562e+01 -1.675
 4393 1 -42.684894  2.684549e+01 -1.675
 4394 1 -41.445717  2.753891e+01 -1.675
 4395 1 -43.943136  2.473219e+01 -1.675
 4396 1 -45.163249  2.545864e+01 -1.675
 4397 1 -45.144185  2.687851e+01 -1.675
 4398 1 -43.905008  2.757193e+01 -1.675
 4399 1 -46.402427  2.476521e+01 -1.675
 4400 1 -47.622540  2.549166e+01 -1.675
 4401 1 -47.603475  2.691153e+01 -1.675
 4402 1 -46.364298  2.760495e+01 -1.675
 4403 1 -48.861717  2.479823e+01 -1.675
 4404 1 -50.081830  2.552468e+01 -1.675
 4405 1 -50.062766  2.694455e+01 -1.675
 4406 1 -48.823589  2.763797e+01 -1.675
 4407 1 -51.321008  2.483125e+01 -1.675
 4408 1 -52.541121  2.555770e+01 -1.675
 4409 1 -52.522056  2.697757e+01 -1.675
 4410 1 -51.282879  2.767099e+01 -1.675
 4411 1 -53.780298  2.486427e+01 -1.675
 4412 1 -55.000411  2.559072e+01 -1.675
 4413 1 -54.981347  2.701059e+01 -1.675
 4414 1 -53.742169  2.770401e+01 -1.675
 4415 1 -56.239588  2.489729e+01 -1.675
 4416 1 -57.459702  2.562374e+01 -1.675
 4417 1 -57.440637  2.704361e+01 -1.675
 4418 1 -56.201460  2.773703e+01 -1.675
 4419 1 -58.698879  2.493031e+01 -1.675
 4420 1 -59.918992  2.565676e+01 -1.675
 4421 1 -59.899928  2.707663e+01 -1.675
 4422 1 -58.660750  2.777006e+01 -1.675
 4423 1 -61.158169  2.496333e+01 -1.675
 4424 1 -62.378283  2.568978e+01 -1.675
 4425 1 -62.359218  2.710965e+01 -1.675
 4426 1 -61.120041  2.780308e+01 -1.675
 4427 1 -63.617460  2.499635e+01 -1.675
 4428 1 -64.837573  2.572280e+01 -1.675
 4429 1 -64.818509  2.714267e+01 -1.675
 4430 1 -63.579331  2.783610e+01 -1.675
 4431 1 -66.076750  2.502937e+01 -1.675
 4432 1 -67.296864  2.575582e+01 -1.675
 4433 1 -67.277799  2.717569e+01 -1.675
 4434 1 -66.038622  2.786912e+01 -1.675
 4435 1 -68.536041  2.506239e+01 -1.675
 4436 1 -69.756154  2.578884e+01 -1.675
 4437 1 -69.737090  2.720871e+01 -1.675
 4438 1 -68.497912  2.790214e+01 -1.675
 4439 1 -70.995331  2.509541e+01 -1.675
 4440 1 -72.215444  2.582186e+01 -1.675
 4441 1 -72.196380  2.724173e+01 -1.675
 4442 1 -70.957203  2.793516e+01 -1.675
 4443 1 -73.454622  2.512843e+01 -1.675
 4444 1 -74.674735  2.585488e+01 -1.675
 4445 1 -74.655671  2.727475e+01 -1.675
 4446 1 -73.416493  2.796818e+01 -1.675
 4447 1 -75.913912  2.516145e+01 -1.675
 4448 1 -77.134025  2.588790e+01 -1.675
 4449 1 -77.114961  2.730777e+01 -1.675
 4450 1 -75.875784  2.800120e+01 -1.675
 4451 1 -78.373203  2.519447e+01 -1.675
 4452 1 -78.335074  2.803422e+01 -1.675
 4453 1  79.078581  2.734079e+01 -1.675
 4454 1  77.858468  2.806724e+01 -1.675
 4455 1  77.877532  2.948711e+01 -1.675
 4456 1  79.116709  3.018054e+01 -1.675
 4457 1  76.619290  2.737381e+01 -1.675
 4458 1  75.399177  2.810026e+01 -1.675
 4459 1  75.418241  2.952013e+01 -1.675
 4460 1  76.657419  3.021356e+01 -1.675
 4461 1  74.160000  2.740683e+01 -1.675
 4462 1  72.939887  2.813328e+01 -1.675
 4463 1  72.958951  2.955315e+01 -1.675
 4464 1  74.198128  3.024658e+01 -1.675
 4465 1  71.700709  2.743985e+01 -1.675
 4466 1  70.480596  2.816630e+01 -1.675
 4467 1  70.499660  2.958617e+01 -1.675
 4468 1  71.738838  3.027960e+01 -1.675
 4469 1  69.241419  2.747287e+01 -1.675
 4470 1  68.021306  2.819932e+01 -1.675
 4471 1  68.040370  2.961919e+01 -1.675
 4472 1  69.279547  3.031262e+01 -1.675
 4473 1  66.782128  2.750589e+01 -1.675
 4474 1  65.562015  2.823234e+01 -1.675
 4475 1  65.581079  2.965221e+01 -1.675
 4476 1  66.820257  3.034564e+01 -1.675
 4477 1  64.322838  2.753891e+01 -1.675
 4478 1  63.102725  2.826536e+01 -1.675
 4479 1  63.121789  2.968523e+01 -1.675
 4480 1  64.360966  3.037866e+01 -1.675
 4481 1  61.863547  2.757193e+01 -1.675
 4482 1  60.643434  2.829838e+01 -1.675
 4483 1  60.662498  2.971825e+01 -1.675
 4484 1  61.901676  3.041168e+01 -1.675
 4485 1  59.404257  2.760495e+01 -1.675
 4486 1  58.184144  2.833140e+01 -1.675
 4487 1  58.203208  2.975127e+01 -1.675
 4488 1  59.442385  3.044470e+01 -1.675
 4489 1  56.944966  2.763797e+01 -1.675
 4490 1  55.724853  2.836442e+01 -1.675
 4491 1  55.743918  2.978429e+01 -1.675
 4492 1  56.983095  3.047772e+01 -1.675
 4493 1  54.485676  2.767099e+01 -1.675
 4494 1  53.265563  2.839744e+01 -1.675
 4495 1  53.284627  2.981731e+01 -1.675
 4496 1  54.523804  3.051074e+01 -1.675
 4497 1  52.026385  2.770401e+01 -1.675
 4498 1  50.806272  2.843046e+01 -1.675
 4499 1  50.825337  2.985033e+01 -1.675
 4500 1  52.064514  3.054376e+01 -1.675
 4501 1  49.567095  2.773703e+01 -1.675
 4502 1  48.346982  2.846348e+01 -1.675
 4503 1  48.366046  2.988335e+01 -1.675
 4504 1  49.605223  3.057678e+01 -1.675
 4505 1  47.107804  2.777006e+01 -1.675
 4506 1  45.887691  2.849650e+01 -1.675
 4507 1  45.906756  2.991637e+01 -1.675
 4508 1  47.145933  3.060980e+01 -1.675
 4509 1  44.648514  2.780308e+01 -1.675
 4510 1  43.428401  2.852952e+01 -1.675
 4511 1  43.447465  2.994939e+01 -1.675
 4512 1  44.686643  3.064282e+01 -1.675
 4513 1  42.189223  2.783610e+01 -1.675
 4514 1  40.969110  2.856254e+01 -1.675
 4515 1  40.988175  2.998241e+01 -1.675
 4516 1  42.227352  3.067584e+01 -1.675
 4517 1  39.729933  2.786912e+01 -1.675
 4518 1  38.509820  2.859556e+01 -1.675
 4519 1  38.528884  3.001543e+01 -1.675
 4520 1  39.768062  3.070886e+01 -1.675
 4521 1  37.270643  2.790214e+01 -1.675
 4522 1  36.050529  2.862858e+01 -1.675
 4523 1  36.069594  3.004845e+01 -1.675
 4524 1  37.308771  3.074188e+01 -1.675
 4525 1  34.811352  2.793516e+01 -1.675
 4526 1  33.591239  2.866160e+01 -1.675
 4527 1  33.610303  3.008147e+01 -1.675
 4528 1  34.849481  3.077490e+01 -1.675
 4529 1  32.352062  2.796818e+01 -1.675
 4530 1  31.131948  2.869462e+01 -1.675
 4531 1  31.151013  3.011449e+01 -1.675
 4532 1  32.390190  3.080792e+01 -1.675
 4533 1  29.892771  2.800120e+01 -1.675
 4534 1  28.672658  2.872764e+01 -1.675
 4535 1  28.691722  3.014752e+01 -1.675
 4536 1  29.930900  3.084094e+01 -1.675
 4537 1  27.433481  2.803422e+01 -1.675
 4538 1  26.213368  2.876066e+01 -1.675
 4539 1  26.232432  3.018054e+01 -1.675
 4540 1  27.471609  3.087396e+01 -1.675
 4541 1  24.974190  2.806724e+01 -1.675
 4542 1  23.754077  2.879368e+01 -1.675
 4543 1  23.773141  3.021356e+01 -1.675
 4544 1  25.012319  3.090698e+01 -1.675
 4545 1  22.514900  2.810026e+01 -1.675
 4546 1  21.294787  2.882670e+01 -1.675
 4547 1  21.313851  3.024658e+01 -1.675
 4548 1  22.553028  3.094000e+01 -1.675
 4549 1  20.055609  2.813328e+01 -1.675
 4550 1  18.835496  2.885972e+01 -1.675
 4551 1  18.854560  3.027960e+01 -1.675
 4552 1  20.093738  3.097302e+01 -1.675
 4553 1  17.596319  2.816630e+01 -1.675
 4554 1  16.376206  2.889274e+01 -1.675
 4555 1  16.395270  3.031262e+01 -1.675
 4556 1  17.634447  3.100604e+01 -1.675
 4557 1  15.137028  2.819932e+01 -1.675
 4558 1  13.916915  2.892576e+01 -1.675
 4559 1  13.935979  3.034564e+01 -1.675
 4560 1  15.175157  3.103906e+01 -1.675
 4561 1  12.677738  2.823234e+01 -1.675
 4562 1  11.457625  2.895879e+01 -1.675
 4563 1  11.476689  3.037866e+01 -1.675
 4564 1  12.715866  3.107208e+01 -1.675
 4565 1  10.218447  2.826536e+01 -1.675
 4566 1   8.998334  2.899181e+01 -1.675
 4567 1   9.017398  3.041168e+01 -1.675
 4568 1  10.256576  3.110510e+01 -1.675
 4569 1   7.759157  2.829838e+01 -1.675
 4570 1   6.539044  2.902483e+01 -1.675
 4571 1   6.558108  3.044470e+01 -1.675
 4572 1   7.797285  3.113812e+01 -1.675
 4573 1   5.299866  2.833140e+01 -1.675
 4574 1   4.079753  2.905785e+01 -1.675
 4575 1   4.098817  3.047772e+01 -1.675
 4576 1   5.337995  3.117114e+01 -1.675
 4577 1   2.840576  2.836442e+01 -1.675
 4578 1   1.620463  2.909087e+01 -1.675
 4579 1   1.639527  3.051074e+01 -1.675
 4580 1   2.878704  3.120416e+01 -1.675
 4581 1   0.381285  2.839744e+01 -1.675
 4582 1  -0.838828  2.912389e+01 -1.675
 4583 1  -0.819763  3.054376e+01 -1.675
 4584 1   0.419414  3.123718e+01 -1.675
 4585 1  -2.078005  2.843046e+01 -1.675
 4586 1  -3.298118  2.915691e+01 -1.675
 4587 1  -3.279054  3.057678e+01 -1.675
 4588 1  -2.039877  3.127020e+01 -1.675
 4589 1  -4.537296  2.846348e+01 -1.675
 4590 1  -5.757409  2.918993e+01 -1.675
 4591 1  -5.738344  3.060980e+01 -1.675
 4592 1  -4.499167  3.130323e+01 -1.675
 4593 1  -6.996586  2.849650e+01 -1.675
 4594 1  -8.216699  2.922295e+01 -1.675
 4595 1  -8.197635  3.064282e+01 -1.675
 4596 1  -6.958458  3.133625e+01 -1.675
 4597 1  -9.455877  2.852952e+01 -1.675
 4598 1 -10.675990  2.925597e+01 -1.675
 4599 1 -10.656925  3.067584e+01 -1.675
 4600 1  -9.417748  3.136927e+01 -1.675
 4601 1 -11.915167  2.856254e+01 -1.675
 4602 1 -13.135280  2.928899e+01 -1.675
 4603 1 -13.116216  3.070886e+01 -1.675
 4604 1 -11.877039  3.140229e+01 -1.675
 4605 1 -14.374458  2.859556e+01 -1.675
 4606 1 -15.594571  2.932201e+01 -1.675
 4607 1 -15.575506  3.074188e+01 -1.675
 4608 1 -14.336329  3.143531e+01 -1.675
 4609 1 -16.833748  2.862858e+01 -1.675
 4610 1 -18.053861  2.935503e+01 -1.675
 4611 1 -18.034797  3.077490e+01 -1.675
 4612 1 -16.795619  3.146833e+01 -1.675
 4613 1 -19.293038  2.866160e+01 -1.675
 4614 1 -20.513152  2.938805e+01 -1.675
 4615 1 -20.494087  3.080792e+01 -1.675
 4616 1 -19.254910  3.150135e+01 -1.675
 4617 1 -21.752329  2.869462e+01 -1.675
 4618 1 -22.972442  2.942107e+01 -1.675
 4619 1 -22.953378  3.084094e+01 -1.675
 4620 1 -21.714200  3.153437e+01 -1.675
 4621 1 -24.211619  2.872764e+01 -1.675
 4622 1 -25.431733  2.945409e+01 -1.675
 4623 1 -25.412668  3.087396e+01 -1.675
 4624 1 -24.173491  3.156739e+01 -1.675
 4625 1 -26.670910  2.876066e+01 -1.675
 4626 1 -27.891023  2.948711e+01 -1.675
 4627 1 -27.871959  3.090698e+01 -1.675
 4628 1 -26.632781  3.160041e+01 -1.675
 4629 1 -29.130200  2.879368e+01 -1.675
 4630 1 -30.350314  2.952013e+01 -1.675
 4631 1 -30.331249  3.094000e+01 -1.675
 4632 1 -29.092072  3.163343e+01 -1.675
 4633 1 -31.589491  2.882670e+01 -1.675
 4634 1 -32.809604  2.955315e+01 -1.675
 4635 1 -32.790540  3.097302e+01 -1.675
 4636 1 -31.551362  3.166645e+01 -1.675
 4637 1 -34.048781  2.885972e+01 -1.675
 4638 1 -35.268894  2.958617e+01 -1.675
 4639 1 -35.249830  3.100604e+01 -1.675
 4640 1 -34.010653  3.169947e+01 -1.675
 4641 1 -36.508072  2.889274e+01 -1.675
 4642 1 -37.728185  2.961919e+01 -1.675
 4643 1 -37.709121  3.103906e+01 -1.675
 4644 1 -36.469943  3.173249e+01 -1.675
 4645 1 -38.967362  2.892576e+01 -1.675
 4646 1 -40.187475  2.965221e+01 -1.675
 4647 1 -40.168411  3.107208e+01 -1.675
 4648 1 -38.929234  3.176551e+01 -1.675
 4649 1 -41.426653  2.895879e+01 -1.675
 4650 1 -42.646766  2.968523e+01 -1.675
 4651 1 -42.627702  3.110510e+01 -1.675
 4652 1 -41.388524  3.179853e+01 -1.675
 4653 1 -43.885943  2.899181e+01 -1.675
 4654 1 -45.106056  2.971825e+01 -1.675
 4655 1 -45.086992  3.113812e+01 -1.675
 4656 1 -43.847815  3.183155e+01 -1.675
 4657 1 -46.345234  2.902483e+01 -1.675
 4658 1 -47.565347  2.975127e+01 -1.675
 4659 1 -47.546283  3.117114e+01 -1.675
 4660 1 -46.307105  3.186457e+01 -1.675
 4661 1 -48.804524  2.905785e+01 -1.675
 4662 1 -50.024637  2.978429e+01 -1.675
 4663 1 -50.005573  3.120416e+01 -1.675
 4664 1 -48.766396  3.189759e+01 -1.675
 4665 1 -51.263815  2.909087e+01 -1.675
 4666 1 -52.483928  2.981731e+01 -1.675
 4667 1 -52.464864  3.123718e+01 -1.675
 4668 1 -51.225686  3.193061e+01 -1.675
 4669 1 -53.723105  2.912389e+01 -1.675
 4670 1 -54.943218  2.985033e+01 -1.675
 4671 1 -54.924154  3.127020e+01 -1.675
 4672 1 -53.684977  3.196363e+01 -1.675
 4673 1 -56.182396  2.915691e+01 -1.675
 4674 1 -57.402509  2.988335e+01 -1.675
 4675 1 -57.383445  3.130323e+01 -1.675
 4676 1 -56.144267  3.199665e+01 -1.675
 4677 1 -58.641686  2.918993e+01 -1.675
 4678 1 -59.861799  2.991637e+01 -1.675
 4679 1 -59.842735  3.133625e+01 -1.675
 4680 1 -58.603558  3.202967e+01 -1.675
 4681 1 -61.100977  2.922295e+01 -1.675
 4682 1 -62.321090  2.994939e+01 -1.675
 4683 1 -62.302025  3.136927e+01 -1.675
 4684 1 -61.062848  3.206269e+01 -1.675
 4685 1 -63.560267  2.925597e+01 -1.675
 4686 1 -64.780380  2.998241e+01 -1.675
 4687 1 -64.761316  3.140229e+01 -1.675
 4688 1 -63.522139  3.209571e+01 -1.675
 4689 1 -66.019558  2.928899e+01 -1.675
 4690 1 -67.239671  3.001543e+01 -1.675
 4691 1 -67.220606  3.143531e+01 -1.675
 4692 1 -65.981429  3.212873e+01 -1.675
 4693 1 -68.478848  2.932201e+01 -1.675
 4694 1 -69.698961  3.004845e+01 -1.675
 4695 1 -69.679897  3.146833e+01 -1.675
 4696 1 -68.440720  3.216175e+01 -1.675
 4697 1 -70.938139  2.935503e+01 -1.675
 4698 1 -72.158252  3.008147e+01 -1.675
 4699 1 -72.139187  3.150135e+01 -1.675
 4700 1 -70.900010  3.219477e+01 -1.675
 4701 1 -73.397429  2.938805e+01 -1.675
 4702 1 -74.617542  3.011449e+01 -1.675
 4703 1 -74.598478  3.153437e+01 -1.675
 4704 1 -73.359300  3.222779e+01 -1.675
 4705 1 -75.856720  2.942107e+01 -1.675
 4706 1 -77.076833  3.014752e+01 -1.675
 4707 1 -77.057768  3.156739e+01 -1.675
 4708 1 -75.818591  3.226081e+01 -1.675
 4709 1 -78.316010  2.945409e+01 -1.675
 4710 1 -78.277881  3.229383e+01 -1.675
 4711 1  79.135773  3.160041e+01 -1.675
 4712 1  77.915660  3.232685e+01 -1.675
 4713 1  77.934725  3.374673e+01 -1.675
 4714 1  79.173902  3.444015e+01 -1.675
 4715 1  76.676483  3.163343e+01 -1.675
 4716 1  75.456370  3.235987e+01 -1.675
 4717 1  75.475434  3.377975e+01 -1.675
 4718 1  76.714612  3.447317e+01 -1.675
 4719 1  74.217193  3.166645e+01 -1.675
 4720 1  72.997079  3.239289e+01 -1.675
 4721 1  73.016144  3.381277e+01 -1.675
 4722 1  74.255321  3.450619e+01 -1.675
 4723 1  71.757902  3.169947e+01 -1.675
 4724 1  70.537789  3.242591e+01 -1.675
 4725 1  70.556853  3.384579e+01 -1.675
 4726 1  71.796031  3.453921e+01 -1.675
 4727 1  69.298612  3.173249e+01 -1.675
 4728 1  68.078498  3.245893e+01 -1.675
 4729 1  68.097563  3.387881e+01 -1.675
 4730 1  69.336740  3.457223e+01 -1.675
 4731 1  66.839321  3.176551e+01 -1.675
 4732 1  65.619208  3.249196e+01 -1.675
 4733 1  65.638272  3.391183e+01 -1.675
 4734 1  66.877450  3.460525e+01 -1.675
 4735 1  64.380031  3.179853e+01 -1.675
 4736 1  63.159918  3.252498e+01 -1.675
 4737 1  63.178982  3.394485e+01 -1.675
 4738 1  64.418159  3.463827e+01 -1.675
 4739 1  61.920740  3.183155e+01 -1.675
 4740 1  60.700627  3.255800e+01 -1.675
 4741 1  60.719691  3.397787e+01 -1.675
 4742 1  61.958869  3.467129e+01 -1.675
 4743 1  59.461450  3.186457e+01 -1.675
 4744 1  58.241337  3.259102e+01 -1.675
 4745 1  58.260401  3.401089e+01 -1.675
 4746 1  59.499578  3.470431e+01 -1.675
 4747 1  57.002159  3.189759e+01 -1.675
 4748 1  55.782046  3.262404e+01 -1.675
 4749 1  55.801110  3.404391e+01 -1.675
 4750 1  57.040288  3.473733e+01 -1.675
 4751 1  54.542869  3.193061e+01 -1.675
 4752 1  53.322756  3.265706e+01 -1.675
 4753 1  53.341820  3.407693e+01 -1.675
 4754 1  54.580997  3.477035e+01 -1.675
 4755 1  52.083578  3.196363e+01 -1.675
 4756 1  50.863465  3.269008e+01 -1.675
 4757 1  50.882529  3.410995e+01 -1.675
 4758 1  52.121707  3.480337e+01 -1.675
 4759 1  49.624288  3.199665e+01 -1.675
 4760 1  48.404175  3.272310e+01 -1.675
 4761 1  48.423239  3.414297e+01 -1.675
 4762 1  49.662416  3.483639e+01 -1.675
 4763 1  47.164997  3.202967e+01 -1.675
 4764 1  45.944884  3.275612e+01 -1.675
 4765 1  45.963948  3.417599e+01 -1.675
 4766 1  47.203126  3.486942e+01 -1.675
 4767 1  44.705707  3.206269e+01 -1.675
 4768 1  43.485594  3.278914e+01 -1.675
 4769 1  43.504658  3.420901e+01 -1.675
 4770 1  44.743835  3.490244e+01 -1.675
 4771 1  42.246416  3.209571e+01 -1.675
 4772 1  41.026303  3.282216e+01 -1.675
 4773 1  41.045367  3.424203e+01 -1.675
 4774 1  42.284545  3.493546e+01 -1.675
 4775 1  39.787126  3.212873e+01 -1.675
 4776 1  38.567013  3.285518e+01 -1.675
 4777 1  38.586077  3.427505e+01 -1.675
 4778 1  39.825254  3.496848e+01 -1.675
 4779 1  37.327835  3.216175e+01 -1.675
 4780 1  36.107722  3.288820e+01 -1.675
 4781 1  36.126786  3.430807e+01 -1.675
 4782 1  37.365964  3.500150e+01 -1.675
 4783 1  34.868545  3.219477e+01 -1.675
 4784 1  33.648432  3.292122e+01 -1.675
 4785 1  33.667496  3.434109e+01 -1.675
 4786 1  34.906673  3.503452e+01 -1.675
 4787 1  32.409254  3.222779e+01 -1.675
 4788 1  31.189141  3.295424e+01 -1.675
 4789 1  31.208206  3.437411e+01 -1.675
 4790 1  32.447383  3.506754e+01 -1.675
 4791 1  29.949964  3.226081e+01 -1.675
 4792 1  28.729851  3.298726e+01 -1.675
 4793 1  28.748915  3.440713e+01 -1.675
 4794 1  29.988092  3.510056e+01 -1.675
 4795 1  27.490673  3.229383e+01 -1.675
 4796 1  26.270560  3.302028e+01 -1.675
 4797 1  26.289625  3.444015e+01 -1.675
 4798 1  27.528802  3.513358e+01 -1.675
 4799 1  25.031383  3.232685e+01 -1.675
 4800 1  23.811270  3.305330e+01 -1.675
 4801 1  23.830334  3.447317e+01 -1.675
 4802 1  25.069511  3.516660e+01 -1.675
 4803 1  22.572092  3.235987e+01 -1.675
 4804 1  21.351979  3.308632e+01 -1.675
 4805 1  21.371044  3.450619e+01 -1.675
 4806 1  22.610221  3.519962e+01 -1.675
 4807 1  20.112802  3.239289e+01 -1.675
 4808 1  18.892689  3.311934e+01 -1.675
 4809 1  18.911753  3.453921e+01 -1.675
 4810 1  20.150931  3.523264e+01 -1.675
 4811 1  17.653512  3.242591e+01 -1.675
 4812 1  16.433398  3.315236e+01 -1.675
 4813 1  16.452463  3.457223e+01 -1.675
 4814 1  17.691640  3.526566e+01 -1.675
 4815 1  15.194221  3.245893e+01 -1.675
 4816 1  13.974108  3.318538e+01 -1.675
 4817 1  13.993172  3.460525e+01 -1.675
 4818 1  15.232350  3.529868e+01 -1.675
 4819 1  12.734931  3.249196e+01 -1.675
 4820 1  11.514817  3.321840e+01 -1.675
 4821 1  11.533882  3.463827e+01 -1.675
 4822 1  12.773059  3.533170e+01 -1.675
 4823 1  10.275640  3.252498e+01 -1.675
 4824 1   9.055527  3.325142e+01 -1.675
 4825 1   9.074591  3.467129e+01 -1.675
 4826 1  10.313769  3.536472e+01 -1.675
 4827 1   7.816350  3.255800e+01 -1.675
 4828 1   6.596236  3.328444e+01 -1.675
 4829 1   6.615301  3.470431e+01 -1.675
 4830 1   7.854478  3.539774e+01 -1.675
 4831 1   5.357059  3.259102e+01 -1.675
 4832 1   4.136946  3.331746e+01 -1.675
 4833 1   4.156010  3.473733e+01 -1.675
 4834 1   5.395188  3.543076e+01 -1.675
 4835 1   2.897769  3.262404e+01 -1.675
 4836 1   1.677656  3.335048e+01 -1.675
 4837 1   1.696720  3.477035e+01 -1.675
 4838 1   2.935897  3.546378e+01 -1.675
 4839 1   0.438478  3.265706e+01 -1.675
 4840 1  -0.781635  3.338350e+01 -1.675
 4841 1  -0.762571  3.480337e+01 -1.675
 4842 1   0.476607  3.549680e+01 -1.675
 4843 1  -2.020812  3.269008e+01 -1.675
 4844 1  -3.240925  3.341652e+01 -1.675
 4845 1  -3.221861  3.483639e+01 -1.675
 4846 1  -1.982684  3.552982e+01 -1.675
 4847 1  -4.480103  3.272310e+01 -1.675
 4848 1  -5.700216  3.344954e+01 -1.675
 4849 1  -5.681152  3.486942e+01 -1.675
 4850 1  -4.441974  3.556284e+01 -1.675
 4851 1  -6.939393  3.275612e+01 -1.675
 4852 1  -8.159506  3.348256e+01 -1.675
 4853 1  -8.140442  3.490244e+01 -1.675
 4854 1  -6.901265  3.559586e+01 -1.675
 4855 1  -9.398684  3.278914e+01 -1.675
 4856 1 -10.618797  3.351558e+01 -1.675
 4857 1 -10.599733  3.493546e+01 -1.675
 4858 1  -9.360555  3.562888e+01 -1.675
 4859 1 -11.857974  3.282216e+01 -1.675
 4860 1 -13.078087  3.354860e+01 -1.675
 4861 1 -13.059023  3.496848e+01 -1.675
 4862 1 -11.819846  3.566190e+01 -1.675
 4863 1 -14.317265  3.285518e+01 -1.675
 4864 1 -15.537378  3.358162e+01 -1.675
 4865 1 -15.518314  3.500150e+01 -1.675
 4866 1 -14.279136  3.569492e+01 -1.675
 4867 1 -16.776555  3.288820e+01 -1.675
 4868 1 -17.996668  3.361464e+01 -1.675
 4869 1 -17.977604  3.503452e+01 -1.675
 4870 1 -16.738427  3.572794e+01 -1.675
 4871 1 -19.235846  3.292122e+01 -1.675
 4872 1 -20.455959  3.364766e+01 -1.675
 4873 1 -20.436895  3.506754e+01 -1.675
 4874 1 -19.197717  3.576096e+01 -1.675
 4875 1 -21.695136  3.295424e+01 -1.675
 4876 1 -22.915249  3.368069e+01 -1.675
 4877 1 -22.896185  3.510056e+01 -1.675
 4878 1 -21.657008  3.579398e+01 -1.675
 4879 1 -24.154427  3.298726e+01 -1.675
 4880 1 -25.374540  3.371371e+01 -1.675
 4881 1 -25.355475  3.513358e+01 -1.675
 4882 1 -24.116298  3.582700e+01 -1.675
 4883 1 -26.613717  3.302028e+01 -1.675
 4884 1 -27.833830  3.374673e+01 -1.675
 4885 1 -27.814766  3.516660e+01 -1.675
 4886 1 -26.575589  3.586002e+01 -1.675
 4887 1 -29.073008  3.305330e+01 -1.675
 4888 1 -30.293121  3.377975e+01 -1.675
 4889 1 -30.274056  3.519962e+01 -1.675
 4890 1 -29.034879  3.589304e+01 -1.675
 4891 1 -31.532298  3.308632e+01 -1.675
 4892 1 -32.752411  3.381277e+01 -1.675
 4893 1 -32.733347  3.523264e+01 -1.675
 4894 1 -31.494170  3.592606e+01 -1.675
 4895 1 -33.991589  3.311934e+01 -1.675
 4896 1 -35.211702  3.384579e+01 -1.675
 4897 1 -35.192637  3.526566e+01 -1.675
 4898 1 -33.953460  3.595908e+01 -1.675
 4899 1 -36.450879  3.315236e+01 -1.675
 4900 1 -37.670992  3.387881e+01 -1.675
 4901 1 -37.651928  3.529868e+01 -1.675
 4902 1 -36.412751  3.599210e+01 -1.675
 4903 1 -38.910170  3.318538e+01 -1.675
 4904 1 -40.130283  3.391183e+01 -1.675
 4905 1 -40.111218  3.533170e+01 -1.675
 4906 1 -38.872041  3.602512e+01 -1.675
 4907 1 -41.369460  3.321840e+01 -1.675
 4908 1 -42.589573  3.394485e+01 -1.675
 4909 1 -42.570509  3.536472e+01 -1.675
 4910 1 -41.331331  3.605815e+01 -1.675
 4911 1 -43.828750  3.325142e+01 -1.675
 4912 1 -45.048864  3.397787e+01 -1.675
 4913 1 -45.029799  3.539774e+01 -1.675
 4914 1 -43.790622  3.609117e+01 -1.675
 4915 1 -46.288041  3.328444e+01 -1.675
 4916 1 -47.508154  3.401089e+01 -1.675
 4917 1 -47.489090  3.543076e+01 -1.675
 4918 1 -46.249912  3.612419e+01 -1.675
 4919 1 -48.747331  3.331746e+01 -1.675
 4920 1 -49.967445  3.404391e+01 -1.675
 4921 1 -49.948380  3.546378e+01 -1.675
 4922 1 -48.709203  3.615721e+01 -1.675
 4923 1 -51.206622  3.335048e+01 -1.675
 4924 1 -52.426735  3.407693e+01 -1.675
 4925 1 -52.407671  3.549680e+01 -1.675
 4926 1 -51.168493  3.619023e+01 -1.675
 4927 1 -53.665912  3.338350e+01 -1.675
 4928 1 -54.886026  3.410995e+01 -1.675
 4929 1 -54.866961  3.552982e+01 -1.675
 4930 1 -53.627784  3.622325e+01 -1.675
 4931 1 -56.125203  3.341652e+01 -1.675
 4932 1 -57.345316  3.414297e+01 -1.675
 4933 1 -57.326252  3.556284e+01 -1.675
 4934 1 -56.087074  3.625627e+01 -1.675
 4935 1 -58.584493  3.344954e+01 -1.675
 4936 1 -59.804606  3.417599e+01 -1.675
 4937 1 -59.785542  3.559586e+01 -1.675
 4938 1 -58.546365  3.628929e+01 -1.675
 4939 1 -61.043784  3.348256e+01 -1.675
 4940 1 -62.263897  3.420901e+01 -1.675
 4941 1 -62.244833  3.562888e+01 -1.675
 4942 1 -61.005655  3.632231e+01 -1.675
 4943 1 -63.503074  3.351558e+01 -1.675
 4944 1 -64.723187  3.424203e+01 -1.675
 4945 1 -64.704123  3.566190e+01 -1.675
 4946 1 -63.464946  3.635533e+01 -1.675
 4947 1 -65.962365  3.354860e+01 -1.675
 4948 1 -67.182478  3.427505e+01 -1.675
 4949 1 -67.163414  3.569492e+01 -1.675
 4950 1 -65.924236  3.638835e+01 -1.675
 4951 1 -68.421655  3.358162e+01 -1.675
 4952 1 -69.641768  3.430807e+01 -1.675
 4953 1 -69.622704  3.572794e+01 -1.675
 4954 1 -68.383527  3.642137e+01 -1.675
 4955 1 -70.880946  3.361464e+01 -1.675
 4956 1 -72.101059  3.434109e+01 -1.675
 4957 1 -72.081995  3.576096e+01 -1.675
 4958 1 -70.842817  3.645439e+01 -1.675
 4959 1 -73.340236  3.364766e+01 -1.675
 4960 1 -74.560349  3.437411e+01 -1.675
 4961 1 -74.541285  3.579398e+01 -1.675
 4962 1 -73.302108  3.648741e+01 -1.675
 4963 1 -75.799527  3.368069e+01 -1.675
 4964 1 -77.019640  3.440713e+01 -1.675
 4965 1 -77.000576  3.582700e+01 -1.675
 4966 1 -75.761398  3.652043e+01 -1.675
 4967 1 -78.258817  3.371371e+01 -1.675
 4968 1 -78.220689  3.655345e+01 -1.675
 4969 1  79.192966  3.586002e+01 -1.675
 4970 1  77.972853  3.658647e+01 -1.675
 4971 1  77.991917  3.800634e+01 -1.675
 4972 1  79.231095  3.869977e+01 -1.675
 4973 1  76.733676  3.589304e+01 -1.675
 4974 1  75.513563  3.661949e+01 -1.675
 4975 1  75.532627  3.803936e+01 -1.675
 4976 1  76.771804  3.873279e+01 -1.675
 4977 1  74.274385  3.592606e+01 -1.675
 4978 1  73.054272  3.665251e+01 -1.675
 4979 1  73.073336  3.807238e+01 -1.675
 4980 1  74.312514  3.876581e+01 -1.675
 4981 1  71.815095  3.595908e+01 -1.675
 4982 1  70.594982  3.668553e+01 -1.675
 4983 1  70.614046  3.810540e+01 -1.675
 4984 1  71.853223  3.879883e+01 -1.675
 4985 1  69.355804  3.599210e+01 -1.675
 4986 1  68.135691  3.671855e+01 -1.675
 4987 1  68.154756  3.813842e+01 -1.675
 4988 1  69.393933  3.883185e+01 -1.675
 4989 1  66.896514  3.602512e+01 -1.675
 4990 1  65.676401  3.675157e+01 -1.675
 4991 1  65.695465  3.817144e+01 -1.675
 4992 1  66.934642  3.886487e+01 -1.675
 4993 1  64.437223  3.605815e+01 -1.675
 4994 1  63.217110  3.678459e+01 -1.675
 4995 1  63.236175  3.820446e+01 -1.675
 4996 1  64.475352  3.889789e+01 -1.675
 4997 1  61.977933  3.609117e+01 -1.675
 4998 1  60.757820  3.681761e+01 -1.675
 4999 1  60.776884  3.823748e+01 -1.675
 5000 1  62.016061  3.893091e+01 -1.675
 5001 1  59.518642  3.612419e+01 -1.675
 5002 1  58.298529  3.685063e+01 -1.675
 5003 1  58.317594  3.827050e+01 -1.675
 5004 1  59.556771  3.896393e+01 -1.675
 5005 1  57.059352  3.615721e+01 -1.675
 5006 1  55.839239  3.688365e+01 -1.675
 5007 1  55.858303  3.830352e+01 -1.675
 5008 1  57.097481  3.899695e+01 -1.675
 5009 1  54.600061  3.619023e+01 -1.675
 5010 1  53.379948  3.691667e+01 -1.675
 5011 1  53.399013  3.833654e+01 -1.675
 5012 1  54.638190  3.902997e+01 -1.675
 5013 1  52.140771  3.622325e+01 -1.675
 5014 1  50.920658  3.694969e+01 -1.675
 5015 1  50.939722  3.836956e+01 -1.675
 5016 1  52.178900  3.906299e+01 -1.675
 5017 1  49.681481  3.625627e+01 -1.675
 5018 1  48.461367  3.698271e+01 -1.675
 5019 1  48.480432  3.840259e+01 -1.675
 5020 1  49.719609  3.909601e+01 -1.675
 5021 1  47.222190  3.628929e+01 -1.675
 5022 1  46.002077  3.701573e+01 -1.675
 5023 1  46.021141  3.843561e+01 -1.675
 5024 1  47.260319  3.912903e+01 -1.675
 5025 1  44.762900  3.632231e+01 -1.675
 5026 1  43.542786  3.704875e+01 -1.675
 5027 1  43.561851  3.846863e+01 -1.675
 5028 1  44.801028  3.916205e+01 -1.675
 5029 1  42.303609  3.635533e+01 -1.675
 5030 1  41.083496  3.708177e+01 -1.675
 5031 1  41.102560  3.850165e+01 -1.675
 5032 1  42.341738  3.919507e+01 -1.675
 5033 1  39.844319  3.638835e+01 -1.675
 5034 1  38.624206  3.711479e+01 -1.675
 5035 1  38.643270  3.853467e+01 -1.675
 5036 1  39.882447  3.922809e+01 -1.675
 5037 1  37.385028  3.642137e+01 -1.675
 5038 1  36.164915  3.714781e+01 -1.675
 5039 1  36.183979  3.856769e+01 -1.675
 5040 1  37.423157  3.926111e+01 -1.675
 5041 1  34.925738  3.645439e+01 -1.675
 5042 1  33.705625  3.718083e+01 -1.675
 5043 1  33.724689  3.860071e+01 -1.675
 5044 1  34.963866  3.929413e+01 -1.675
 5045 1  32.466447  3.648741e+01 -1.675
 5046 1  31.246334  3.721386e+01 -1.675
 5047 1  31.265398  3.863373e+01 -1.675
 5048 1  32.504576  3.932715e+01 -1.675
 5049 1  30.007157  3.652043e+01 -1.675
 5050 1  28.787044  3.724688e+01 -1.675
 5051 1  28.806108  3.866675e+01 -1.675
 5052 1  30.045285  3.936017e+01 -1.675
 5053 1  27.547866  3.655345e+01 -1.675
 5054 1  26.327753  3.727990e+01 -1.675
 5055 1  26.346817  3.869977e+01 -1.675
 5056 1  27.585995  3.939319e+01 -1.675
 5057 1  25.088576  3.658647e+01 -1.675
 5058 1  23.868463  3.731292e+01 -1.675
 5059 1  23.887527  3.873279e+01 -1.675
 5060 1  25.126704  3.942621e+01 -1.675
 5061 1  22.629285  3.661949e+01 -1.675
 5062 1  21.409172  3.734594e+01 -1.675
 5063 1  21.428236  3.876581e+01 -1.675
 5064 1  22.667414  3.945923e+01 -1.675
 5065 1  20.169995  3.665251e+01 -1.675
 5066 1  18.949882  3.737896e+01 -1.675
 5067 1  18.968946  3.879883e+01 -1.675
 5068 1  20.208123  3.949225e+01 -1.675
 5069 1  17.710704  3.668553e+01 -1.675
 5070 1  16.490591  3.741198e+01 -1.675
 5071 1  16.509655  3.883185e+01 -1.675
 5072 1  17.748833  3.952527e+01 -1.675
 5073 1  15.251414  3.671855e+01 -1.675
 5074 1  14.031301  3.744500e+01 -1.675
 5075 1  14.050365  3.886487e+01 -1.675
 5076 1  15.289542  3.955829e+01 -1.675
 5077 1  12.792123  3.675157e+01 -1.675
 5078 1  11.572010  3.747802e+01 -1.675
 5079 1  11.591075  3.889789e+01 -1.675
 5080 1  12.830252  3.959132e+01 -1.675
 5081 1  10.332833  3.678459e+01 -1.675
 5082 1   9.112720  3.751104e+01 -1.675
 5083 1   9.131784  3.893091e+01 -1.675
 5084 1  10.370961  3.962434e+01 -1.675
 5085 1   7.873542  3.681761e+01 -1.675
 5086 1   6.653429  3.754406e+01 -1.675
 5087 1   6.672494  3.896393e+01 -1.675
 5088 1   7.911671  3.965736e+01 -1.675
 5089 1   5.414252  3.685063e+01 -1.675
 5090 1   4.194139  3.757708e+01 -1.675
 5091 1   4.213203  3.899695e+01 -1.675
 5092 1   5.452380  3.969038e+01 -1.675
 5093 1   2.954961  3.688365e+01 -1.675
 5094 1   1.734848  3.761010e+01 -1.675
 5095 1   1.753913  3.902997e+01 -1.675
 5096 1   2.993090  3.972340e+01 -1.675
 5097 1   0.495671  3.691667e+01 -1.675
 5098 1  -0.724442  3.764312e+01 -1.675
 5099 1  -0.705378  3.906299e+01 -1.675
 5100 1   0.533799  3.975642e+01 -1.675
 5101 1  -1.963620  3.694969e+01 -1.675
 5102 1  -3.183733  3.767614e+01 -1.675
 5103 1  -3.164668  3.909601e+01 -1.675
 5104 1  -1.925491  3.978944e+01 -1.675
 5105 1  -4.422910  3.698271e+01 -1.675
 5106 1  -5.643023  3.770916e+01 -1.675
 5107 1  -5.623959  3.912903e+01 -1.675
 5108 1  -4.384781  3.982246e+01 -1.675
 5109 1  -6.882200  3.701573e+01 -1.675
 5110 1  -8.102314  3.774218e+01 -1.675
 5111 1  -8.083249  3.916205e+01 -1.675
 5112 1  -6.844072  3.985548e+01 -1.675
 5113 1  -9.341491  3.704875e+01 -1.675
 5114 1 -10.561604  3.777520e+01 -1.675
 5115 1 -10.542540  3.919507e+01 -1.675
 5116 1  -9.303362  3.988850e+01 -1.675
 5117 1 -11.800781  3.708177e+01 -1.675
 5118 1 -13.020895  3.780822e+01 -1.675
 5119 1 -13.001830  3.922809e+01 -1.675
 5120 1 -11.762653  3.992152e+01 -1.675
 5121 1 -14.260072  3.711479e+01 -1.675
 5122 1 -15.480185  3.784124e+01 -1.675
 5123 1 -15.461121  3.926111e+01 -1.675
 5124 1 -14.221943  3.995454e+01 -1.675
 5125 1 -16.719362  3.714781e+01 -1.675
 5126 1 -17.939476  3.787426e+01 -1.675
 5127 1 -17.920411  3.929413e+01 -1.675
 5128 1 -16.681234  3.998756e+01 -1.675
 5129 1 -19.178653  3.718083e+01 -1.675
 5130 1 -20.398766  3.790728e+01 -1.675
 5131 1 -20.379702  3.932715e+01 -1.675
 5132 1 -19.140524  4.002058e+01 -1.675
 5133 1 -21.637943  3.721386e+01 -1.675
 5134 1 -22.858056  3.794030e+01 -1.675
 5135 1 -22.838992  3.936017e+01 -1.675
 5136 1 -21.599815  4.005360e+01 -1.675
 5137 1 -24.097234  3.724688e+01 -1.675
 5138 1 -25.317347  3.797332e+01 -1.675
 5139 1 -25.298283  3.939319e+01 -1.675
 5140 1 -24.059105  4.008662e+01 -1.675
 5141 1 -26.556524  3.727990e+01 -1.675
 5142 1 -27.776637  3.800634e+01 -1.675
 5143 1 -27.757573  3.942621e+01 -1.675
 5144 1 -26.518396  4.011964e+01 -1.675
 5145 1 -29.015815  3.731292e+01 -1.675
 5146 1 -30.235928  3.803936e+01 -1.675
 5147 1 -30.216864  3.945923e+01 -1.675
 5148 1 -28.977686  4.015266e+01 -1.675
 5149 1 -31.475105  3.734594e+01 -1.675
 5150 1 -32.695218  3.807238e+01 -1.675
 5151 1 -32.676154  3.949225e+01 -1.675
 5152 1 -31.436977  4.018568e+01 -1.675
 5153 1 -33.934396  3.737896e+01 -1.675
 5154 1 -35.154509  3.810540e+01 -1.675
 5155 1 -35.135445  3.952527e+01 -1.675
 5156 1 -33.896267  4.021870e+01 -1.675
 5157 1 -36.393686  3.741198e+01 -1.675
 5158 1 -37.613799  3.813842e+01 -1.675
 5159 1 -37.594735  3.955829e+01 -1.675
 5160 1 -36.355558  4.025172e+01 -1.675
 5161 1 -38.852977  3.744500e+01 -1.675
 5162 1 -40.073090  3.817144e+01 -1.675
 5163 1 -40.054026  3.959132e+01 -1.675
 5164 1 -38.814848  4.028474e+01 -1.675
 5165 1 -41.312267  3.747802e+01 -1.675
 5166 1 -42.532380  3.820446e+01 -1.675
 5167 1 -42.513316  3.962434e+01 -1.675
 5168 1 -41.274139  4.031776e+01 -1.675
 5169 1 -43.771558  3.751104e+01 -1.675
 5170 1 -44.991671  3.823748e+01 -1.675
 5171 1 -44.972607  3.965736e+01 -1.675
 5172 1 -43.733429  4.035078e+01 -1.675
 5173 1 -46.230848  3.754406e+01 -1.675
 5174 1 -47.450961  3.827050e+01 -1.675
 5175 1 -47.431897  3.969038e+01 -1.675
 5176 1 -46.192720  4.038380e+01 -1.675
 5177 1 -48.690139  3.757708e+01 -1.675
 5178 1 -49.910252  3.830352e+01 -1.675
 5179 1 -49.891187  3.972340e+01 -1.675
 5180 1 -48.652010  4.041682e+01 -1.675
 5181 1 -51.149429  3.761010e+01 -1.675
 5182 1 -52.369542  3.833654e+01 -1.675
 5183 1 -52.350478  3.975642e+01 -1.675
 5184 1 -51.111301  4.044984e+01 -1.675
 5185 1 -53.608720  3.764312e+01 -1.675
 5186 1 -54.828833  3.836956e+01 -1.675
 5187 1 -54.809768  3.978944e+01 -1.675
 5188 1 -53.570591  4.048286e+01 -1.675
 5189 1 -56.068010  3.767614e+01 -1.675
 5190 1 -57.288123  3.840259e+01 -1.675
 5191 1 -57.269059  3.982246e+01 -1.675
 5192 1 -56.029882  4.051588e+01 -1.675
 5193 1 -58.527301  3.770916e+01 -1.675
 5194 1 -59.747414  3.843561e+01 -1.675
 5195 1 -59.728349  3.985548e+01 -1.675
 5196 1 -58.489172  4.054890e+01 -1.675
 5197 1 -60.986591  3.774218e+01 -1.675
 5198 1 -62.206704  3.846863e+01 -1.675
 5199 1 -62.187640  3.988850e+01 -1.675
 5200 1 -60.948462  4.058192e+01 -1.675
 5201 1 -63.445882  3.777520e+01 -1.675
 5202 1 -64.665995  3.850165e+01 -1.675
 5203 1 -64.646930  3.992152e+01 -1.675
 5204 1 -63.407753  4.061494e+01 -1.675
 5205 1 -65.905172  3.780822e+01 -1.675
 5206 1 -67.125285  3.853467e+01 -1.675
 5207 1 -67.106221  3.995454e+01 -1.675
 5208 1 -65.867043  4.064796e+01 -1.675
 5209 1 -68.364462  3.784124e+01 -1.675
 5210 1 -69.584576  3.856769e+01 -1.675
 5211 1 -69.565511  3.998756e+01 -1.675
 5212 1 -68.326334  4.068098e+01 -1.675
 5213 1 -70.823753  3.787426e+01 -1.675
 5214 1 -72.043866  3.860071e+01 -1.675
 5215 1 -72.024802  4.002058e+01 -1.675
 5216 1 -70.785624  4.071400e+01 -1.675
 5217 1 -73.283043  3.790728e+01 -1.675
 5218 1 -74.503157  3.863373e+01 -1.675
 5219 1 -74.484092  4.005360e+01 -1.675
 5220 1 -73.244915  4.074702e+01 -1.675
 5221 1 -75.742334  3.794030e+01 -1.675
 5222 1 -76.962447  3.866675e+01 -1.675
 5223 1 -76.943383  4.008662e+01 -1.675
 5224 1 -75.704205  4.078005e+01 -1.675
 5225 1 -78.201624  3.797332e+01 -1.675
 5226 1 -78.163496  4.081307e+01 -1.675
 5227 1  79.250159  4.011964e+01 -1.675
 5228 1  78.030046  4.084609e+01 -1.675
 5229 1  78.049110  4.226596e+01 -1.675
 5230 1  79.288288  4.295938e+01 -1.675
 5231 1  76.790869  4.015266e+01 -1.675
 5232 1  75.570756  4.087911e+01 -1.675
 5233 1  75.589820  4.229898e+01 -1.675
 5234 1  76.828997  4.299240e+01 -1.675
 5235 1  74.331578  4.018568e+01 -1.675
 5236 1  73.111465  4.091213e+01 -1.675
 5237 1  73.130529  4.233200e+01 -1.675
 5238 1  74.369707  4.302542e+01 -1.675
 5239 1  71.872288  4.021870e+01 -1.675
 5240 1  70.652175  4.094515e+01 -1.675
 5241 1  70.671239  4.236502e+01 -1.675
 5242 1  71.910416  4.305844e+01 -1.675
 5243 1  69.412997  4.025172e+01 -1.675
 5244 1  68.192884  4.097817e+01 -1.675
 5245 1  68.211948  4.239804e+01 -1.675
 5246 1  69.451126  4.309146e+01 -1.675
 5247 1  66.953707  4.028474e+01 -1.675
 5248 1  65.733594  4.101119e+01 -1.675
 5249 1  65.752658  4.243106e+01 -1.675
 5250 1  66.991835  4.312449e+01 -1.675
 5251 1  64.494416  4.031776e+01 -1.675
 5252 1  63.274303  4.104421e+01 -1.675
 5253 1  63.293367  4.246408e+01 -1.675
 5254 1  64.532545  4.315751e+01 -1.675
 5255 1  62.035126  4.035078e+01 -1.675
 5256 1  60.815013  4.107723e+01 -1.675
 5257 1  60.834077  4.249710e+01 -1.675
 5258 1  62.073254  4.319053e+01 -1.675
 5259 1  59.575835  4.038380e+01 -1.675
 5260 1  58.355722  4.111025e+01 -1.675
 5261 1  58.374786  4.253012e+01 -1.675
 5262 1  59.613964  4.322355e+01 -1.675
 5263 1  57.116545  4.041682e+01 -1.675
 5264 1  55.896432  4.114327e+01 -1.675
 5265 1  55.915496  4.256314e+01 -1.675
 5266 1  57.154673  4.325657e+01 -1.675
 5267 1  54.657254  4.044984e+01 -1.675
 5268 1  53.437141  4.117629e+01 -1.675
 5269 1  53.456205  4.259616e+01 -1.675
 5270 1  54.695383  4.328959e+01 -1.675
 5271 1  52.197964  4.048286e+01 -1.675
 5272 1  50.977851  4.120931e+01 -1.675
 5273 1  50.996915  4.262918e+01 -1.675
 5274 1  52.236092  4.332261e+01 -1.675
 5275 1  49.738673  4.051588e+01 -1.675
 5276 1  48.518560  4.124233e+01 -1.675
 5277 1  48.537624  4.266220e+01 -1.675
 5278 1  49.776802  4.335563e+01 -1.675
 5279 1  47.279383  4.054890e+01 -1.675
 5280 1  46.059270  4.127535e+01 -1.675
 5281 1  46.078334  4.269522e+01 -1.675
 5282 1  47.317511  4.338865e+01 -1.675
 5283 1  44.820092  4.058192e+01 -1.675
 5284 1  43.599979  4.130837e+01 -1.675
 5285 1  43.619044  4.272824e+01 -1.675
 5286 1  44.858221  4.342167e+01 -1.675
 5287 1  42.360802  4.061494e+01 -1.675
 5288 1  41.140689  4.134139e+01 -1.675
 5289 1  41.159753  4.276126e+01 -1.675
 5290 1  42.398930  4.345469e+01 -1.675
 5291 1  39.901511  4.064796e+01 -1.675
 5292 1  38.681398  4.137441e+01 -1.675
 5293 1  38.700463  4.279428e+01 -1.675
 5294 1  39.939640  4.348771e+01 -1.675
 5295 1  37.442221  4.068098e+01 -1.675
 5296 1  36.222108  4.140743e+01 -1.675
 5297 1  36.241172  4.282730e+01 -1.675
 5298 1  37.480349  4.352073e+01 -1.675
 5299 1  34.982930  4.071400e+01 -1.675
 5300 1  33.762817  4.144045e+01 -1.675
 5301 1  33.781882  4.286032e+01 -1.675
 5302 1  35.021059  4.355375e+01 -1.675
 5303 1  32.523640  4.074702e+01 -1.675
 5304 1  31.303527  4.147347e+01 -1.675
 5305 1  31.322591  4.289334e+01 -1.675
 5306 1  32.561769  4.358677e+01 -1.675
 5307 1  30.064350  4.078005e+01 -1.675
 5308 1  28.844236  4.150649e+01 -1.675
 5309 1  28.863301  4.292636e+01 -1.675
 5310 1  30.102478  4.361979e+01 -1.675
 5311 1  27.605059  4.081307e+01 -1.675
 5312 1  26.384946  4.153951e+01 -1.675
 5313 1  26.404010  4.295938e+01 -1.675
 5314 1  27.643188  4.365281e+01 -1.675
 5315 1  25.145769  4.084609e+01 -1.675
 5316 1  23.925655  4.157253e+01 -1.675
 5317 1  23.944720  4.299240e+01 -1.675
 5318 1  25.183897  4.368583e+01 -1.675
 5319 1  22.686478  4.087911e+01 -1.675
 5320 1  21.466365  4.160555e+01 -1.675
 5321 1  21.485429  4.302542e+01 -1.675
 5322 1  22.724607  4.371885e+01 -1.675
 5323 1  20.227188  4.091213e+01 -1.675
 5324 1  19.007074  4.163857e+01 -1.675
 5325 1  19.026139  4.305844e+01 -1.675
 5326 1  20.265316  4.375187e+01 -1.675
 5327 1  17.767897  4.094515e+01 -1.675
 5328 1  16.547784  4.167159e+01 -1.675
 5329 1  16.566848  4.309146e+01 -1.675
 5330 1  17.806026  4.378489e+01 -1.675
 5331 1  15.308607  4.097817e+01 -1.675
 5332 1  14.088494  4.170461e+01 -1.675
 5333 1  14.107558  4.312449e+01 -1.675
 5334 1  15.346735  4.381791e+01 -1.675
 5335 1  12.849316  4.101119e+01 -1.675
 5336 1  11.629203  4.173763e+01 -1.675
 5337 1  11.648267  4.315751e+01 -1.675
 5338 1  12.887445  4.385093e+01 -1.675
 5339 1  10.390026  4.104421e+01 -1.675
 5340 1   9.169913  4.177065e+01 -1.675
 5341 1   9.188977  4.319053e+01 -1.675
 5342 1  10.428154  4.388395e+01 -1.675
 5343 1   7.930735  4.107723e+01 -1.675
 5344 1   6.710622  4.180367e+01 -1.675
 5345 1   6.729686  4.322355e+01 -1.675
 5346 1   7.968864  4.391697e+01 -1.675
 5347 1   5.471445  4.111025e+01 -1.675
 5348 1   4.251332  4.183669e+01 -1.675
 5349 1   4.270396  4.325657e+01 -1.675
 5350 1   5.509573  4.394999e+01 -1.675
 5351 1   3.012154  4.114327e+01 -1.675
 5352 1   1.792041  4.186971e+01 -1.675
 5353 1   1.811105  4.328959e+01 -1.675
 5354 1   3.050283  4.398301e+01 -1.675
 5355 1   0.552864  4.117629e+01 -1.675
 5356 1  -0.667249  4.190273e+01 -1.675
 5357 1  -0.648185  4.332261e+01 -1.675
 5358 1   0.590992  4.401603e+01 -1.675
 5359 1  -1.906427  4.120931e+01 -1.675
 5360 1  -3.126540  4.193576e+01 -1.675
 5361 1  -3.107476  4.335563e+01 -1.675
 5362 1  -1.868298  4.404905e+01 -1.675
 5363 1  -4.365717  4.124233e+01 -1.675
 5364 1  -5.585830  4.196878e+01 -1.675
 5365 1  -5.566766  4.338865e+01 -1.675
 5366 1  -4.327589  4.408207e+01 -1.675
 5367 1  -6.825008  4.127535e+01 -1.675
 5368 1  -8.045121  4.200180e+01 -1.675
 5369 1  -8.026057  4.342167e+01 -1.675
 5370 1  -6.786879  4.411509e+01 -1.675
 5371 1  -9.284298  4.130837e+01 -1.675
 5372 1 -10.504411  4.203482e+01 -1.675
 5373 1 -10.485347  4.345469e+01 -1.675
 5374 1  -9.246170  4.414811e+01 -1.675
 5375 1 -11.743589  4.134139e+01 -1.675
 5376 1 -12.963702  4.206784e+01 -1.675
 5377 1 -12.944637  4.348771e+01 -1.675
 5378 1 -11.705460  4.418113e+01 -1.675
 5379 1 -14.202879  4.137441e+01 -1.675
 5380 1 -15.422992  4.210086e+01 -1.675
 5381 1 -15.403928  4.352073e+01 -1.675
 5382 1 -14.164751  4.421415e+01 -1.675
 5383 1 -16.662170  4.140743e+01 -1.675
 5384 1 -17.882283  4.213388e+01 -1.675
 5385 1 -17.863218  4.355375e+01 -1.675
 5386 1 -16.624041  4.424717e+01 -1.675
 5387 1 -19.121460  4.144045e+01 -1.675
 5388 1 -20.341573  4.216690e+01 -1.675
 5389 1 -20.322509  4.358677e+01 -1.675
 5390 1 -19.083332  4.428019e+01 -1.675
 5391 1 -21.580751  4.147347e+01 -1.675
 5392 1 -22.800864  4.219992e+01 -1.675
 5393 1 -22.781799  4.361979e+01 -1.675
 5394 1 -21.542622  4.431322e+01 -1.675
 5395 1 -24.040041  4.150649e+01 -1.675
 5396 1 -25.260154  4.223294e+01 -1.675
 5397 1 -25.241090  4.365281e+01 -1.675
 5398 1 -24.001913  4.434624e+01 -1.675
 5399 1 -26.499332  4.153951e+01 -1.675
 5400 1 -27.719445  4.226596e+01 -1.675
 5401 1 -27.700380  4.368583e+01 -1.675
 5402 1 -26.461203  4.437926e+01 -1.675
 5403 1 -28.958622  4.157253e+01 -1.675
 5404 1 -30.178735  4.229898e+01 -1.675
 5405 1 -30.159671  4.371885e+01 -1.675
 5406 1 -28.920493  4.441228e+01 -1.675
 5407 1 -31.417912  4.160555e+01 -1.675
 5408 1 -32.638026  4.233200e+01 -1.675
 5409 1 -32.618961  4.375187e+01 -1.675
 5410 1 -31.379784  4.444530e+01 -1.675
 5411 1 -33.877203  4.163857e+01 -1.675
 5412 1 -35.097316  4.236502e+01 -1.675
 5413 1 -35.078252  4.378489e+01 -1.675
 5414 1 -33.839074  4.447832e+01 -1.675
 5415 1 -36.336493  4.167159e+01 -1.675
 5416 1 -37.556607  4.239804e+01 -1.675
 5417 1 -37.537542  4.381791e+01 -1.675
 5418 1 -36.298365  4.451134e+01 -1.675
 5419 1 -38.795784  4.170461e+01 -1.675
 5420 1 -40.015897  4.243106e+01 -1.675
 5421 1 -39.996833  4.385093e+01 -1.675
 5422 1 -38.757655  4.454436e+01 -1.675
 5423 1 -41.255074  4.173763e+01 -1.675
 5424 1 -42.475188  4.246408e+01 -1.675
 5425 1 -42.456123  4.388395e+01 -1.675
 5426 1 -41.216946  4.457738e+01 -1.675
 5427 1 -43.714365  4.177065e+01 -1.675
 5428 1 -44.934478  4.249710e+01 -1.675
 5429 1 -44.915414  4.391697e+01 -1.675
 5430 1 -43.676236  4.461040e+01 -1.675
 5431 1 -46.173655  4.180367e+01 -1.675
 5432 1 -47.393768  4.253012e+01 -1.675
 5433 1 -47.374704  4.394999e+01 -1.675
 5434 1 -46.135527  4.464342e+01 -1.675
 5435 1 -48.632946  4.183669e+01 -1.675
 5436 1 -49.853059  4.256314e+01 -1.675
 5437 1 -49.833995  4.398301e+01 -1.675
 5438 1 -48.594817  4.467644e+01 -1.675
 5439 1 -51.092236  4.186971e+01 -1.675
 5440 1 -52.312349  4.259616e+01 -1.675
 5441 1 -52.293285  4.401603e+01 -1.675
 5442 1 -51.054108  4.470946e+01 -1.675
 5443 1 -53.551527  4.190273e+01 -1.675
 5444 1 -54.771640  4.262918e+01 -1.675
 5445 1 -54.752576  4.404905e+01 -1.675
 5446 1 -53.513398  4.474248e+01 -1.675
 5447 1 -56.010817  4.193576e+01 -1.675
 5448 1 -57.230930  4.266220e+01 -1.675
 5449 1 -57.211866  4.408207e+01 -1.675
 5450 1 -55.972689  4.477550e+01 -1.675
 5451 1 -58.470108  4.196878e+01 -1.675
 5452 1 -59.690221  4.269522e+01 -1.675
 5453 1 -59.671157  4.411509e+01 -1.675
 5454 1 -58.431979  4.480852e+01 -1.675
 5455 1 -60.929398  4.200180e+01 -1.675
 5456 1 -62.149511  4.272824e+01 -1.675
 5457 1 -62.130447  4.414811e+01 -1.675
 5458 1 -60.891270  4.484154e+01 -1.675
 5459 1 -63.388689  4.203482e+01 -1.675
 5460 1 -64.608802  4.276126e+01 -1.675
 5461 1 -64.589738  4.418113e+01 -1.675
 5462 1 -63.350560  4.487456e+01 -1.675
 5463 1 -65.847979  4.206784e+01 -1.675
 5464 1 -67.068092  4.279428e+01 -1.675
 5465 1 -67.049028  4.421415e+01 -1.675
 5466 1 -65.809851  4.490758e+01 -1.675
 5467 1 -68.307270  4.210086e+01 -1.675
 5468 1 -69.527383  4.282730e+01 -1.675
 5469 1 -69.508319  4.424717e+01 -1.675
 5470 1 -68.269141  4.494060e+01 -1.675
 5471 1 -70.766560  4.213388e+01 -1.675
 5472 1 -71.986673  4.286032e+01 -1.675
 5473 1 -71.967609  4.428019e+01 -1.675
 5474 1 -70.728432  4.497362e+01 -1.675
 5475 1 -73.225851  4.216690e+01 -1.675
 5476 1 -74.445964  4.289334e+01 -1.675
 5477 1 -74.426899  4.431322e+01 -1.675
 5478 1 -73.187722  4.500664e+01 -1.675
 5479 1 -75.685141  4.219992e+01 -1.675
 5480 1 -76.905254  4.292636e+01 -1.675
 5481 1 -76.886190  4.434624e+01 -1.675
 5482 1 -75.647013  4.503966e+01 -1.675
 5483 1 -78.144432  4.223294e+01 -1.675
 5484 1 -78.106303  4.507268e+01 -1.675
 5485 1  79.307352  4.437926e+01 -1.675
 5486 1  78.087239  4.510570e+01 -1.675
 5487 1  76.848061  4.441228e+01 -1.675
 5488 1  75.627948  4.513872e+01 -1.675
 5489 1  74.388771  4.444530e+01 -1.675
 5490 1  73.168658  4.517174e+01 -1.675
 5491 1  71.929480  4.447832e+01 -1.675
 5492 1  70.709367  4.520476e+01 -1.675
 5493 1  69.470190  4.451134e+01 -1.675
 5494 1  68.250077  4.523778e+01 -1.675
 5495 1  67.010899  4.454436e+01 -1.675
 5496 1  65.790786  4.527080e+01 -1.675
 5497 1  64.551609  4.457738e+01 -1.675
 5498 1  63.331496  4.530382e+01 -1.675
 5499 1  62.092319  4.461040e+01 -1.675
 5500 1  60.872205  4.533684e+01 -1.675
 5501 1  59.633028  4.464342e+01 -1.675
 5502 1  58.412915  4.536986e+01 -1.675
 5503 1  57.173738  4.467644e+01 -1.675
 5504 1  55.953624  4.540288e+01 -1.675
 5505 1  54.714447  4.470946e+01 -1.675
 5506 1  53.494334  4.543590e+01 -1.675
 5507 1  52.255157  4.474248e+01 -1.675
 5508 1  51.035044  4.546892e+01 -1.675
 5509 1  49.795866  4.477550e+01 -1.675
 5510 1  48.575753  4.550195e+01 -1.675
 5511 1  47.336576  4.480852e+01 -1.675
 5512 1  46.116463  4.553497e+01 -1.675
 5513 1  44.877285  4.484154e+01 -1.675
 5514 1  43.657172  4.556799e+01 -1.675
 5515 1  42.417995  4.487456e+01 -1.675
 5516 1  41.197882  4.560101e+01 -1.675
 5517 1  39.958704  4.490758e+01 -1.675
 5518 1  38.738591  4.563403e+01 -1.675
 5519 1  37.499414  4.494060e+01 -1.675
 5520 1  36.279301  4.566705e+01 -1.675
 5521 1  35.040123  4.497362e+01 -1.675
 5522 1  33.820010  4.570007e+01 -1.675
 5523 1  32.580833  4.500664e+01 -1.675
 5524 1  31.360720  4.573309e+01 -1.675
 5525 1  30.121542  4.503966e+01 -1.675
 5526 1  28.901429  4.576611e+01 -1.675
 5527 1  27.662252  4.507268e+01 -1.675
 5528 1  26.442139  4.579913e+01 -1.675
 5529 1  25.202961  4.510570e+01 -1.675
 5530 1  22.743671  4.513872e+01 -1.675
 5531 1  20.284380  4.517174e+01 -1.675
 5532 1  17.825090  4.520476e+01 -1.675
 5533 1  15.365799  4.523778e+01 -1.675
 5534 1  12.906509  4.527080e+01 -1.675
 5535 1  10.447218  4.530382e+01 -1.675
 5536 1   7.987928  4.533684e+01 -1.675
 5537 1   5.528638  4.536986e+01 -1.675
 5538 1   3.069347  4.540288e+01 -1.675
 5539 1   0.610057  4.543590e+01 -1.675
 5540 1  -1.849234  4.546892e+01 -1.675
 5541 1  -4.308524  4.550195e+01 -1.675
 5542 1  -6.767815  4.553497e+01 -1.675
 5543 1  -9.227105  4.556799e+01 -1.675
 5544 1 -11.686396  4.560101e+01 -1.675
 5545 1 -14.145686  4.563403e+01 -1.675
 5546 1 -16.604977  4.566705e+01 -1.675
 5547 1 -19.064267  4.570007e+01 -1.675
 5548 1 -21.523558  4.573309e+01 -1.675
 5549 1 -23.982848  4.576611e+01 -1.675
 5550 1 -26.442139  4.579913e+01 -1.675
 5551 1  78.087239 -4.510570e+01  1.675
 5552 1  79.307352 -4.437926e+01  1.675
 5553 1  75.627948 -4.513872e+01  1.675
 5554 1  76.848061 -4.441228e+01  1.675
 5555 1  73.168658 -4.517174e+01  1.675
 5556 1  74.388771 -4.444530e+01  1.675
 5557 1  70.709367 -4.520476e+01  1.675
 5558 1  71.929480 -4.447832e+01  1.675
 5559 1  68.250077 -4.523778e+01  1.675
 5560 1  69.470190 -4.451134e+01  1.675
 5561 1  65.790786 -4.527080e+01  1.675
 5562 1  67.010899 -4.454436e+01  1.675
 5563 1  63.331496 -4.530382e+01  1.675
 5564 1  64.551609 -4.457738e+01  1.675
 5565 1  60.872205 -4.533684e+01  1.675
 5566 1  62.092319 -4.461040e+01  1.675
 5567 1  58.412915 -4.536986e+01  1.675
 5568 1  59.633028 -4.464342e+01  1.675
 5569 1  55.953624 -4.540288e+01  1.675
 5570 1  57.173738 -4.467644e+01  1.675
 5571 1  53.494334 -4.543590e+01  1.675
 5572 1  54.714447 -4.470946e+01  1.675
 5573 1  51.035044 -4.546892e+01  1.675
 5574 1  52.255157 -4.474248e+01  1.675
 5575 1  48.575753 -4.550195e+01  1.675
 5576 1  49.795866 -4.477550e+01  1.675
 5577 1  46.116463 -4.553497e+01  1.675
 5578 1  47.336576 -4.480852e+01  1.675
 5579 1  43.657172 -4.556799e+01  1.675
 5580 1  44.877285 -4.484154e+01  1.675
 5581 1  41.197882 -4.560101e+01  1.675
 5582 1  42.417995 -4.487456e+01  1.675
 5583 1  38.738591 -4.563403e+01  1.675
 5584 1  39.958704 -4.490758e+01  1.675
 5585 1  36.279301 -4.566705e+01  1.675
 5586 1  37.499414 -4.494060e+01  1.675
 5587 1  33.820010 -4.570007e+01  1.675
 5588 1  35.040123 -4.497362e+01  1.675
 5589 1  31.360720 -4.573309e+01  1.675
 5590 1  32.580833 -4.500664e+01  1.675
 5591 1  28.901429 -4.576611e+01  1.675
 5592 1  30.121542 -4.503966e+01  1.675
 5593 1  26.442139 -4.579913e+01  1.675
 5594 1  27.662252 -4.507268e+01  1.675
 5595 1  25.202961 -4.510570e+01  1.675
 5596 1  22.743671 -4.513872e+01  1.675
 5597 1  20.284380 -4.517174e+01  1.675
 5598 1  17.825090 -4.520476e+01  1.675
 5599 1  15.365799 -4.523778e+01  1.675
 5600 1  12.906509 -4.527080e+01  1.675
 5601 1  10.447218 -4.530382e+01  1.675
 5602 1   7.987928 -4.533684e+01  1.675
 5603 1   5.528638 -4.536986e+01  1.675
 5604 1   3.069347 -4.540288e+01  1.675
 5605 1   0.610057 -4.543590e+01  1.675
 5606 1  -1.849234 -4.546892e+01  1.675
 5607 1  -4.308524 -4.550195e+01  1.675
 5608 1  -6.767815 -4.553497e+01  1.675
 5609 1  -9.227105 -4.556799e+01  1.675
 5610 1 -11.686396 -4.560101e+01  1.675
 5611 1 -14.145686 -4.563403e+01  1.675
 5612 1 -16.604977 -4.566705e+01  1.675
 5613 1 -19.064267 -4.570007e+01  1.675
 5614 1 -21.523558 -4.573309e+01  1.675
 5615 1 -23.982848 -4.576611e+01  1.675
 5616 1 -26.442139 -4.579913e+01  1.675
 5617 1  79.288288 -4.295938e+01  1.675
 5618 1  78.049110 -4.226596e+01  1.675
 5619 1  78.030046 -4.084609e+01  1.675
 5620 1  79.250159 -4.011964e+01  1.675
 5621 1  76.828997 -4.299240e+01  1.675
 5622 1  75.589820 -4.229898e+01  1.675
 5623 1  75.570756 -4.087911e+01  1.675
 5624 1  76.790869 -4.015266e+01  1.675
 5625 1  74.369707 -4.302542e+01  1.675
 5626 1  73.130529 -4.233200e+01  1.675
 5627 1  73.111465 -4.091213e+01  1.675
 5628 1  74.331578 -4.018568e+01  1.675
 5629 1  71.910416 -4.305844e+01  1.675
 5630 1  70.671239 -4.236502e+01  1.675
 5631 1  70.652175 -4.094515e+01  1.675
 5632 1  71.872288 -4.021870e+01  1.675
 5633 1  69.451126 -4.309146e+01  1.675
 5634 1  68.211948 -4.239804e+01  1.675
 5635 1  68.192884 -4.097817e+01  1.675
 5636 1  69.412997 -4.025172e+01  1.675
 5637 1  66.991835 -4.312449e+01  1.675
 5638 1  65.752658 -4.243106e+01  1.675
 5639 1  65.733594 -4.101119e+01  1.675
 5640 1  66.953707 -4.028474e+01  1.675
 5641 1  64.532545 -4.315751e+01  1.675
 5642 1  63.293367 -4.246408e+01  1.675
 5643 1  63.274303 -4.104421e+01  1.675
 5644 1  64.494416 -4.031776e+01  1.675
 5645 1  62.073254 -4.319053e+01  1.675
 5646 1  60.834077 -4.249710e+01  1.675
 5647 1  60.815013 -4.107723e+01  1.675
 5648 1  62.035126 -4.035078e+01  1.675
 5649 1  59.613964 -4.322355e+01  1.675
 5650 1  58.374786 -4.253012e+01  1.675
 5651 1  58.355722 -4.111025e+01  1.675
 5652 1  59.575835 -4.038380e+01  1.675
 5653 1  57.154673 -4.325657e+01  1.675
 5654 1  55.915496 -4.256314e+01  1.675
 5655 1  55.896432 -4.114327e+01  1.675
 5656 1  57.116545 -4.041682e+01  1.675
 5657 1  54.695383 -4.328959e+01  1.675
 5658 1  53.456205 -4.259616e+01  1.675
 5659 1  53.437141 -4.117629e+01  1.675
 5660 1  54.657254 -4.044984e+01  1.675
 5661 1  52.236092 -4.332261e+01  1.675
 5662 1  50.996915 -4.262918e+01  1.675
 5663 1  50.977851 -4.120931e+01  1.675
 5664 1  52.197964 -4.048286e+01  1.675
 5665 1  49.776802 -4.335563e+01  1.675
 5666 1  48.537624 -4.266220e+01  1.675
 5667 1  48.518560 -4.124233e+01  1.675
 5668 1  49.738673 -4.051588e+01  1.675
 5669 1  47.317511 -4.338865e+01  1.675
 5670 1  46.078334 -4.269522e+01  1.675
 5671 1  46.059270 -4.127535e+01  1.675
 5672 1  47.279383 -4.054890e+01  1.675
 5673 1  44.858221 -4.342167e+01  1.675
 5674 1  43.619044 -4.272824e+01  1.675
 5675 1  43.599979 -4.130837e+01  1.675
 5676 1  44.820092 -4.058192e+01  1.675
 5677 1  42.398930 -4.345469e+01  1.675
 5678 1  41.159753 -4.276126e+01  1.675
 5679 1  41.140689 -4.134139e+01  1.675
 5680 1  42.360802 -4.061494e+01  1.675
 5681 1  39.939640 -4.348771e+01  1.675
 5682 1  38.700463 -4.279428e+01  1.675
 5683 1  38.681398 -4.137441e+01  1.675
 5684 1  39.901511 -4.064796e+01  1.675
 5685 1  37.480349 -4.352073e+01  1.675
 5686 1  36.241172 -4.282730e+01  1.675
 5687 1  36.222108 -4.140743e+01  1.675
 5688 1  37.442221 -4.068098e+01  1.675
 5689 1  35.021059 -4.355375e+01  1.675
 5690 1  33.781882 -4.286032e+01  1.675
 5691 1  33.762817 -4.144045e+01  1.675
 5692 1  34.982930 -4.071400e+01  1.675
 5693 1  32.561769 -4.358677e+01  1.675
 5694 1  31.322591 -4.289334e+01  1.675
 5695 1  31.303527 -4.147347e+01  1.675
 5696 1  32.523640 -4.074702e+01  1.675
 5697 1  30.102478 -4.361979e+01  1.675
 5698 1  28.863301 -4.292636e+01  1.675
 5699 1  28.844236 -4.150649e+01  1.675
 5700 1  30.064350 -4.078005e+01  1.675
 5701 1  27.643188 -4.365281e+01  1.675
 5702 1  26.404010 -4.295938e+01  1.675
 5703 1  26.384946 -4.153951e+01  1.675
 5704 1  27.605059 -4.081307e+01  1.675
 5705 1  25.183897 -4.368583e+01  1.675
 5706 1  23.944720 -4.299240e+01  1.675
 5707 1  23.925655 -4.157253e+01  1.675
 5708 1  25.145769 -4.084609e+01  1.675
 5709 1  22.724607 -4.371885e+01  1.675
 5710 1  21.485429 -4.302542e+01  1.675
 5711 1  21.466365 -4.160555e+01  1.675
 5712 1  22.686478 -4.087911e+01  1.675
 5713 1  20.265316 -4.375187e+01  1.675
 5714 1  19.026139 -4.305844e+01  1.675
 5715 1  19.007074 -4.163857e+01  1.675
 5716 1  20.227188 -4.091213e+01  1.675
 5717 1  17.806026 -4.378489e+01  1.675
 5718 1  16.566848 -4.309146e+01  1.675
 5719 1  16.547784 -4.167159e+01  1.675
 5720 1  17.767897 -4.094515e+01  1.675
 5721 1  15.346735 -4.381791e+01  1.675
 5722 1  14.107558 -4.312449e+01  1.675
 5723 1  14.088494 -4.170461e+01  1.675
 5724 1  15.308607 -4.097817e+01  1.675
 5725 1  12.887445 -4.385093e+01  1.675
 5726 1  11.648267 -4.315751e+01  1.675
 5727 1  11.629203 -4.173763e+01  1.675
 5728 1  12.849316 -4.101119e+01  1.675
 5729 1  10.428154 -4.388395e+01  1.675
 5730 1   9.188977 -4.319053e+01  1.675
 5731 1   9.169913 -4.177065e+01  1.675
 5732 1  10.390026 -4.104421e+01  1.675
 5733 1   7.968864 -4.391697e+01  1.675
 5734 1   6.729686 -4.322355e+01  1.675
 5735 1   6.710622 -4.180367e+01  1.675
 5736 1   7.930735 -4.107723e+01  1.675
 5737 1   5.509573 -4.394999e+01  1.675
 5738 1   4.270396 -4.325657e+01  1.675
 5739 1   4.251332 -4.183669e+01  1.675
 5740 1   5.471445 -4.111025e+01  1.675
 5741 1   3.050283 -4.398301e+01  1.675
 5742 1   1.811105 -4.328959e+01  1.675
 5743 1   1.792041 -4.186971e+01  1.675
 5744 1   3.012154 -4.114327e+01  1.675
 5745 1   0.590992 -4.401603e+01  1.675
 5746 1  -0.648185 -4.332261e+01  1.675
 5747 1  -0.667249 -4.190273e+01  1.675
 5748 1   0.552864 -4.117629e+01  1.675
 5749 1  -1.868298 -4.404905e+01  1.675
 5750 1  -3.107476 -4.335563e+01  1.675
 5751 1  -3.126540 -4.193576e+01  1.675
 5752 1  -1.906427 -4.120931e+01  1.675
 5753 1  -4.327589 -4.408207e+01  1.675
 5754 1  -5.566766 -4.338865e+01  1.675
 5755 1  -5.585830 -4.196878e+01  1.675
 5756 1  -4.365717 -4.124233e+01  1.675
 5757 1  -6.786879 -4.411509e+01  1.675
 5758 1  -8.026057 -4.342167e+01  1.675
 5759 1  -8.045121 -4.200180e+01  1.675
 5760 1  -6.825008 -4.127535e+01  1.675
 5761 1  -9.246170 -4.414811e+01  1.675
 5762 1 -10.485347 -4.345469e+01  1.675
 5763 1 -10.504411 -4.203482e+01  1.675
 5764 1  -9.284298 -4.130837e+01  1.675
 5765 1 -11.705460 -4.418113e+01  1.675
 5766 1 -12.944637 -4.348771e+01  1.675
 5767 1 -12.963702 -4.206784e+01  1.675
 5768 1 -11.743589 -4.134139e+01  1.675
 5769 1 -14.164751 -4.421415e+01  1.675
 5770 1 -15.403928 -4.352073e+01  1.675
 5771 1 -15.422992 -4.210086e+01  1.675
 5772 1 -14.202879 -4.137441e+01  1.675
 5773 1 -16.624041 -4.424717e+01  1.675
 5774 1 -17.863218 -4.355375e+01  1.675
 5775 1 -17.882283 -4.213388e+01  1.675
 5776 1 -16.662170 -4.140743e+01  1.675
 5777 1 -19.083332 -4.428019e+01  1.675
 5778 1 -20.322509 -4.358677e+01  1.675
 5779 1 -20.341573 -4.216690e+01  1.675
 5780 1 -19.121460 -4.144045e+01  1.675
 5781 1 -21.542622 -4.431322e+01  1.675
 5782 1 -22.781799 -4.361979e+01  1.675
 5783 1 -22.800864 -4.219992e+01  1.675
 5784 1 -21.580751 -4.147347e+01  1.675
 5785 1 -24.001913 -4.434624e+01  1.675
 5786 1 -25.241090 -4.365281e+01  1.675
 5787 1 -25.260154 -4.223294e+01  1.675
 5788 1 -24.040041 -4.150649e+01  1.675
 5789 1 -26.461203 -4.437926e+01  1.675
 5790 1 -27.700380 -4.368583e+01  1.675
 5791 1 -27.719445 -4.226596e+01  1.675
 5792 1 -26.499332 -4.153951e+01  1.675
 5793 1 -28.920493 -4.441228e+01  1.675
 5794 1 -30.159671 -4.371885e+01  1.675
 5795 1 -30.178735 -4.229898e+01  1.675
 5796 1 -28.958622 -4.157253e+01  1.675
 5797 1 -31.379784 -4.444530e+01  1.675
 5798 1 -32.618961 -4.375187e+01  1.675
 5799 1 -32.638026 -4.233200e+01  1.675
 5800 1 -31.417912 -4.160555e+01  1.675
 5801 1 -33.839074 -4.447832e+01  1.675
 5802 1 -35.078252 -4.378489e+01  1.675
 5803 1 -35.097316 -4.236502e+01  1.675
 5804 1 -33.877203 -4.163857e+01  1.675
 5805 1 -36.298365 -4.451134e+01  1.675
 5806 1 -37.537542 -4.381791e+01  1.675
 5807 1 -37.556607 -4.239804e+01  1.675
 5808 1 -36.336493 -4.167159e+01  1.675
 5809 1 -38.757655 -4.454436e+01  1.675
 5810 1 -39.996833 -4.385093e+01  1.675
 5811 1 -40.015897 -4.243106e+01  1.675
 5812 1 -38.795784 -4.170461e+01  1.675
 5813 1 -41.216946 -4.457738e+01  1.675
 5814 1 -42.456123 -4.388395e+01  1.675
 5815 1 -42.475188 -4.246408e+01  1.675
 5816 1 -41.255074 -4.173763e+01  1.675
 5817 1 -43.676236 -4.461040e+01  1.675
 5818 1 -44.915414 -4.391697e+01  1.675
 5819 1 -44.934478 -4.249710e+01  1.675
 5820 1 -43.714365 -4.177065e+01  1.675
 5821 1 -46.135527 -4.464342e+01  1.675
 5822 1 -47.374704 -4.394999e+01  1.675
 5823 1 -47.393768 -4.253012e+01  1.675
 5824 1 -46.173655 -4.180367e+01  1.675
 5825 1 -48.594817 -4.467644e+01  1.675
 5826 1 -49.833995 -4.398301e+01  1.675
 5827 1 -49.853059 -4.256314e+01  1.675
 5828 1 -48.632946 -4.183669e+01  1.675
 5829 1 -51.054108 -4.470946e+01  1.675
 5830 1 -52.293285 -4.401603e+01  1.675
 5831 1 -52.312349 -4.259616e+01  1.675
 5832 1 -51.092236 -4.186971e+01  1.675
 5833 1 -53.513398 -4.474248e+01  1.675
 5834 1 -54.752576 -4.404905e+01  1.675
 5835 1 -54.771640 -4.262918e+01  1.675
 5836 1 -53.551527 -4.190273e+01  1.675
 5837 1 -55.972689 -4.477550e+01  1.675
 5838 1 -57.211866 -4.408207e+01  1.675
 5839 1 -57.230930 -4.266220e+01  1.675
 5840 1 -56.010817 -4.193576e+01  1.675
 5841 1 -58.431979 -4.480852e+01  1.675
 5842 1 -59.671157 -4.411509e+01  1.675
 5843 1 -59.690221 -4.269522e+01  1.675
 5844 1 -58.470108 -4.196878e+01  1.675
 5845 1 -60.891270 -4.484154e+01  1.675
 5846 1 -62.130447 -4.414811e+01  1.675
 5847 1 -62.149511 -4.272824e+01  1.675
 5848 1 -60.929398 -4.200180e+01  1.675
 5849 1 -63.350560 -4.487456e+01  1.675
 5850 1 -64.589738 -4.418113e+01  1.675
 5851 1 -64.608802 -4.276126e+01  1.675
 5852 1 -63.388689 -4.203482e+01  1.675
 5853 1 -65.809851 -4.490758e+01  1.675
 5854 1 -67.049028 -4.421415e+01  1.675
 5855 1 -67.068092 -4.279428e+01  1.675
 5856 1 -65.847979 -4.206784e+01  1.675
 5857 1 -68.269141 -4.494060e+01  1.675
 5858 1 -69.508319 -4.424717e+01  1.675
 5859 1 -69.527383 -4.282730e+01  1.675
 5860 1 -68.307270 -4.210086e+01  1.675
 5861 1 -70.728432 -4.497362e+01  1.675
 5862 1 -71.967609 -4.428019e+01  1.675
 5863 1 -71.986673 -4.286032e+01  1.675
 5864 1 -70.766560 -4.213388e+01  1.675
 5865 1 -73.187722 -4.500664e+01  1.675
 5866 1 -74.426899 -4.431322e+01  1.675
 5867 1 -74.445964 -4.289334e+01  1.675
 5868 1 -73.225851 -4.216690e+01  1.675
 5869 1 -75.647013 -4.503966e+01  1.675
 5870 1 -76.886190 -4.434624e+01  1.675
 5871 1 -76.905254 -4.292636e+01  1.675
 5872 1 -75.685141 -4.219992e+01  1.675
 5873 1 -78.106303 -4.507268e+01  1.675
 5874 1 -78.144432 -4.223294e+01  1.675
 5875 1  79.231095 -3.869977e+01  1.675
 5876 1  77.991917 -3.800634e+01  1.675
 5877 1  77.972853 -3.658647e+01  1.675
 5878 1  79.192966 -3.586002e+01  1.675
 5879 1  76.771804 -3.873279e+01  1.675
 5880 1  75.532627 -3.803936e+01  1.675
 5881 1  75.513563 -3.661949e+01  1.675
 5882 1  76.733676 -3.589304e+01  1.675
 5883 1  74.312514 -3.876581e+01  1.675
 5884 1  73.073336 -3.807238e+01  1.675
 5885 1  73.054272 -3.665251e+01  1.675
 5886 1  74.274385 -3.592606e+01  1.675
 5887 1  71.853223 -3.879883e+01  1.675
 5888 1  70.614046 -3.810540e+01  1.675
 5889 1  70.594982 -3.668553e+01  1.675
 5890 1  71.815095 -3.595908e+01  1.675
 5891 1  69.393933 -3.883185e+01  1.675
 5892 1  68.154756 -3.813842e+01  1.675
 5893 1  68.135691 -3.671855e+01  1.675
 5894 1  69.355804 -3.599210e+01  1.675
 5895 1  66.934642 -3.886487e+01  1.675
 5896 1  65.695465 -3.817144e+01  1.675
 5897 1  65.676401 -3.675157e+01  1.675
 5898 1  66.896514 -3.602512e+01  1.675
 5899 1  64.475352 -3.889789e+01  1.675
 5900 1  63.236175 -3.820446e+01  1.675
 5901 1  63.217110 -3.678459e+01  1.675
 5902 1  64.437223 -3.605815e+01  1.675
 5903 1  62.016061 -3.893091e+01  1.675
 5904 1  60.776884 -3.823748e+01  1.675
 5905 1  60.757820 -3.681761e+01  1.675
 5906 1  61.977933 -3.609117e+01  1.675
 5907 1  59.556771 -3.896393e+01  1.675
 5908 1  58.317594 -3.827050e+01  1.675
 5909 1  58.298529 -3.685063e+01  1.675
 5910 1  59.518642 -3.612419e+01  1.675
 5911 1  57.097481 -3.899695e+01  1.675
 5912 1  55.858303 -3.830352e+01  1.675
 5913 1  55.839239 -3.688365e+01  1.675
 5914 1  57.059352 -3.615721e+01  1.675
 5915 1  54.638190 -3.902997e+01  1.675
 5916 1  53.399013 -3.833654e+01  1.675
 5917 1  53.379948 -3.691667e+01  1.675
 5918 1  54.600061 -3.619023e+01  1.675
 5919 1  52.178900 -3.906299e+01  1.675
 5920 1  50.939722 -3.836956e+01  1.675
 5921 1  50.920658 -3.694969e+01  1.675
 5922 1  52.140771 -3.622325e+01  1.675
 5923 1  49.719609 -3.909601e+01  1.675
 5924 1  48.480432 -3.840259e+01  1.675
 5925 1  48.461367 -3.698271e+01  1.675
 5926 1  49.681481 -3.625627e+01  1.675
 5927 1  47.260319 -3.912903e+01  1.675
 5928 1  46.021141 -3.843561e+01  1.675
 5929 1  46.002077 -3.701573e+01  1.675
 5930 1  47.222190 -3.628929e+01  1.675
 5931 1  44.801028 -3.916205e+01  1.675
 5932 1  43.561851 -3.846863e+01  1.675
 5933 1  43.542786 -3.704875e+01  1.675
 5934 1  44.762900 -3.632231e+01  1.675
 5935 1  42.341738 -3.919507e+01  1.675
 5936 1  41.102560 -3.850165e+01  1.675
 5937 1  41.083496 -3.708177e+01  1.675
 5938 1  42.303609 -3.635533e+01  1.675
 5939 1  39.882447 -3.922809e+01  1.675
 5940 1  38.643270 -3.853467e+01  1.675
 5941 1  38.624206 -3.711479e+01  1.675
 5942 1  39.844319 -3.638835e+01  1.675
 5943 1  37.423157 -3.926111e+01  1.675
 5944 1  36.183979 -3.856769e+01  1.675
 5945 1  36.164915 -3.714781e+01  1.675
 5946 1  37.385028 -3.642137e+01  1.675
 5947 1  34.963866 -3.929413e+01  1.675
 5948 1  33.724689 -3.860071e+01  1.675
 5949 1  33.705625 -3.718083e+01  1.675
 5950 1  34.925738 -3.645439e+01  1.675
 5951 1  32.504576 -3.932715e+01  1.675
 5952 1  31.265398 -3.863373e+01  1.675
 5953 1  31.246334 -3.721386e+01  1.675
 5954 1  32.466447 -3.648741e+01  1.675
 5955 1  30.045285 -3.936017e+01  1.675
 5956 1  28.806108 -3.866675e+01  1.675
 5957 1  28.787044 -3.724688e+01  1.675
 5958 1  30.007157 -3.652043e+01  1.675
 5959 1  27.585995 -3.939319e+01  1.675
 5960 1  26.346817 -3.869977e+01  1.675
 5961 1  26.327753 -3.727990e+01  1.675
 5962 1  27.547866 -3.655345e+01  1.675
 5963 1  25.126704 -3.942621e+01  1.675
 5964 1  23.887527 -3.873279e+01  1.675
 5965 1  23.868463 -3.731292e+01  1.675
 5966 1  25.088576 -3.658647e+01  1.675
 5967 1  22.667414 -3.945923e+01  1.675
 5968 1  21.428236 -3.876581e+01  1.675
 5969 1  21.409172 -3.734594e+01  1.675
 5970 1  22.629285 -3.661949e+01  1.675
 5971 1  20.208123 -3.949225e+01  1.675
 5972 1  18.968946 -3.879883e+01  1.675
 5973 1  18.949882 -3.737896e+01  1.675
 5974 1  20.169995 -3.665251e+01  1.675
 5975 1  17.748833 -3.952527e+01  1.675
 5976 1  16.509655 -3.883185e+01  1.675
 5977 1  16.490591 -3.741198e+01  1.675
 5978 1  17.710704 -3.668553e+01  1.675
 5979 1  15.289542 -3.955829e+01  1.675
 5980 1  14.050365 -3.886487e+01  1.675
 5981 1  14.031301 -3.744500e+01  1.675
 5982 1  15.251414 -3.671855e+01  1.675
 5983 1  12.830252 -3.959132e+01  1.675
 5984 1  11.591075 -3.889789e+01  1.675
 5985 1  11.572010 -3.747802e+01  1.675
 5986 1  12.792123 -3.675157e+01  1.675
 5987 1  10.370961 -3.962434e+01  1.675
 5988 1   9.131784 -3.893091e+01  1.675
 5989 1   9.112720 -3.751104e+01  1.675
 5990 1  10.332833 -3.678459e+01  1.675
 5991 1   7.911671 -3.965736e+01  1.675
 5992 1   6.672494 -3.896393e+01  1.675
 5993 1   6.653429 -3.754406e+01  1.675
 5994 1   7.873542 -3.681761e+01  1.675
 5995 1   5.452380 -3.969038e+01  1.675
 5996 1   4.213203 -3.899695e+01  1.675
 5997 1   4.194139 -3.757708e+01  1.675
 5998 1   5.414252 -3.685063e+01  1.675
 5999 1   2.993090 -3.972340e+01  1.675
 6000 1   1.753913 -3.902997e+01  1.675
 6001 1   1.734848 -3.761010e+01  1.675
 6002 1   2.954961 -3.688365e+01  1.675
 6003 1   0.533799 -3.975642e+01  1.675
 6004 1  -0.705378 -3.906299e+01  1.675
 6005 1  -0.724442 -3.764312e+01  1.675
 6006 1   0.495671 -3.691667e+01  1.675
 6007 1  -1.925491 -3.978944e+01  1.675
 6008 1  -3.164668 -3.909601e+01  1.675
 6009 1  -3.183733 -3.767614e+01  1.675
 6010 1  -1.963620 -3.694969e+01  1.675
 6011 1  -4.384781 -3.982246e+01  1.675
 6012 1  -5.623959 -3.912903e+01  1.675
 6013 1  -5.643023 -3.770916e+01  1.675
 6014 1  -4.422910 -3.698271e+01  1.675
 6015 1  -6.844072 -3.985548e+01  1.675
 6016 1  -8.083249 -3.916205e+01  1.675
 6017 1  -8.102314 -3.774218e+01  1.675
 6018 1  -6.882200 -3.701573e+01  1.675
 6019 1  -9.303362 -3.988850e+01  1.675
 6020 1 -10.542540 -3.919507e+01  1.675
 6021 1 -10.561604 -3.777520e+01  1.675
 6022 1  -9.341491 -3.704875e+01  1.675
 6023 1 -11.762653 -3.992152e+01  1.675
 6024 1 -13.001830 -3.922809e+01  1.675
 6025 1 -13.020895 -3.780822e+01  1.675
 6026 1 -11.800781 -3.708177e+01  1.675
 6027 1 -14.221943 -3.995454e+01  1.675
 6028 1 -15.461121 -3.926111e+01  1.675
 6029 1 -15.480185 -3.784124e+01  1.675
 6030 1 -14.260072 -3.711479e+01  1.675
 6031 1 -16.681234 -3.998756e+01  1.675
 6032 1 -17.920411 -3.929413e+01  1.675
 6033 1 -17.939476 -3.787426e+01  1.675
 6034 1 -16.719362 -3.714781e+01  1.675
 6035 1 -19.140524 -4.002058e+01  1.675
 6036 1 -20.379702 -3.932715e+01  1.675
 6037 1 -20.398766 -3.790728e+01  1.675
 6038 1 -19.178653 -3.718083e+01  1.675
 6039 1 -21.599815 -4.005360e+01  1.675
 6040 1 -22.838992 -3.936017e+01  1.675
 6041 1 -22.858056 -3.794030e+01  1.675
 6042 1 -21.637943 -3.721386e+01  1.675
 6043 1 -24.059105 -4.008662e+01  1.675
 6044 1 -25.298283 -3.939319e+01  1.675
 6045 1 -25.317347 -3.797332e+01  1.675
 6046 1 -24.097234 -3.724688e+01  1.675
 6047 1 -26.518396 -4.011964e+01  1.675
 6048 1 -27.757573 -3.942621e+01  1.675
 6049 1 -27.776637 -3.800634e+01  1.675
 6050 1 -26.556524 -3.727990e+01  1.675
 6051 1 -28.977686 -4.015266e+01  1.675
 6052 1 -30.216864 -3.945923e+01  1.675
 6053 1 -30.235928 -3.803936e+01  1.675
 6054 1 -29.015815 -3.731292e+01  1.675
 6055 1 -31.436977 -4.018568e+01  1.675
 6056 1 -32.676154 -3.949225e+01  1.675
 6057 1 -32.695218 -3.807238e+01  1.675
 6058 1 -31.475105 -3.734594e+01  1.675
 6059 1 -33.896267 -4.021870e+01  1.675
 6060 1 -35.135445 -3.952527e+01  1.675
 6061 1 -35.154509 -3.810540e+01  1.675
 6062 1 -33.934396 -3.737896e+01  1.675
 6063 1 -36.355558 -4.025172e+01  1.675
 6064 1 -37.594735 -3.955829e+01  1.675
 6065 1 -37.613799 -3.813842e+01  1.675
 6066 1 -36.393686 -3.741198e+01  1.675
 6067 1 -38.814848 -4.028474e+01  1.675
 6068 1 -40.054026 -3.959132e+01  1.675
 6069 1 -40.073090 -3.817144e+01  1.675
 6070 1 -38.852977 -3.744500e+01  1.675
 6071 1 -41.274139 -4.031776e+01  1.675
 6072 1 -42.513316 -3.962434e+01  1.675
 6073 1 -42.532380 -3.820446e+01  1.675
 6074 1 -41.312267 -3.747802e+01  1.675
 6075 1 -43.733429 -4.035078e+01  1.675
 6076 1 -44.972607 -3.965736e+01  1.675
 6077 1 -44.991671 -3.823748e+01  1.675
 6078 1 -43.771558 -3.751104e+01  1.675
 6079 1 -46.192720 -4.038380e+01  1.675
 6080 1 -47.431897 -3.969038e+01  1.675
 6081 1 -47.450961 -3.827050e+01  1.675
 6082 1 -46.230848 -3.754406e+01  1.675
 6083 1 -48.652010 -4.041682e+01  1.675
 6084 1 -49.891187 -3.972340e+01  1.675
 6085 1 -49.910252 -3.830352e+01  1.675
 6086 1 -48.690139 -3.757708e+01  1.675
 6087 1 -51.111301 -4.044984e+01  1.675
 6088 1 -52.350478 -3.975642e+01  1.675
 6089 1 -52.369542 -3.833654e+01  1.675
 6090 1 -51.149429 -3.761010e+01  1.675
 6091 1 -53.570591 -4.048286e+01  1.675
 6092 1 -54.809768 -3.978944e+01  1.675
 6093 1 -54.828833 -3.836956e+01  1.675
 6094 1 -53.608720 -3.764312e+01  1.675
 6095 1 -56.029882 -4.051588e+01  1.675
 6096 1 -57.269059 -3.982246e+01  1.675
 6097 1 -57.288123 -3.840259e+01  1.675
 6098 1 -56.068010 -3.767614e+01  1.675
 6099 1 -58.489172 -4.054890e+01  1.675
 6100 1 -59.728349 -3.985548e+01  1.675
 6101 1 -59.747414 -3.843561e+01  1.675
 6102 1 -58.527301 -3.770916e+01  1.675
 6103 1 -60.948462 -4.058192e+01  1.675
 6104 1 -62.187640 -3.988850e+01  1.675
 6105 1 -62.206704 -3.846863e+01  1.675
 6106 1 -60.986591 -3.774218e+01  1.675
 6107 1 -63.407753 -4.061494e+01  1.675
 6108 1 -64.646930 -3.992152e+01  1.675
 6109 1 -64.665995 -3.850165e+01  1.675
 6110 1 -63.445882 -3.777520e+01  1.675
 6111 1 -65.867043 -4.064796e+01  1.675
 6112 1 -67.106221 -3.995454e+01  1.675
 6113 1 -67.125285 -3.853467e+01  1.675
 6114 1 -65.905172 -3.780822e+01  1.675
 6115 1 -68.326334 -4.068098e+01  1.675
 6116 1 -69.565511 -3.998756e+01  1.675
 6117 1 -69.584576 -3.856769e+01  1.675
 6118 1 -68.364462 -3.784124e+01  1.675
 6119 1 -70.785624 -4.071400e+01  1.675
 6120 1 -72.024802 -4.002058e+01  1.675
 6121 1 -72.043866 -3.860071e+01  1.675
 6122 1 -70.823753 -3.787426e+01  1.675
 6123 1 -73.244915 -4.074702e+01  1.675
 6124 1 -74.484092 -4.005360e+01  1.675
 6125 1 -74.503157 -3.863373e+01  1.675
 6126 1 -73.283043 -3.790728e+01  1.675
 6127 1 -75.704205 -4.078005e+01  1.675
 6128 1 -76.943383 -4.008662e+01  1.675
 6129 1 -76.962447 -3.866675e+01  1.675
 6130 1 -75.742334 -3.794030e+01  1.675
 6131 1 -78.163496 -4.081307e+01  1.675
 6132 1 -78.201624 -3.797332e+01  1.675
 6133 1  79.173902 -3.444015e+01  1.675
 6134 1  77.934725 -3.374673e+01  1.675
 6135 1  77.915660 -3.232685e+01  1.675
 6136 1  79.135773 -3.160041e+01  1.675
 6137 1  76.714612 -3.447317e+01  1.675
 6138 1  75.475434 -3.377975e+01  1.675
 6139 1  75.456370 -3.235987e+01  1.675
 6140 1  76.676483 -3.163343e+01  1.675
 6141 1  74.255321 -3.450619e+01  1.675
 6142 1  73.016144 -3.381277e+01  1.675
 6143 1  72.997079 -3.239289e+01  1.675
 6144 1  74.217193 -3.166645e+01  1.675
 6145 1  71.796031 -3.453921e+01  1.675
 6146 1  70.556853 -3.384579e+01  1.675
 6147 1  70.537789 -3.242591e+01  1.675
 6148 1  71.757902 -3.169947e+01  1.675
 6149 1  69.336740 -3.457223e+01  1.675
 6150 1  68.097563 -3.387881e+01  1.675
 6151 1  68.078498 -3.245893e+01  1.675
 6152 1  69.298612 -3.173249e+01  1.675
 6153 1  66.877450 -3.460525e+01  1.675
 6154 1  65.638272 -3.391183e+01  1.675
 6155 1  65.619208 -3.249196e+01  1.675
 6156 1  66.839321 -3.176551e+01  1.675
 6157 1  64.418159 -3.463827e+01  1.675
 6158 1  63.178982 -3.394485e+01  1.675
 6159 1  63.159918 -3.252498e+01  1.675
 6160 1  64.380031 -3.179853e+01  1.675
 6161 1  61.958869 -3.467129e+01  1.675
 6162 1  60.719691 -3.397787e+01  1.675
 6163 1  60.700627 -3.255800e+01  1.675
 6164 1  61.920740 -3.183155e+01  1.675
 6165 1  59.499578 -3.470431e+01  1.675
 6166 1  58.260401 -3.401089e+01  1.675
 6167 1  58.241337 -3.259102e+01  1.675
 6168 1  59.461450 -3.186457e+01  1.675
 6169 1  57.040288 -3.473733e+01  1.675
 6170 1  55.801110 -3.404391e+01  1.675
 6171 1  55.782046 -3.262404e+01  1.675
 6172 1  57.002159 -3.189759e+01  1.675
 6173 1  54.580997 -3.477035e+01  1.675
 6174 1  53.341820 -3.407693e+01  1.675
 6175 1  53.322756 -3.265706e+01  1.675
 6176 1  54.542869 -3.193061e+01  1.675
 6177 1  52.121707 -3.480337e+01  1.675
 6178 1  50.882529 -3.410995e+01  1.675
 6179 1  50.863465 -3.269008e+01  1.675
 6180 1  52.083578 -3.196363e+01  1.675
 6181 1  49.662416 -3.483639e+01  1.675
 6182 1  48.423239 -3.414297e+01  1.675
 6183 1  48.404175 -3.272310e+01  1.675
 6184 1  49.624288 -3.199665e+01  1.675
 6185 1  47.203126 -3.486942e+01  1.675
 6186 1  45.963948 -3.417599e+01  1.675
 6187 1  45.944884 -3.275612e+01  1.675
 6188 1  47.164997 -3.202967e+01  1.675
 6189 1  44.743835 -3.490244e+01  1.675
 6190 1  43.504658 -3.420901e+01  1.675
 6191 1  43.485594 -3.278914e+01  1.675
 6192 1  44.705707 -3.206269e+01  1.675
 6193 1  42.284545 -3.493546e+01  1.675
 6194 1  41.045367 -3.424203e+01  1.675
 6195 1  41.026303 -3.282216e+01  1.675
 6196 1  42.246416 -3.209571e+01  1.675
 6197 1  39.825254 -3.496848e+01  1.675
 6198 1  38.586077 -3.427505e+01  1.675
 6199 1  38.567013 -3.285518e+01  1.675
 6200 1  39.787126 -3.212873e+01  1.675
 6201 1  37.365964 -3.500150e+01  1.675
 6202 1  36.126786 -3.430807e+01  1.675
 6203 1  36.107722 -3.288820e+01  1.675
 6204 1  37.327835 -3.216175e+01  1.675
 6205 1  34.906673 -3.503452e+01  1.675
 6206 1  33.667496 -3.434109e+01  1.675
 6207 1  33.648432 -3.292122e+01  1.675
 6208 1  34.868545 -3.219477e+01  1.675
 6209 1  32.447383 -3.506754e+01  1.675
 6210 1  31.208206 -3.437411e+01  1.675
 6211 1  31.189141 -3.295424e+01  1.675
 6212 1  32.409254 -3.222779e+01  1.675
 6213 1  29.988092 -3.510056e+01  1.675
 6214 1  28.748915 -3.440713e+01  1.675
 6215 1  28.729851 -3.298726e+01  1.675
 6216 1  29.949964 -3.226081e+01  1.675
 6217 1  27.528802 -3.513358e+01  1.675
 6218 1  26.289625 -3.444015e+01  1.675
 6219 1  26.270560 -3.302028e+01  1.675
 6220 1  27.490673 -3.229383e+01  1.675
 6221 1  25.069511 -3.516660e+01  1.675
 6222 1  23.830334 -3.447317e+01  1.675
 6223 1  23.811270 -3.305330e+01  1.675
 6224 1  25.031383 -3.232685e+01  1.675
 6225 1  22.610221 -3.519962e+01  1.675
 6226 1  21.371044 -3.450619e+01  1.675
 6227 1  21.351979 -3.308632e+01  1.675
 6228 1  22.572092 -3.235987e+01  1.675
 6229 1  20.150931 -3.523264e+01  1.675
 6230 1  18.911753 -3.453921e+01  1.675
 6231 1  18.892689 -3.311934e+01  1.675
 6232 1  20.112802 -3.239289e+01  1.675
 6233 1  17.691640 -3.526566e+01  1.675
 6234 1  16.452463 -3.457223e+01  1.675
 6235 1  16.433398 -3.315236e+01  1.675
 6236 1  17.653512 -3.242591e+01  1.675
 6237 1  15.232350 -3.529868e+01  1.675
 6238 1  13.993172 -3.460525e+01  1.675
 6239 1  13.974108 -3.318538e+01  1.675
 6240 1  15.194221 -3.245893e+01  1.675
 6241 1  12.773059 -3.533170e+01  1.675
 6242 1  11.533882 -3.463827e+01  1.675
 6243 1  11.514817 -3.321840e+01  1.675
 6244 1  12.734931 -3.249196e+01  1.675
 6245 1  10.313769 -3.536472e+01  1.675
 6246 1   9.074591 -3.467129e+01  1.675
 6247 1   9.055527 -3.325142e+01  1.675
 6248 1  10.275640 -3.252498e+01  1.675
 6249 1   7.854478 -3.539774e+01  1.675
 6250 1   6.615301 -3.470431e+01  1.675
 6251 1   6.596236 -3.328444e+01  1.675
 6252 1   7.816350 -3.255800e+01  1.675
 6253 1   5.395188 -3.543076e+01  1.675
 6254 1   4.156010 -3.473733e+01  1.675
 6255 1   4.136946 -3.331746e+01  1.675
 6256 1   5.357059 -3.259102e+01  1.675
 6257 1   2.935897 -3.546378e+01  1.675
 6258 1   1.696720 -3.477035e+01  1.675
 6259 1   1.677656 -3.335048e+01  1.675
 6260 1   2.897769 -3.262404e+01  1.675
 6261 1   0.476607 -3.549680e+01  1.675
 6262 1  -0.762571 -3.480337e+01  1.675
 6263 1  -0.781635 -3.338350e+01  1.675
 6264 1   0.438478 -3.265706e+01  1.675
 6265 1  -1.982684 -3.552982e+01  1.675
 6266 1  -3.221861 -3.483639e+01  1.675
 6267 1  -3.240925 -3.341652e+01  1.675
 6268 1  -2.020812 -3.269008e+01  1.675
 6269 1  -4.441974 -3.556284e+01  1.675
 6270 1  -5.681152 -3.486942e+01  1.675
 6271 1  -5.700216 -3.344954e+01  1.675
 6272 1  -4.480103 -3.272310e+01  1.675
 6273 1  -6.901265 -3.559586e+01  1.675
 6274 1  -8.140442 -3.490244e+01  1.675
 6275 1  -8.159506 -3.348256e+01  1.675
 6276 1  -6.939393 -3.275612e+01  1.675
 6277 1  -9.360555 -3.562888e+01  1.675
 6278 1 -10.599733 -3.493546e+01  1.675
 6279 1 -10.618797 -3.351558e+01  1.675
 6280 1  -9.398684 -3.278914e+01  1.675
 6281 1 -11.819846 -3.566190e+01  1.675
 6282 1 -13.059023 -3.496848e+01  1.675
 6283 1 -13.078087 -3.354860e+01  1.675
 6284 1 -11.857974 -3.282216e+01  1.675
 6285 1 -14.279136 -3.569492e+01  1.675
 6286 1 -15.518314 -3.500150e+01  1.675
 6287 1 -15.537378 -3.358162e+01  1.675
 6288 1 -14.317265 -3.285518e+01  1.675
 6289 1 -16.738427 -3.572794e+01  1.675
 6290 1 -17.977604 -3.503452e+01  1.675
 6291 1 -17.996668 -3.361464e+01  1.675
 6292 1 -16.776555 -3.288820e+01  1.675
 6293 1 -19.197717 -3.576096e+01  1.675
 6294 1 -20.436895 -3.506754e+01  1.675
 6295 1 -20.455959 -3.364766e+01  1.675
 6296 1 -19.235846 -3.292122e+01  1.675
 6297 1 -21.657008 -3.579398e+01  1.675
 6298 1 -22.896185 -3.510056e+01  1.675
 6299 1 -22.915249 -3.368069e+01  1.675
 6300 1 -21.695136 -3.295424e+01  1.675
 6301 1 -24.116298 -3.582700e+01  1.675
 6302 1 -25.355475 -3.513358e+01  1.675
 6303 1 -25.374540 -3.371371e+01  1.675
 6304 1 -24.154427 -3.298726e+01  1.675
 6305 1 -26.575589 -3.586002e+01  1.675
 6306 1 -27.814766 -3.516660e+01  1.675
 6307 1 -27.833830 -3.374673e+01  1.675
 6308 1 -26.613717 -3.302028e+01  1.675
 6309 1 -29.034879 -3.589304e+01  1.675
 6310 1 -30.274056 -3.519962e+01  1.675
 6311 1 -30.293121 -3.377975e+01  1.675
 6312 1 -29.073008 -3.305330e+01  1.675
 6313 1 -31.494170 -3.592606e+01  1.675
 6314 1 -32.733347 -3.523264e+01  1.675
 6315 1 -32.752411 -3.381277e+01  1.675
 6316 1 -31.532298 -3.308632e+01  1.675
 6317 1 -33.953460 -3.595908e+01  1.675
 6318 1 -35.192637 -3.526566e+01  1.675
 6319 1 -35.211702 -3.384579e+01  1.675
 6320 1 -33.991589 -3.311934e+01  1.675
 6321 1 -36.412751 -3.599210e+01  1.675
 6322 1 -37.651928 -3.529868e+01  1.675
 6323 1 -37.670992 -3.387881e+01  1.675
 6324 1 -36.450879 -3.315236e+01  1.675
 6325 1 -38.872041 -3.602512e+01  1.675
 6326 1 -40.111218 -3.533170e+01  1.675
 6327 1 -40.130283 -3.391183e+01  1.675
 6328 1 -38.910170 -3.318538e+01  1.675
 6329 1 -41.331331 -3.605815e+01  1.675
 6330 1 -42.570509 -3.536472e+01  1.675
 6331 1 -42.589573 -3.394485e+01  1.675
 6332 1 -41.369460 -3.321840e+01  1.675
 6333 1 -43.790622 -3.609117e+01  1.675
 6334 1 -45.029799 -3.539774e+01  1.675
 6335 1 -45.048864 -3.397787e+01  1.675
 6336 1 -43.828750 -3.325142e+01  1.675
 6337 1 -46.249912 -3.612419e+01  1.675
 6338 1 -47.489090 -3.543076e+01  1.675
 6339 1 -47.508154 -3.401089e+01  1.675
 6340 1 -46.288041 -3.328444e+01  1.675
 6341 1 -48.709203 -3.615721e+01  1.675
 6342 1 -49.948380 -3.546378e+01  1.675
 6343 1 -49.967445 -3.404391e+01  1.675
 6344 1 -48.747331 -3.331746e+01  1.675
 6345 1 -51.168493 -3.619023e+01  1.675
 6346 1 -52.407671 -3.549680e+01  1.675
 6347 1 -52.426735 -3.407693e+01  1.675
 6348 1 -51.206622 -3.335048e+01  1.675
 6349 1 -53.627784 -3.622325e+01  1.675
 6350 1 -54.866961 -3.552982e+01  1.675
 6351 1 -54.886026 -3.410995e+01  1.675
 6352 1 -53.665912 -3.338350e+01  1.675
 6353 1 -56.087074 -3.625627e+01  1.675
 6354 1 -57.326252 -3.556284e+01  1.675
 6355 1 -57.345316 -3.414297e+01  1.675
 6356 1 -56.125203 -3.341652e+01  1.675
 6357 1 -58.546365 -3.628929e+01  1.675
 6358 1 -59.785542 -3.559586e+01  1.675
 6359 1 -59.804606 -3.417599e+01  1.675
 6360 1 -58.584493 -3.344954e+01  1.675
 6361 1 -61.005655 -3.632231e+01  1.675
 6362 1 -62.244833 -3.562888e+01  1.675
 6363 1 -62.263897 -3.420901e+01  1.675
 6364 1 -61.043784 -3.348256e+01  1.675
 6365 1 -63.464946 -3.635533e+01  1.675
 6366 1 -64.704123 -3.566190e+01  1.675
 6367 1 -64.723187 -3.424203e+01  1.675
 6368 1 -63.503074 -3.351558e+01  1.675
 6369 1 -65.924236 -3.638835e+01  1.675
 6370 1 -67.163414 -3.569492e+01  1.675
 6371 1 -67.182478 -3.427505e+01  1.675
 6372 1 -65.962365 -3.354860e+01  1.675
 6373 1 -68.383527 -3.642137e+01  1.675
 6374 1 -69.622704 -3.572794e+01  1.675
 6375 1 -69.641768 -3.430807e+01  1.675
 6376 1 -68.421655 -3.358162e+01  1.675
 6377 1 -70.842817 -3.645439e+01  1.675
 6378 1 -72.081995 -3.576096e+01  1.675
 6379 1 -72.101059 -3.434109e+01  1.675
 6380 1 -70.880946 -3.361464e+01  1.675
 6381 1 -73.302108 -3.648741e+01  1.675
 6382 1 -74.541285 -3.579398e+01  1.675
 6383 1 -74.560349 -3.437411e+01  1.675
 6384 1 -73.340236 -3.364766e+01  1.675
 6385 1 -75.761398 -3.652043e+01  1.675
 6386 1 -77.000576 -3.582700e+01  1.675
 6387 1 -77.019640 -3.440713e+01  1.675
 6388 1 -75.799527 -3.368069e+01  1.675
 6389 1 -78.220689 -3.655345e+01  1.675
 6390 1 -78.258817 -3.371371e+01  1.675
 6391 1  79.116709 -3.018054e+01  1.675
 6392 1  77.877532 -2.948711e+01  1.675
 6393 1  77.858468 -2.806724e+01  1.675
 6394 1  79.078581 -2.734079e+01  1.675
 6395 1  76.657419 -3.021356e+01  1.675
 6396 1  75.418241 -2.952013e+01  1.675
 6397 1  75.399177 -2.810026e+01  1.675
 6398 1  76.619290 -2.737381e+01  1.675
 6399 1  74.198128 -3.024658e+01  1.675
 6400 1  72.958951 -2.955315e+01  1.675
 6401 1  72.939887 -2.813328e+01  1.675
 6402 1  74.160000 -2.740683e+01  1.675
 6403 1  71.738838 -3.027960e+01  1.675
 6404 1  70.499660 -2.958617e+01  1.675
 6405 1  70.480596 -2.816630e+01  1.675
 6406 1  71.700709 -2.743985e+01  1.675
 6407 1  69.279547 -3.031262e+01  1.675
 6408 1  68.040370 -2.961919e+01  1.675
 6409 1  68.021306 -2.819932e+01  1.675
 6410 1  69.241419 -2.747287e+01  1.675
 6411 1  66.820257 -3.034564e+01  1.675
 6412 1  65.581079 -2.965221e+01  1.675
 6413 1  65.562015 -2.823234e+01  1.675
 6414 1  66.782128 -2.750589e+01  1.675
 6415 1  64.360966 -3.037866e+01  1.675
 6416 1  63.121789 -2.968523e+01  1.675
 6417 1  63.102725 -2.826536e+01  1.675
 6418 1  64.322838 -2.753891e+01  1.675
 6419 1  61.901676 -3.041168e+01  1.675
 6420 1  60.662498 -2.971825e+01  1.675
 6421 1  60.643434 -2.829838e+01  1.675
 6422 1  61.863547 -2.757193e+01  1.675
 6423 1  59.442385 -3.044470e+01  1.675
 6424 1  58.203208 -2.975127e+01  1.675
 6425 1  58.184144 -2.833140e+01  1.675
 6426 1  59.404257 -2.760495e+01  1.675
 6427 1  56.983095 -3.047772e+01  1.675
 6428 1  55.743918 -2.978429e+01  1.675
 6429 1  55.724853 -2.836442e+01  1.675
 6430 1  56.944966 -2.763797e+01  1.675
 6431 1  54.523804 -3.051074e+01  1.675
 6432 1  53.284627 -2.981731e+01  1.675
 6433 1  53.265563 -2.839744e+01  1.675
 6434 1  54.485676 -2.767099e+01  1.675
 6435 1  52.064514 -3.054376e+01  1.675
 6436 1  50.825337 -2.985033e+01  1.675
 6437 1  50.806272 -2.843046e+01  1.675
 6438 1  52.026385 -2.770401e+01  1.675
 6439 1  49.605223 -3.057678e+01  1.675
 6440 1  48.366046 -2.988335e+01  1.675
 6441 1  48.346982 -2.846348e+01  1.675
 6442 1  49.567095 -2.773703e+01  1.675
 6443 1  47.145933 -3.060980e+01  1.675
 6444 1  45.906756 -2.991637e+01  1.675
 6445 1  45.887691 -2.849650e+01  1.675
 6446 1  47.107804 -2.777006e+01  1.675
 6447 1  44.686643 -3.064282e+01  1.675
 6448 1  43.447465 -2.994939e+01  1.675
 6449 1  43.428401 -2.852952e+01  1.675
 6450 1  44.648514 -2.780308e+01  1.675
 6451 1  42.227352 -3.067584e+01  1.675
 6452 1  40.988175 -2.998241e+01  1.675
 6453 1  40.969110 -2.856254e+01  1.675
 6454 1  42.189223 -2.783610e+01  1.675
 6455 1  39.768062 -3.070886e+01  1.675
 6456 1  38.528884 -3.001543e+01  1.675
 6457 1  38.509820 -2.859556e+01  1.675
 6458 1  39.729933 -2.786912e+01  1.675
 6459 1  37.308771 -3.074188e+01  1.675
 6460 1  36.069594 -3.004845e+01  1.675
 6461 1  36.050529 -2.862858e+01  1.675
 6462 1  37.270643 -2.790214e+01  1.675
 6463 1  34.849481 -3.077490e+01  1.675
 6464 1  33.610303 -3.008147e+01  1.675
 6465 1  33.591239 -2.866160e+01  1.675
 6466 1  34.811352 -2.793516e+01  1.675
 6467 1  32.390190 -3.080792e+01  1.675
 6468 1  31.151013 -3.011449e+01  1.675
 6469 1  31.131948 -2.869462e+01  1.675
 6470 1  32.352062 -2.796818e+01  1.675
 6471 1  29.930900 -3.084094e+01  1.675
 6472 1  28.691722 -3.014752e+01  1.675
 6473 1  28.672658 -2.872764e+01  1.675
 6474 1  29.892771 -2.800120e+01  1.675
 6475 1  27.471609 -3.087396e+01  1.675
 6476 1  26.232432 -3.018054e+01  1.675
 6477 1  26.213368 -2.876066e+01  1.675
 6478 1  27.433481 -2.803422e+01  1.675
 6479 1  25.012319 -3.090698e+01  1.675
 6480 1  23.773141 -3.021356e+01  1.675
 6481 1  23.754077 -2.879368e+01  1.675
 6482 1  24.974190 -2.806724e+01  1.675
 6483 1  22.553028 -3.094000e+01  1.675
 6484 1  21.313851 -3.024658e+01  1.675
 6485 1  21.294787 -2.882670e+01  1.675
 6486 1  22.514900 -2.810026e+01  1.675
 6487 1  20.093738 -3.097302e+01  1.675
 6488 1  18.854560 -3.027960e+01  1.675
 6489 1  18.835496 -2.885972e+01  1.675
 6490 1  20.055609 -2.813328e+01  1.675
 6491 1  17.634447 -3.100604e+01  1.675
 6492 1  16.395270 -3.031262e+01  1.675
 6493 1  16.376206 -2.889274e+01  1.675
 6494 1  17.596319 -2.816630e+01  1.675
 6495 1  15.175157 -3.103906e+01  1.675
 6496 1  13.935979 -3.034564e+01  1.675
 6497 1  13.916915 -2.892576e+01  1.675
 6498 1  15.137028 -2.819932e+01  1.675
 6499 1  12.715866 -3.107208e+01  1.675
 6500 1  11.476689 -3.037866e+01  1.675
 6501 1  11.457625 -2.895879e+01  1.675
 6502 1  12.677738 -2.823234e+01  1.675
 6503 1  10.256576 -3.110510e+01  1.675
 6504 1   9.017398 -3.041168e+01  1.675
 6505 1   8.998334 -2.899181e+01  1.675
 6506 1  10.218447 -2.826536e+01  1.675
 6507 1   7.797285 -3.113812e+01  1.675
 6508 1   6.558108 -3.044470e+01  1.675
 6509 1   6.539044 -2.902483e+01  1.675
 6510 1   7.759157 -2.829838e+01  1.675
 6511 1   5.337995 -3.117114e+01  1.675
 6512 1   4.098817 -3.047772e+01  1.675
 6513 1   4.079753 -2.905785e+01  1.675
 6514 1   5.299866 -2.833140e+01  1.675
 6515 1   2.878704 -3.120416e+01  1.675
 6516 1   1.639527 -3.051074e+01  1.675
 6517 1   1.620463 -2.909087e+01  1.675
 6518 1   2.840576 -2.836442e+01  1.675
 6519 1   0.419414 -3.123718e+01  1.675
 6520 1  -0.819763 -3.054376e+01  1.675
 6521 1  -0.838828 -2.912389e+01  1.675
 6522 1   0.381285 -2.839744e+01  1.675
 6523 1  -2.039877 -3.127020e+01  1.675
 6524 1  -3.279054 -3.057678e+01  1.675
 6525 1  -3.298118 -2.915691e+01  1.675
 6526 1  -2.078005 -2.843046e+01  1.675
 6527 1  -4.499167 -3.130323e+01  1.675
 6528 1  -5.738344 -3.060980e+01  1.675
 6529 1  -5.757409 -2.918993e+01  1.675
 6530 1  -4.537296 -2.846348e+01  1.675
 6531 1  -6.958458 -3.133625e+01  1.675
 6532 1  -8.197635 -3.064282e+01  1.675
 6533 1  -8.216699 -2.922295e+01  1.675
 6534 1  -6.996586 -2.849650e+01  1.675
 6535 1  -9.417748 -3.136927e+01  1.675
 6536 1 -10.656925 -3.067584e+01  1.675
 6537 1 -10.675990 -2.925597e+01  1.675
 6538 1  -9.455877 -2.852952e+01  1.675
 6539 1 -11.877039 -3.140229e+01  1.675
 6540 1 -13.116216 -3.070886e+01  1.675
 6541 1 -13.135280 -2.928899e+01  1.675
 6542 1 -11.915167 -2.856254e+01  1.675
 6543 1 -14.336329 -3.143531e+01  1.675
 6544 1 -15.575506 -3.074188e+01  1.675
 6545 1 -15.594571 -2.932201e+01  1.675
 6546 1 -14.374458 -2.859556e+01  1.675
 6547 1 -16.795619 -3.146833e+01  1.675
 6548 1 -18.034797 -3.077490e+01  1.675
 6549 1 -18.053861 -2.935503e+01  1.675
 6550 1 -16.833748 -2.862858e+01  1.675
 6551 1 -19.254910 -3.150135e+01  1.675
 6552 1 -20.494087 -3.080792e+01  1.675
 6553 1 -20.513152 -2.938805e+01  1.675
 6554 1 -19.293038 -2.866160e+01  1.675
 6555 1 -21.714200 -3.153437e+01  1.675
 6556 1 -22.953378 -3.084094e+01  1.675
 6557 1 -22.972442 -2.942107e+01  1.675
 6558 1 -21.752329 -2.869462e+01  1.675
 6559 1 -24.173491 -3.156739e+01  1.675
 6560 1 -25.412668 -3.087396e+01  1.675
 6561 1 -25.431733 -2.945409e+01  1.675
 6562 1 -24.211619 -2.872764e+01  1.675
 6563 1 -26.632781 -3.160041e+01  1.675
 6564 1 -27.871959 -3.090698e+01  1.675
 6565 1 -27.891023 -2.948711e+01  1.675
 6566 1 -26.670910 -2.876066e+01  1.675
 6567 1 -29.092072 -3.163343e+01  1.675
 6568 1 -30.331249 -3.094000e+01  1.675
 6569 1 -30.350314 -2.952013e+01  1.675
 6570 1 -29.130200 -2.879368e+01  1.675
 6571 1 -31.551362 -3.166645e+01  1.675
 6572 1 -32.790540 -3.097302e+01  1.675
 6573 1 -32.809604 -2.955315e+01  1.675
 6574 1 -31.589491 -2.882670e+01  1.675
 6575 1 -34.010653 -3.169947e+01  1.675
 6576 1 -35.249830 -3.100604e+01  1.675
 6577 1 -35.268894 -2.958617e+01  1.675
 6578 1 -34.048781 -2.885972e+01  1.675
 6579 1 -36.469943 -3.173249e+01  1.675
 6580 1 -37.709121 -3.103906e+01  1.675
 6581 1 -37.728185 -2.961919e+01  1.675
 6582 1 -36.508072 -2.889274e+01  1.675
 6583 1 -38.929234 -3.176551e+01  1.675
 6584 1 -40.168411 -3.107208e+01  1.675
 6585 1 -40.187475 -2.965221e+01  1.675
 6586 1 -38.967362 -2.892576e+01  1.675
 6587 1 -41.388524 -3.179853e+01  1.675
 6588 1 -42.627702 -3.110510e+01  1.675
 6589 1 -42.646766 -2.968523e+01  1.675
 6590 1 -41.426653 -2.895879e+01  1.675
 6591 1 -43.847815 -3.183155e+01  1.675
 6592 1 -45.086992 -3.113812e+01  1.675
 6593 1 -45.106056 -2.971825e+01  1.675
 6594 1 -43.885943 -2.899181e+01  1.675
 6595 1 -46.307105 -3.186457e+01  1.675
 6596 1 -47.546283 -3.117114e+01  1.675
 6597 1 -47.565347 -2.975127e+01  1.675
 6598 1 -46.345234 -2.902483e+01  1.675
 6599 1 -48.766396 -3.189759e+01  1.675
 6600 1 -50.005573 -3.120416e+01  1.675
 6601 1 -50.024637 -2.978429e+01  1.675
 6602 1 -48.804524 -2.905785e+01  1.675
 6603 1 -51.225686 -3.193061e+01  1.675
 6604 1 -52.464864 -3.123718e+01  1.675
 6605 1 -52.483928 -2.981731e+01  1.675
 6606 1 -51.263815 -2.909087e+01  1.675
 6607 1 -53.684977 -3.196363e+01  1.675
 6608 1 -54.924154 -3.127020e+01  1.675
 6609 1 -54.943218 -2.985033e+01  1.675
 6610 1 -53.723105 -2.912389e+01  1.675
 6611 1 -56.144267 -3.199665e+01  1.675
 6612 1 -57.383445 -3.130323e+01  1.675
 6613 1 -57.402509 -2.988335e+01  1.675
 6614 1 -56.182396 -2.915691e+01  1.675
 6615 1 -58.603558 -3.202967e+01  1.675
 6616 1 -59.842735 -3.133625e+01  1.675
 6617 1 -59.861799 -2.991637e+01  1.675
 6618 1 -58.641686 -2.918993e+01  1.675
 6619 1 -61.062848 -3.206269e+01  1.675
 6620 1 -62.302025 -3.136927e+01  1.675
 6621 1 -62.321090 -2.994939e+01  1.675
 6622 1 -61.100977 -2.922295e+01  1.675
 6623 1 -63.522139 -3.209571e+01  1.675
 6624 1 -64.761316 -3.140229e+01  1.675
 6625 1 -64.780380 -2.998241e+01  1.675
 6626 1 -63.560267 -2.925597e+01  1.675
 6627 1 -65.981429 -3.212873e+01  1.675
 6628 1 -67.220606 -3.143531e+01  1.675
 6629 1 -67.239671 -3.001543e+01  1.675
 6630 1 -66.019558 -2.928899e+01  1.675
 6631 1 -68.440720 -3.216175e+01  1.675
 6632 1 -69.679897 -3.146833e+01  1.675
 6633 1 -69.698961 -3.004845e+01  1.675
 6634 1 -68.478848 -2.932201e+01  1.675
 6635 1 -70.900010 -3.219477e+01  1.675
 6636 1 -72.139187 -3.150135e+01  1.675
 6637 1 -72.158252 -3.008147e+01  1.675
 6638 1 -70.938139 -2.935503e+01  1.675
 6639 1 -73.359300 -3.222779e+01  1.675
 6640 1 -74.598478 -3.153437e+01  1.675
 6641 1 -74.617542 -3.011449e+01  1.675
 6642 1 -73.397429 -2.938805e+01  1.675
 6643 1 -75.818591 -3.226081e+01  1.675
 6644 1 -77.057768 -3.156739e+01  1.675
 6645 1 -77.076833 -3.014752e+01  1.675
 6646 1 -75.856720 -2.942107e+01  1.675
 6647 1 -78.277881 -3.229383e+01  1.675
 6648 1 -78.316010 -2.945409e+01  1.675
 6649 1  79.059516 -2.592092e+01  1.675
 6650 1  77.820339 -2.522749e+01  1.675
 6651 1  77.801275 -2.380762e+01  1.675
 6652 1  79.021388 -2.308118e+01  1.675
 6653 1  76.600226 -2.595394e+01  1.675
 6654 1  75.361049 -2.526051e+01  1.675
 6655 1  75.341984 -2.384064e+01  1.675
 6656 1  76.562097 -2.311420e+01  1.675
 6657 1  74.140935 -2.598696e+01  1.675
 6658 1  72.901758 -2.529353e+01  1.675
 6659 1  72.882694 -2.387366e+01  1.675
 6660 1  74.102807 -2.314722e+01  1.675
 6661 1  71.681645 -2.601998e+01  1.675
 6662 1  70.442468 -2.532655e+01  1.675
 6663 1  70.423403 -2.390668e+01  1.675
 6664 1  71.643516 -2.318024e+01  1.675
 6665 1  69.222354 -2.605300e+01  1.675
 6666 1  67.983177 -2.535957e+01  1.675
 6667 1  67.964113 -2.393970e+01  1.675
 6668 1  69.184226 -2.321326e+01  1.675
 6669 1  66.763064 -2.608602e+01  1.675
 6670 1  65.523887 -2.539259e+01  1.675
 6671 1  65.504822 -2.397272e+01  1.675
 6672 1  66.724935 -2.324628e+01  1.675
 6673 1  64.303774 -2.611904e+01  1.675
 6674 1  63.064596 -2.542562e+01  1.675
 6675 1  63.045532 -2.400574e+01  1.675
 6676 1  64.265645 -2.327930e+01  1.675
 6677 1  61.844483 -2.615206e+01  1.675
 6678 1  60.605306 -2.545864e+01  1.675
 6679 1  60.586241 -2.403876e+01  1.675
 6680 1  61.806355 -2.331232e+01  1.675
 6681 1  59.385193 -2.618508e+01  1.675
 6682 1  58.146015 -2.549166e+01  1.675
 6683 1  58.126951 -2.407178e+01  1.675
 6684 1  59.347064 -2.334534e+01  1.675
 6685 1  56.925902 -2.621810e+01  1.675
 6686 1  55.686725 -2.552468e+01  1.675
 6687 1  55.667660 -2.410480e+01  1.675
 6688 1  56.887774 -2.337836e+01  1.675
 6689 1  54.466612 -2.625112e+01  1.675
 6690 1  53.227434 -2.555770e+01  1.675
 6691 1  53.208370 -2.413782e+01  1.675
 6692 1  54.428483 -2.341138e+01  1.675
 6693 1  52.007321 -2.628414e+01  1.675
 6694 1  50.768144 -2.559072e+01  1.675
 6695 1  50.749080 -2.417084e+01  1.675
 6696 1  51.969193 -2.344440e+01  1.675
 6697 1  49.548031 -2.631716e+01  1.675
 6698 1  48.308853 -2.562374e+01  1.675
 6699 1  48.289789 -2.420386e+01  1.675
 6700 1  49.509902 -2.347742e+01  1.675
 6701 1  47.088740 -2.635018e+01  1.675
 6702 1  45.849563 -2.565676e+01  1.675
 6703 1  45.830499 -2.423689e+01  1.675
 6704 1  47.050612 -2.351044e+01  1.675
 6705 1  44.629450 -2.638320e+01  1.675
 6706 1  43.390272 -2.568978e+01  1.675
 6707 1  43.371208 -2.426991e+01  1.675
 6708 1  44.591321 -2.354346e+01  1.675
 6709 1  42.170159 -2.641622e+01  1.675
 6710 1  40.930982 -2.572280e+01  1.675
 6711 1  40.911918 -2.430293e+01  1.675
 6712 1  42.132031 -2.357648e+01  1.675
 6713 1  39.710869 -2.644924e+01  1.675
 6714 1  38.471691 -2.575582e+01  1.675
 6715 1  38.452627 -2.433595e+01  1.675
 6716 1  39.672740 -2.360950e+01  1.675
 6717 1  37.251578 -2.648226e+01  1.675
 6718 1  36.012401 -2.578884e+01  1.675
 6719 1  35.993337 -2.436897e+01  1.675
 6720 1  37.213450 -2.364252e+01  1.675
 6721 1  34.792288 -2.651528e+01  1.675
 6722 1  33.553110 -2.582186e+01  1.675
 6723 1  33.534046 -2.440199e+01  1.675
 6724 1  34.754159 -2.367554e+01  1.675
 6725 1  32.332997 -2.654830e+01  1.675
 6726 1  31.093820 -2.585488e+01  1.675
 6727 1  31.074756 -2.443501e+01  1.675
 6728 1  32.294869 -2.370856e+01  1.675
 6729 1  29.873707 -2.658133e+01  1.675
 6730 1  28.634529 -2.588790e+01  1.675
 6731 1  28.615465 -2.446803e+01  1.675
 6732 1  29.835578 -2.374158e+01  1.675
 6733 1  27.414416 -2.661435e+01  1.675
 6734 1  26.175239 -2.592092e+01  1.675
 6735 1  26.156175 -2.450105e+01  1.675
 6736 1  27.376288 -2.377460e+01  1.675
 6737 1  24.955126 -2.664737e+01  1.675
 6738 1  23.715948 -2.595394e+01  1.675
 6739 1  23.696884 -2.453407e+01  1.675
 6740 1  24.916997 -2.380762e+01  1.675
 6741 1  22.495835 -2.668039e+01  1.675
 6742 1  21.256658 -2.598696e+01  1.675
 6743 1  21.237594 -2.456709e+01  1.675
 6744 1  22.457707 -2.384064e+01  1.675
 6745 1  20.036545 -2.671341e+01  1.675
 6746 1  18.797368 -2.601998e+01  1.675
 6747 1  18.778303 -2.460011e+01  1.675
 6748 1  19.998416 -2.387366e+01  1.675
 6749 1  17.577254 -2.674643e+01  1.675
 6750 1  16.338077 -2.605300e+01  1.675
 6751 1  16.319013 -2.463313e+01  1.675
 6752 1  17.539126 -2.390668e+01  1.675
 6753 1  15.117964 -2.677945e+01  1.675
 6754 1  13.878787 -2.608602e+01  1.675
 6755 1  13.859722 -2.466615e+01  1.675
 6756 1  15.079835 -2.393970e+01  1.675
 6757 1  12.658673 -2.681247e+01  1.675
 6758 1  11.419496 -2.611904e+01  1.675
 6759 1  11.400432 -2.469917e+01  1.675
 6760 1  12.620545 -2.397272e+01  1.675
 6761 1  10.199383 -2.684549e+01  1.675
 6762 1   8.960206 -2.615206e+01  1.675
 6763 1   8.941141 -2.473219e+01  1.675
 6764 1  10.161254 -2.400574e+01  1.675
 6765 1   7.740093 -2.687851e+01  1.675
 6766 1   6.500915 -2.618508e+01  1.675
 6767 1   6.481851 -2.476521e+01  1.675
 6768 1   7.701964 -2.403876e+01  1.675
 6769 1   5.280802 -2.691153e+01  1.675
 6770 1   4.041625 -2.621810e+01  1.675
 6771 1   4.022560 -2.479823e+01  1.675
 6772 1   5.242674 -2.407178e+01  1.675
 6773 1   2.821512 -2.694455e+01  1.675
 6774 1   1.582334 -2.625112e+01  1.675
 6775 1   1.563270 -2.483125e+01  1.675
 6776 1   2.783383 -2.410480e+01  1.675
 6777 1   0.362221 -2.697757e+01  1.675
 6778 1  -0.876956 -2.628414e+01  1.675
 6779 1  -0.896021 -2.486427e+01  1.675
 6780 1   0.324093 -2.413782e+01  1.675
 6781 1  -2.097069 -2.701059e+01  1.675
 6782 1  -3.336247 -2.631716e+01  1.675
 6783 1  -3.355311 -2.489729e+01  1.675
 6784 1  -2.135198 -2.417084e+01  1.675
 6785 1  -4.556360 -2.704361e+01  1.675
 6786 1  -5.795537 -2.635018e+01  1.675
 6787 1  -5.814602 -2.493031e+01  1.675
 6788 1  -4.594488 -2.420386e+01  1.675
 6789 1  -7.015650 -2.707663e+01  1.675
 6790 1  -8.254828 -2.638320e+01  1.675
 6791 1  -8.273892 -2.496333e+01  1.675
 6792 1  -7.053779 -2.423689e+01  1.675
 6793 1  -9.474941 -2.710965e+01  1.675
 6794 1 -10.714118 -2.641622e+01  1.675
 6795 1 -10.733182 -2.499635e+01  1.675
 6796 1  -9.513069 -2.426991e+01  1.675
 6797 1 -11.934231 -2.714267e+01  1.675
 6798 1 -13.173409 -2.644924e+01  1.675
 6799 1 -13.192473 -2.502937e+01  1.675
 6800 1 -11.972360 -2.430293e+01  1.675
 6801 1 -14.393522 -2.717569e+01  1.675
 6802 1 -15.632699 -2.648226e+01  1.675
 6803 1 -15.651763 -2.506239e+01  1.675
 6804 1 -14.431650 -2.433595e+01  1.675
 6805 1 -16.852812 -2.720871e+01  1.675
 6806 1 -18.091990 -2.651528e+01  1.675
 6807 1 -18.111054 -2.509541e+01  1.675
 6808 1 -16.890941 -2.436897e+01  1.675
 6809 1 -19.312103 -2.724173e+01  1.675
 6810 1 -20.551280 -2.654830e+01  1.675
 6811 1 -20.570344 -2.512843e+01  1.675
 6812 1 -19.350231 -2.440199e+01  1.675
 6813 1 -21.771393 -2.727475e+01  1.675
 6814 1 -23.010571 -2.658133e+01  1.675
 6815 1 -23.029635 -2.516145e+01  1.675
 6816 1 -21.809522 -2.443501e+01  1.675
 6817 1 -24.230684 -2.730777e+01  1.675
 6818 1 -25.469861 -2.661435e+01  1.675
 6819 1 -25.488925 -2.519447e+01  1.675
 6820 1 -24.268812 -2.446803e+01  1.675
 6821 1 -26.689974 -2.734079e+01  1.675
 6822 1 -27.929152 -2.664737e+01  1.675
 6823 1 -27.948216 -2.522749e+01  1.675
 6824 1 -26.728103 -2.450105e+01  1.675
 6825 1 -29.149265 -2.737381e+01  1.675
 6826 1 -30.388442 -2.668039e+01  1.675
 6827 1 -30.407506 -2.526051e+01  1.675
 6828 1 -29.187393 -2.453407e+01  1.675
 6829 1 -31.608555 -2.740683e+01  1.675
 6830 1 -32.847733 -2.671341e+01  1.675
 6831 1 -32.866797 -2.529353e+01  1.675
 6832 1 -31.646684 -2.456709e+01  1.675
 6833 1 -34.067846 -2.743985e+01  1.675
 6834 1 -35.307023 -2.674643e+01  1.675
 6835 1 -35.326087 -2.532655e+01  1.675
 6836 1 -34.105974 -2.460011e+01  1.675
 6837 1 -36.527136 -2.747287e+01  1.675
 6838 1 -37.766313 -2.677945e+01  1.675
 6839 1 -37.785378 -2.535957e+01  1.675
 6840 1 -36.565265 -2.463313e+01  1.675
 6841 1 -38.986427 -2.750589e+01  1.675
 6842 1 -40.225604 -2.681247e+01  1.675
 6843 1 -40.244668 -2.539259e+01  1.675
 6844 1 -39.024555 -2.466615e+01  1.675
 6845 1 -41.445717 -2.753891e+01  1.675
 6846 1 -42.684894 -2.684549e+01  1.675
 6847 1 -42.703959 -2.542562e+01  1.675
 6848 1 -41.483846 -2.469917e+01  1.675
 6849 1 -43.905008 -2.757193e+01  1.675
 6850 1 -45.144185 -2.687851e+01  1.675
 6851 1 -45.163249 -2.545864e+01  1.675
 6852 1 -43.943136 -2.473219e+01  1.675
 6853 1 -46.364298 -2.760495e+01  1.675
 6854 1 -47.603475 -2.691153e+01  1.675
 6855 1 -47.622540 -2.549166e+01  1.675
 6856 1 -46.402427 -2.476521e+01  1.675
 6857 1 -48.823589 -2.763797e+01  1.675
 6858 1 -50.062766 -2.694455e+01  1.675
 6859 1 -50.081830 -2.552468e+01  1.675
 6860 1 -48.861717 -2.479823e+01  1.675
 6861 1 -51.282879 -2.767099e+01  1.675
 6862 1 -52.522056 -2.697757e+01  1.675
 6863 1 -52.541121 -2.555770e+01  1.675
 6864 1 -51.321008 -2.483125e+01  1.675
 6865 1 -53.742169 -2.770401e+01  1.675
 6866 1 -54.981347 -2.701059e+01  1.675
 6867 1 -55.000411 -2.559072e+01  1.675
 6868 1 -53.780298 -2.486427e+01  1.675
 6869 1 -56.201460 -2.773703e+01  1.675
 6870 1 -57.440637 -2.704361e+01  1.675
 6871 1 -57.459702 -2.562374e+01  1.675
 6872 1 -56.239588 -2.489729e+01  1.675
 6873 1 -58.660750 -2.777006e+01  1.675
 6874 1 -59.899928 -2.707663e+01  1.675
 6875 1 -59.918992 -2.565676e+01  1.675
 6876 1 -58.698879 -2.493031e+01  1.675
 6877 1 -61.120041 -2.780308e+01  1.675
 6878 1 -62.359218 -2.710965e+01  1.675
 6879 1 -62.378283 -2.568978e+01  1.675
 6880 1 -61.158169 -2.496333e+01  1.675
 6881 1 -63.579331 -2.783610e+01  1.675
 6882 1 -64.818509 -2.714267e+01  1.675
 6883 1 -64.837573 -2.572280e+01  1.675
 6884 1 -63.617460 -2.499635e+01  1.675
 6885 1 -66.038622 -2.786912e+01  1.675
 6886 1 -67.277799 -2.717569e+01  1.675
 6887 1 -67.296864 -2.575582e+01  1.675
 6888 1 -66.076750 -2.502937e+01  1.675
 6889 1 -68.497912 -2.790214e+01  1.675
 6890 1 -69.737090 -2.720871e+01  1.675
 6891 1 -69.756154 -2.578884e+01  1.675
 6892 1 -68.536041 -2.506239e+01  1.675
 6893 1 -70.957203 -2.793516e+01  1.675
 6894 1 -72.196380 -2.724173e+01  1.675
 6895 1 -72.215444 -2.582186e+01  1.675
 6896 1 -70.995331 -2.509541e+01  1.675
 6897 1 -73.416493 -2.796818e+01  1.675
 6898 1 -74.655671 -2.727475e+01  1.675
 6899 1 -74.674735 -2.585488e+01  1.675
 6900 1 -73.454622 -2.512843e+01  1.675
 6901 1 -75.875784 -2.800120e+01  1.675
 6902 1 -77.114961 -2.730777e+01  1.675
 6903 1 -77.134025 -2.588790e+01  1.675
 6904 1 -75.913912 -2.516145e+01  1.675
 6905 1 -78.335074 -2.803422e+01  1.675
 6906 1 -78.373203 -2.519447e+01  1.675
 6907 1  79.002324 -2.166130e+01  1.675
 6908 1  77.763146 -2.096788e+01  1.675
 6909 1  77.744082 -1.954801e+01  1.675
 6910 1  78.964195 -1.882156e+01  1.675
 6911 1  76.543033 -2.169432e+01  1.675
 6912 1  75.303856 -2.100090e+01  1.675
 6913 1  75.284791 -1.958103e+01  1.675
 6914 1  76.504905 -1.885458e+01  1.675
 6915 1  74.083743 -2.172734e+01  1.675
 6916 1  72.844565 -2.103392e+01  1.675
 6917 1  72.825501 -1.961405e+01  1.675
 6918 1  74.045614 -1.888760e+01  1.675
 6919 1  71.624452 -2.176036e+01  1.675
 6920 1  70.385275 -2.106694e+01  1.675
 6921 1  70.366211 -1.964707e+01  1.675
 6922 1  71.586324 -1.892062e+01  1.675
 6923 1  69.165162 -2.179338e+01  1.675
 6924 1  67.925984 -2.109996e+01  1.675
 6925 1  67.906920 -1.968009e+01  1.675
 6926 1  69.127033 -1.895364e+01  1.675
 6927 1  66.705871 -2.182640e+01  1.675
 6928 1  65.466694 -2.113298e+01  1.675
 6929 1  65.447630 -1.971311e+01  1.675
 6930 1  66.667743 -1.898666e+01  1.675
 6931 1  64.246581 -2.185943e+01  1.675
 6932 1  63.007403 -2.116600e+01  1.675
 6933 1  62.988339 -1.974613e+01  1.675
 6934 1  64.208452 -1.901968e+01  1.675
 6935 1  61.787290 -2.189245e+01  1.675
 6936 1  60.548113 -2.119902e+01  1.675
 6937 1  60.529049 -1.977915e+01  1.675
 6938 1  61.749162 -1.905270e+01  1.675
 6939 1  59.328000 -2.192547e+01  1.675
 6940 1  58.088822 -2.123204e+01  1.675
 6941 1  58.069758 -1.981217e+01  1.675
 6942 1  59.289871 -1.908572e+01  1.675
 6943 1  56.868709 -2.195849e+01  1.675
 6944 1  55.629532 -2.126506e+01  1.675
 6945 1  55.610468 -1.984519e+01  1.675
 6946 1  56.830581 -1.911874e+01  1.675
 6947 1  54.409419 -2.199151e+01  1.675
 6948 1  53.170241 -2.129808e+01  1.675
 6949 1  53.151177 -1.987821e+01  1.675
 6950 1  54.371290 -1.915176e+01  1.675
 6951 1  51.950128 -2.202453e+01  1.675
 6952 1  50.710951 -2.133110e+01  1.675
 6953 1  50.691887 -1.991123e+01  1.675
 6954 1  51.912000 -1.918478e+01  1.675
 6955 1  49.490838 -2.205755e+01  1.675
 6956 1  48.251660 -2.136412e+01  1.675
 6957 1  48.232596 -1.994425e+01  1.675
 6958 1  49.452709 -1.921780e+01  1.675
 6959 1  47.031547 -2.209057e+01  1.675
 6960 1  45.792370 -2.139714e+01  1.675
 6961 1  45.773306 -1.997727e+01  1.675
 6962 1  46.993419 -1.925082e+01  1.675
 6963 1  44.572257 -2.212359e+01  1.675
 6964 1  43.333080 -2.143016e+01  1.675
 6965 1  43.314015 -2.001029e+01  1.675
 6966 1  44.534128 -1.928384e+01  1.675
 6967 1  42.112966 -2.215661e+01  1.675
 6968 1  40.873789 -2.146318e+01  1.675
 6969 1  40.854725 -2.004331e+01  1.675
 6970 1  42.074838 -1.931686e+01  1.675
 6971 1  39.653676 -2.218963e+01  1.675
 6972 1  38.414499 -2.149620e+01  1.675
 6973 1  38.395434 -2.007633e+01  1.675
 6974 1  39.615547 -1.934988e+01  1.675
 6975 1  37.194385 -2.222265e+01  1.675
 6976 1  35.955208 -2.152922e+01  1.675
 6977 1  35.936144 -2.010935e+01  1.675
 6978 1  37.156257 -1.938290e+01  1.675
 6979 1  34.735095 -2.225567e+01  1.675
 6980 1  33.495918 -2.156224e+01  1.675
 6981 1  33.476853 -2.014237e+01  1.675
 6982 1  34.696966 -1.941592e+01  1.675
 6983 1  32.275805 -2.228869e+01  1.675
 6984 1  31.036627 -2.159526e+01  1.675
 6985 1  31.017563 -2.017539e+01  1.675
 6986 1  32.237676 -1.944894e+01  1.675
 6987 1  29.816514 -2.232171e+01  1.675
 6988 1  28.577337 -2.162828e+01  1.675
 6989 1  28.558272 -2.020841e+01  1.675
 6990 1  29.778385 -1.948196e+01  1.675
 6991 1  27.357224 -2.235473e+01  1.675
 6992 1  26.118046 -2.166130e+01  1.675
 6993 1  26.098982 -2.024143e+01  1.675
 6994 1  27.319095 -1.951499e+01  1.675
 6995 1  24.897933 -2.238775e+01  1.675
 6996 1  23.658756 -2.169432e+01  1.675
 6997 1  23.639691 -2.027445e+01  1.675
 6998 1  24.859805 -1.954801e+01  1.675
 6999 1  22.438643 -2.242077e+01  1.675
 7000 1  21.199465 -2.172734e+01  1.675
 7001 1  21.180401 -2.030747e+01  1.675
 7002 1  22.400514 -1.958103e+01  1.675
 7003 1  19.979352 -2.245379e+01  1.675
 7004 1  18.740175 -2.176036e+01  1.675
 7005 1  18.721110 -2.034049e+01  1.675
 7006 1  19.941224 -1.961405e+01  1.675
 7007 1  17.520062 -2.248681e+01  1.675
 7008 1  16.280884 -2.179338e+01  1.675
 7009 1  16.261820 -2.037351e+01  1.675
 7010 1  17.481933 -1.964707e+01  1.675
 7011 1  15.060771 -2.251983e+01  1.675
 7012 1  13.821594 -2.182640e+01  1.675
 7013 1  13.802530 -2.040653e+01  1.675
 7014 1  15.022643 -1.968009e+01  1.675
 7015 1  12.601481 -2.255285e+01  1.675
 7016 1  11.362303 -2.185943e+01  1.675
 7017 1  11.343239 -2.043955e+01  1.675
 7018 1  12.563352 -1.971311e+01  1.675
 7019 1  10.142190 -2.258587e+01  1.675
 7020 1   8.903013 -2.189245e+01  1.675
 7021 1   8.883949 -2.047257e+01  1.675
 7022 1  10.104062 -1.974613e+01  1.675
 7023 1   7.682900 -2.261889e+01  1.675
 7024 1   6.443722 -2.192547e+01  1.675
 7025 1   6.424658 -2.050559e+01  1.675
 7026 1   7.644771 -1.977915e+01  1.675
 7027 1   5.223609 -2.265191e+01  1.675
 7028 1   3.984432 -2.195849e+01  1.675
 7029 1   3.965368 -2.053861e+01  1.675
 7030 1   5.185481 -1.981217e+01  1.675
 7031 1   2.764319 -2.268493e+01  1.675
 7032 1   1.525141 -2.199151e+01  1.675
 7033 1   1.506077 -2.057163e+01  1.675
 7034 1   2.726190 -1.984519e+01  1.675
 7035 1   0.305028 -2.271795e+01  1.675
 7036 1  -0.934149 -2.202453e+01  1.675
 7037 1  -0.953213 -2.060465e+01  1.675
 7038 1   0.266900 -1.987821e+01  1.675
 7039 1  -2.154262 -2.275097e+01  1.675
 7040 1  -3.393440 -2.205755e+01  1.675
 7041 1  -3.412504 -2.063767e+01  1.675
 7042 1  -2.192391 -1.991123e+01  1.675
 7043 1  -4.613553 -2.278399e+01  1.675
 7044 1  -5.852730 -2.209057e+01  1.675
 7045 1  -5.871794 -2.067069e+01  1.675
 7046 1  -4.651681 -1.994425e+01  1.675
 7047 1  -7.072843 -2.281701e+01  1.675
 7048 1  -8.312021 -2.212359e+01  1.675
 7049 1  -8.331085 -2.070372e+01  1.675
 7050 1  -7.110972 -1.997727e+01  1.675
 7051 1  -9.532134 -2.285003e+01  1.675
 7052 1 -10.771311 -2.215661e+01  1.675
 7053 1 -10.790375 -2.073674e+01  1.675
 7054 1  -9.570262 -2.001029e+01  1.675
 7055 1 -11.991424 -2.288305e+01  1.675
 7056 1 -13.230601 -2.218963e+01  1.675
 7057 1 -13.249666 -2.076976e+01  1.675
 7058 1 -12.029553 -2.004331e+01  1.675
 7059 1 -14.450715 -2.291607e+01  1.675
 7060 1 -15.689892 -2.222265e+01  1.675
 7061 1 -15.708956 -2.080278e+01  1.675
 7062 1 -14.488843 -2.007633e+01  1.675
 7063 1 -16.910005 -2.294909e+01  1.675
 7064 1 -18.149182 -2.225567e+01  1.675
 7065 1 -18.168247 -2.083580e+01  1.675
 7066 1 -16.948134 -2.010935e+01  1.675
 7067 1 -19.369296 -2.298211e+01  1.675
 7068 1 -20.608473 -2.228869e+01  1.675
 7069 1 -20.627537 -2.086882e+01  1.675
 7070 1 -19.407424 -2.014237e+01  1.675
 7071 1 -21.828586 -2.301513e+01  1.675
 7072 1 -23.067763 -2.232171e+01  1.675
 7073 1 -23.086828 -2.090184e+01  1.675
 7074 1 -21.866715 -2.017539e+01  1.675
 7075 1 -24.287877 -2.304816e+01  1.675
 7076 1 -25.527054 -2.235473e+01  1.675
 7077 1 -25.546118 -2.093486e+01  1.675
 7078 1 -24.326005 -2.020841e+01  1.675
 7079 1 -26.747167 -2.308118e+01  1.675
 7080 1 -27.986344 -2.238775e+01  1.675
 7081 1 -28.005409 -2.096788e+01  1.675
 7082 1 -26.785296 -2.024143e+01  1.675
 7083 1 -29.206457 -2.311420e+01  1.675
 7084 1 -30.445635 -2.242077e+01  1.675
 7085 1 -30.464699 -2.100090e+01  1.675
 7086 1 -29.244586 -2.027445e+01  1.675
 7087 1 -31.665748 -2.314722e+01  1.675
 7088 1 -32.904925 -2.245379e+01  1.675
 7089 1 -32.923990 -2.103392e+01  1.675
 7090 1 -31.703876 -2.030747e+01  1.675
 7091 1 -34.125038 -2.318024e+01  1.675
 7092 1 -35.364216 -2.248681e+01  1.675
 7093 1 -35.383280 -2.106694e+01  1.675
 7094 1 -34.163167 -2.034049e+01  1.675
 7095 1 -36.584329 -2.321326e+01  1.675
 7096 1 -37.823506 -2.251983e+01  1.675
 7097 1 -37.842571 -2.109996e+01  1.675
 7098 1 -36.622457 -2.037351e+01  1.675
 7099 1 -39.043619 -2.324628e+01  1.675
 7100 1 -40.282797 -2.255285e+01  1.675
 7101 1 -40.301861 -2.113298e+01  1.675
 7102 1 -39.081748 -2.040653e+01  1.675
 7103 1 -41.502910 -2.327930e+01  1.675
 7104 1 -42.742087 -2.258587e+01  1.675
 7105 1 -42.761152 -2.116600e+01  1.675
 7106 1 -41.541038 -2.043955e+01  1.675
 7107 1 -43.962200 -2.331232e+01  1.675
 7108 1 -45.201378 -2.261889e+01  1.675
 7109 1 -45.220442 -2.119902e+01  1.675
 7110 1 -44.000329 -2.047257e+01  1.675
 7111 1 -46.421491 -2.334534e+01  1.675
 7112 1 -47.660668 -2.265191e+01  1.675
 7113 1 -47.679732 -2.123204e+01  1.675
 7114 1 -46.459619 -2.050559e+01  1.675
 7115 1 -48.880781 -2.337836e+01  1.675
 7116 1 -50.119959 -2.268493e+01  1.675
 7117 1 -50.139023 -2.126506e+01  1.675
 7118 1 -48.918910 -2.053861e+01  1.675
 7119 1 -51.340072 -2.341138e+01  1.675
 7120 1 -52.579249 -2.271795e+01  1.675
 7121 1 -52.598313 -2.129808e+01  1.675
 7122 1 -51.378200 -2.057163e+01  1.675
 7123 1 -53.799362 -2.344440e+01  1.675
 7124 1 -55.038540 -2.275097e+01  1.675
 7125 1 -55.057604 -2.133110e+01  1.675
 7126 1 -53.837491 -2.060465e+01  1.675
 7127 1 -56.258653 -2.347742e+01  1.675
 7128 1 -57.497830 -2.278399e+01  1.675
 7129 1 -57.516894 -2.136412e+01  1.675
 7130 1 -56.296781 -2.063767e+01  1.675
 7131 1 -58.717943 -2.351044e+01  1.675
 7132 1 -59.957121 -2.281701e+01  1.675
 7133 1 -59.976185 -2.139714e+01  1.675
 7134 1 -58.756072 -2.067069e+01  1.675
 7135 1 -61.177234 -2.354346e+01  1.675
 7136 1 -62.416411 -2.285003e+01  1.675
 7137 1 -62.435475 -2.143016e+01  1.675
 7138 1 -61.215362 -2.070372e+01  1.675
 7139 1 -63.636524 -2.357648e+01  1.675
 7140 1 -64.875702 -2.288305e+01  1.675
 7141 1 -64.894766 -2.146318e+01  1.675
 7142 1 -63.674653 -2.073674e+01  1.675
 7143 1 -66.095815 -2.360950e+01  1.675
 7144 1 -67.334992 -2.291607e+01  1.675
 7145 1 -67.354056 -2.149620e+01  1.675
 7146 1 -66.133943 -2.076976e+01  1.675
 7147 1 -68.555105 -2.364252e+01  1.675
 7148 1 -69.794283 -2.294909e+01  1.675
 7149 1 -69.813347 -2.152922e+01  1.675
 7150 1 -68.593234 -2.080278e+01  1.675
 7151 1 -71.014396 -2.367554e+01  1.675
 7152 1 -72.253573 -2.298211e+01  1.675
 7153 1 -72.272637 -2.156224e+01  1.675
 7154 1 -71.052524 -2.083580e+01  1.675
 7155 1 -73.473686 -2.370856e+01  1.675
 7156 1 -74.712863 -2.301513e+01  1.675
 7157 1 -74.731928 -2.159526e+01  1.675
 7158 1 -73.511815 -2.086882e+01  1.675
 7159 1 -75.932977 -2.374158e+01  1.675
 7160 1 -77.172154 -2.304816e+01  1.675
 7161 1 -77.191218 -2.162828e+01  1.675
 7162 1 -75.971105 -2.090184e+01  1.675
 7163 1 -78.392267 -2.377460e+01  1.675
 7164 1 -78.430396 -2.093486e+01  1.675
 7165 1  78.945131 -1.740169e+01  1.675
 7166 1  77.705953 -1.670826e+01  1.675
 7167 1  77.686889 -1.528839e+01  1.675
 7168 1  78.907002 -1.456194e+01  1.675
 7169 1  76.485840 -1.743471e+01  1.675
 7170 1  75.246663 -1.674128e+01  1.675
 7171 1  75.227599 -1.532141e+01  1.675
 7172 1  76.447712 -1.459496e+01  1.675
 7173 1  74.026550 -1.746773e+01  1.675
 7174 1  72.787372 -1.677430e+01  1.675
 7175 1  72.768308 -1.535443e+01  1.675
 7176 1  73.988421 -1.462798e+01  1.675
 7177 1  71.567259 -1.750075e+01  1.675
 7178 1  70.328082 -1.680732e+01  1.675
 7179 1  70.309018 -1.538745e+01  1.675
 7180 1  71.529131 -1.466100e+01  1.675
 7181 1  69.107969 -1.753377e+01  1.675
 7182 1  67.868792 -1.684034e+01  1.675
 7183 1  67.849727 -1.542047e+01  1.675
 7184 1  69.069840 -1.469402e+01  1.675
 7185 1  66.648678 -1.756679e+01  1.675
 7186 1  65.409501 -1.687336e+01  1.675
 7187 1  65.390437 -1.545349e+01  1.675
 7188 1  66.610550 -1.472704e+01  1.675
 7189 1  64.189388 -1.759981e+01  1.675
 7190 1  62.950211 -1.690638e+01  1.675
 7191 1  62.931146 -1.548651e+01  1.675
 7192 1  64.151259 -1.476006e+01  1.675
 7193 1  61.730097 -1.763283e+01  1.675
 7194 1  60.490920 -1.693940e+01  1.675
 7195 1  60.471856 -1.551953e+01  1.675
 7196 1  61.691969 -1.479309e+01  1.675
 7197 1  59.270807 -1.766585e+01  1.675
 7198 1  58.031630 -1.697242e+01  1.675
 7199 1  58.012565 -1.555255e+01  1.675
 7200 1  59.232678 -1.482611e+01  1.675
 7201 1  56.811516 -1.769887e+01  1.675
 7202 1  55.572339 -1.700544e+01  1.675
 7203 1  55.553275 -1.558557e+01  1.675
 7204 1  56.773388 -1.485913e+01  1.675
 7205 1  54.352226 -1.773189e+01  1.675
 7206 1  53.113049 -1.703846e+01  1.675
 7207 1  53.093984 -1.561859e+01  1.675
 7208 1  54.314097 -1.489215e+01  1.675
 7209 1  51.892936 -1.776491e+01  1.675
 7210 1  50.653758 -1.707148e+01  1.675
 7211 1  50.634694 -1.565161e+01  1.675
 7212 1  51.854807 -1.492517e+01  1.675
 7213 1  49.433645 -1.779793e+01  1.675
 7214 1  48.194468 -1.710450e+01  1.675
 7215 1  48.175403 -1.568463e+01  1.675
 7216 1  49.395517 -1.495819e+01  1.675
 7217 1  46.974355 -1.783095e+01  1.675
 7218 1  45.735177 -1.713753e+01  1.675
 7219 1  45.716113 -1.571765e+01  1.675
 7220 1  46.936226 -1.499121e+01  1.675
 7221 1  44.515064 -1.786397e+01  1.675
 7222 1  43.275887 -1.717055e+01  1.675
 7223 1  43.256822 -1.575067e+01  1.675
 7224 1  44.476936 -1.502423e+01  1.675
 7225 1  42.055774 -1.789699e+01  1.675
 7226 1  40.816596 -1.720357e+01  1.675
 7227 1  40.797532 -1.578369e+01  1.675
 7228 1  42.017645 -1.505725e+01  1.675
 7229 1  39.596483 -1.793001e+01  1.675
 7230 1  38.357306 -1.723659e+01  1.675
 7231 1  38.338242 -1.581671e+01  1.675
 7232 1  39.558355 -1.509027e+01  1.675
 7233 1  37.137193 -1.796303e+01  1.675
 7234 1  35.898015 -1.726961e+01  1.675
 7235 1  35.878951 -1.584973e+01  1.675
 7236 1  37.099064 -1.512329e+01  1.675
 7237 1  34.677902 -1.799605e+01  1.675
 7238 1  33.438725 -1.730263e+01  1.675
 7239 1  33.419661 -1.588275e+01  1.675
 7240 1  34.639774 -1.515631e+01  1.675
 7241 1  32.218612 -1.802907e+01  1.675
 7242 1  30.979434 -1.733565e+01  1.675
 7243 1  30.960370 -1.591577e+01  1.675
 7244 1  32.180483 -1.518933e+01  1.675
 7245 1  29.759321 -1.806209e+01  1.675
 7246 1  28.520144 -1.736867e+01  1.675
 7247 1  28.501080 -1.594880e+01  1.675
 7248 1  29.721193 -1.522235e+01  1.675
 7249 1  27.300031 -1.809511e+01  1.675
 7250 1  26.060853 -1.740169e+01  1.675
 7251 1  26.041789 -1.598182e+01  1.675
 7252 1  27.261902 -1.525537e+01  1.675
 7253 1  24.840740 -1.812813e+01  1.675
 7254 1  23.601563 -1.743471e+01  1.675
 7255 1  23.582499 -1.601484e+01  1.675
 7256 1  24.802612 -1.528839e+01  1.675
 7257 1  22.381450 -1.816115e+01  1.675
 7258 1  21.142272 -1.746773e+01  1.675
 7259 1  21.123208 -1.604786e+01  1.675
 7260 1  22.343321 -1.532141e+01  1.675
 7261 1  19.922159 -1.819417e+01  1.675
 7262 1  18.682982 -1.750075e+01  1.675
 7263 1  18.663918 -1.608088e+01  1.675
 7264 1  19.884031 -1.535443e+01  1.675
 7265 1  17.462869 -1.822719e+01  1.675
 7266 1  16.223691 -1.753377e+01  1.675
 7267 1  16.204627 -1.611390e+01  1.675
 7268 1  17.424740 -1.538745e+01  1.675
 7269 1  15.003578 -1.826021e+01  1.675
 7270 1  13.764401 -1.756679e+01  1.675
 7271 1  13.745337 -1.614692e+01  1.675
 7272 1  14.965450 -1.542047e+01  1.675
 7273 1  12.544288 -1.829323e+01  1.675
 7274 1  11.305110 -1.759981e+01  1.675
 7275 1  11.286046 -1.617994e+01  1.675
 7276 1  12.506159 -1.545349e+01  1.675
 7277 1  10.084997 -1.832626e+01  1.675
 7278 1   8.845820 -1.763283e+01  1.675
 7279 1   8.826756 -1.621296e+01  1.675
 7280 1  10.046869 -1.548651e+01  1.675
 7281 1   7.625707 -1.835928e+01  1.675
 7282 1   6.386530 -1.766585e+01  1.675
 7283 1   6.367465 -1.624598e+01  1.675
 7284 1   7.587578 -1.551953e+01  1.675
 7285 1   5.166416 -1.839230e+01  1.675
 7286 1   3.927239 -1.769887e+01  1.675
 7287 1   3.908175 -1.627900e+01  1.675
 7288 1   5.128288 -1.555255e+01  1.675
 7289 1   2.707126 -1.842532e+01  1.675
 7290 1   1.467949 -1.773189e+01  1.675
 7291 1   1.448884 -1.631202e+01  1.675
 7292 1   2.668997 -1.558557e+01  1.675
 7293 1   0.247835 -1.845834e+01  1.675
 7294 1  -0.991342 -1.776491e+01  1.675
 7295 1  -1.010406 -1.634504e+01  1.675
 7296 1   0.209707 -1.561859e+01  1.675
 7297 1  -2.211455 -1.849136e+01  1.675
 7298 1  -3.450632 -1.779793e+01  1.675
 7299 1  -3.469697 -1.637806e+01  1.675
 7300 1  -2.249584 -1.565161e+01  1.675
 7301 1  -4.670745 -1.852438e+01  1.675
 7302 1  -5.909923 -1.783095e+01  1.675
 7303 1  -5.928987 -1.641108e+01  1.675
 7304 1  -4.708874 -1.568463e+01  1.675
 7305 1  -7.130036 -1.855740e+01  1.675
 7306 1  -8.369213 -1.786397e+01  1.675
 7307 1  -8.388278 -1.644410e+01  1.675
 7308 1  -7.168164 -1.571765e+01  1.675
 7309 1  -9.589326 -1.859042e+01  1.675
 7310 1 -10.828504 -1.789699e+01  1.675
 7311 1 -10.847568 -1.647712e+01  1.675
 7312 1  -9.627455 -1.575067e+01  1.675
 7313 1 -12.048617 -1.862344e+01  1.675
 7314 1 -13.287794 -1.793001e+01  1.675
 7315 1 -13.306859 -1.651014e+01  1.675
 7316 1 -12.086745 -1.578369e+01  1.675
 7317 1 -14.507907 -1.865646e+01  1.675
 7318 1 -15.747085 -1.796303e+01  1.675
 7319 1 -15.766149 -1.654316e+01  1.675
 7320 1 -14.546036 -1.581671e+01  1.675
 7321 1 -16.967198 -1.868948e+01  1.675
 7322 1 -18.206375 -1.799605e+01  1.675
 7323 1 -18.225440 -1.657618e+01  1.675
 7324 1 -17.005326 -1.584973e+01  1.675
 7325 1 -19.426488 -1.872250e+01  1.675
 7326 1 -20.665666 -1.802907e+01  1.675
 7327 1 -20.684730 -1.660920e+01  1.675
 7328 1 -19.464617 -1.588275e+01  1.675
 7329 1 -21.885779 -1.875552e+01  1.675
 7330 1 -23.124956 -1.806209e+01  1.675
 7331 1 -23.144020 -1.664222e+01  1.675
 7332 1 -21.923907 -1.591577e+01  1.675
 7333 1 -24.345069 -1.878854e+01  1.675
 7334 1 -25.584247 -1.809511e+01  1.675
 7335 1 -25.603311 -1.667524e+01  1.675
 7336 1 -24.383198 -1.594880e+01  1.675
 7337 1 -26.804360 -1.882156e+01  1.675
 7338 1 -28.043537 -1.812813e+01  1.675
 7339 1 -28.062601 -1.670826e+01  1.675
 7340 1 -26.842488 -1.598182e+01  1.675
 7341 1 -29.263650 -1.885458e+01  1.675
 7342 1 -30.502828 -1.816115e+01  1.675
 7343 1 -30.521892 -1.674128e+01  1.675
 7344 1 -29.301779 -1.601484e+01  1.675
 7345 1 -31.722941 -1.888760e+01  1.675
 7346 1 -32.962118 -1.819417e+01  1.675
 7347 1 -32.981182 -1.677430e+01  1.675
 7348 1 -31.761069 -1.604786e+01  1.675
 7349 1 -34.182231 -1.892062e+01  1.675
 7350 1 -35.421409 -1.822719e+01  1.675
 7351 1 -35.440473 -1.680732e+01  1.675
 7352 1 -34.220360 -1.608088e+01  1.675
 7353 1 -36.641522 -1.895364e+01  1.675
 7354 1 -37.880699 -1.826021e+01  1.675
 7355 1 -37.899763 -1.684034e+01  1.675
 7356 1 -36.679650 -1.611390e+01  1.675
 7357 1 -39.100812 -1.898666e+01  1.675
 7358 1 -40.339990 -1.829323e+01  1.675
 7359 1 -40.359054 -1.687336e+01  1.675
 7360 1 -39.138941 -1.614692e+01  1.675
 7361 1 -41.560103 -1.901968e+01  1.675
 7362 1 -42.799280 -1.832626e+01  1.675
 7363 1 -42.818344 -1.690638e+01  1.675
 7364 1 -41.598231 -1.617994e+01  1.675
 7365 1 -44.019393 -1.905270e+01  1.675
 7366 1 -45.258571 -1.835928e+01  1.675
 7367 1 -45.277635 -1.693940e+01  1.675
 7368 1 -44.057522 -1.621296e+01  1.675
 7369 1 -46.478684 -1.908572e+01  1.675
 7370 1 -47.717861 -1.839230e+01  1.675
 7371 1 -47.736925 -1.697242e+01  1.675
 7372 1 -46.516812 -1.624598e+01  1.675
 7373 1 -48.937974 -1.911874e+01  1.675
 7374 1 -50.177151 -1.842532e+01  1.675
 7375 1 -50.196216 -1.700544e+01  1.675
 7376 1 -48.976103 -1.627900e+01  1.675
 7377 1 -51.397265 -1.915176e+01  1.675
 7378 1 -52.636442 -1.845834e+01  1.675
 7379 1 -52.655506 -1.703846e+01  1.675
 7380 1 -51.435393 -1.631202e+01  1.675
 7381 1 -53.856555 -1.918478e+01  1.675
 7382 1 -55.095732 -1.849136e+01  1.675
 7383 1 -55.114797 -1.707148e+01  1.675
 7384 1 -53.894684 -1.634504e+01  1.675
 7385 1 -56.315846 -1.921780e+01  1.675
 7386 1 -57.555023 -1.852438e+01  1.675
 7387 1 -57.574087 -1.710450e+01  1.675
 7388 1 -56.353974 -1.637806e+01  1.675
 7389 1 -58.775136 -1.925082e+01  1.675
 7390 1 -60.014313 -1.855740e+01  1.675
 7391 1 -60.033378 -1.713753e+01  1.675
 7392 1 -58.813265 -1.641108e+01  1.675
 7393 1 -61.234427 -1.928384e+01  1.675
 7394 1 -62.473604 -1.859042e+01  1.675
 7395 1 -62.492668 -1.717055e+01  1.675
 7396 1 -61.272555 -1.644410e+01  1.675
 7397 1 -63.693717 -1.931686e+01  1.675
 7398 1 -64.932894 -1.862344e+01  1.675
 7399 1 -64.951959 -1.720357e+01  1.675
 7400 1 -63.731846 -1.647712e+01  1.675
 7401 1 -66.153007 -1.934988e+01  1.675
 7402 1 -67.392185 -1.865646e+01  1.675
 7403 1 -67.411249 -1.723659e+01  1.675
 7404 1 -66.191136 -1.651014e+01  1.675
 7405 1 -68.612298 -1.938290e+01  1.675
 7406 1 -69.851475 -1.868948e+01  1.675
 7407 1 -69.870540 -1.726961e+01  1.675
 7408 1 -68.650426 -1.654316e+01  1.675
 7409 1 -71.071588 -1.941592e+01  1.675
 7410 1 -72.310766 -1.872250e+01  1.675
 7411 1 -72.329830 -1.730263e+01  1.675
 7412 1 -71.109717 -1.657618e+01  1.675
 7413 1 -73.530879 -1.944894e+01  1.675
 7414 1 -74.770056 -1.875552e+01  1.675
 7415 1 -74.789121 -1.733565e+01  1.675
 7416 1 -73.569007 -1.660920e+01  1.675
 7417 1 -75.990169 -1.948196e+01  1.675
 7418 1 -77.229347 -1.878854e+01  1.675
 7419 1 -77.248411 -1.736867e+01  1.675
 7420 1 -76.028298 -1.664222e+01  1.675
 7421 1 -78.449460 -1.951499e+01  1.675
 7422 1 -78.487588 -1.667524e+01  1.675
 7423 1  78.887938 -1.314207e+01  1.675
 7424 1  77.648761 -1.244865e+01  1.675
 7425 1  77.629696 -1.102877e+01  1.675
 7426 1  78.849809 -1.030233e+01  1.675
 7427 1  76.428648 -1.317509e+01  1.675
 7428 1  75.189470 -1.248167e+01  1.675
 7429 1  75.170406 -1.106179e+01  1.675
 7430 1  76.390519 -1.033535e+01  1.675
 7431 1  73.969357 -1.320811e+01  1.675
 7432 1  72.730180 -1.251469e+01  1.675
 7433 1  72.711115 -1.109481e+01  1.675
 7434 1  73.931229 -1.036837e+01  1.675
 7435 1  71.510067 -1.324113e+01  1.675
 7436 1  70.270889 -1.254771e+01  1.675
 7437 1  70.251825 -1.112783e+01  1.675
 7438 1  71.471938 -1.040139e+01  1.675
 7439 1  69.050776 -1.327415e+01  1.675
 7440 1  67.811599 -1.258073e+01  1.675
 7441 1  67.792534 -1.116085e+01  1.675
 7442 1  69.012648 -1.043441e+01  1.675
 7443 1  66.591486 -1.330717e+01  1.675
 7444 1  65.352308 -1.261375e+01  1.675
 7445 1  65.333244 -1.119387e+01  1.675
 7446 1  66.553357 -1.046743e+01  1.675
 7447 1  64.132195 -1.334019e+01  1.675
 7448 1  62.893018 -1.264677e+01  1.675
 7449 1  62.873953 -1.122690e+01  1.675
 7450 1  64.094067 -1.050045e+01  1.675
 7451 1  61.672905 -1.337321e+01  1.675
 7452 1  60.433727 -1.267979e+01  1.675
 7453 1  60.414663 -1.125992e+01  1.675
 7454 1  61.634776 -1.053347e+01  1.675
 7455 1  59.213614 -1.340623e+01  1.675
 7456 1  57.974437 -1.271281e+01  1.675
 7457 1  57.955373 -1.129294e+01  1.675
 7458 1  59.175486 -1.056649e+01  1.675
 7459 1  56.754324 -1.343925e+01  1.675
 7460 1  55.515146 -1.274583e+01  1.675
 7461 1  55.496082 -1.132596e+01  1.675
 7462 1  56.716195 -1.059951e+01  1.675
 7463 1  54.295033 -1.347227e+01  1.675
 7464 1  53.055856 -1.277885e+01  1.675
 7465 1  53.036792 -1.135898e+01  1.675
 7466 1  54.256905 -1.063253e+01  1.675
 7467 1  51.835743 -1.350529e+01  1.675
 7468 1  50.596565 -1.281187e+01  1.675
 7469 1  50.577501 -1.139200e+01  1.675
 7470 1  51.797614 -1.066555e+01  1.675
 7471 1  49.376452 -1.353831e+01  1.675
 7472 1  48.137275 -1.284489e+01  1.675
 7473 1  48.118211 -1.142502e+01  1.675
 7474 1  49.338324 -1.069857e+01  1.675
 7475 1  46.917162 -1.357133e+01  1.675
 7476 1  45.677984 -1.287791e+01  1.675
 7477 1  45.658920 -1.145804e+01  1.675
 7478 1  46.879033 -1.073159e+01  1.675
 7479 1  44.457871 -1.360436e+01  1.675
 7480 1  43.218694 -1.291093e+01  1.675
 7481 1  43.199630 -1.149106e+01  1.675
 7482 1  44.419743 -1.076461e+01  1.675
 7483 1  41.998581 -1.363738e+01  1.675
 7484 1  40.759403 -1.294395e+01  1.675
 7485 1  40.740339 -1.152408e+01  1.675
 7486 1  41.960452 -1.079763e+01  1.675
 7487 1  39.539290 -1.367040e+01  1.675
 7488 1  38.300113 -1.297697e+01  1.675
 7489 1  38.281049 -1.155710e+01  1.675
 7490 1  39.501162 -1.083065e+01  1.675
 7491 1  37.080000 -1.370342e+01  1.675
 7492 1  35.840822 -1.300999e+01  1.675
 7493 1  35.821758 -1.159012e+01  1.675
 7494 1  37.041871 -1.086367e+01  1.675
 7495 1  34.620709 -1.373644e+01  1.675
 7496 1  33.381532 -1.304301e+01  1.675
 7497 1  33.362468 -1.162314e+01  1.675
 7498 1  34.582581 -1.089669e+01  1.675
 7499 1  32.161419 -1.376946e+01  1.675
 7500 1  30.922242 -1.307603e+01  1.675
 7501 1  30.903177 -1.165616e+01  1.675
 7502 1  32.123290 -1.092971e+01  1.675
 7503 1  29.702128 -1.380248e+01  1.675
 7504 1  28.462951 -1.310905e+01  1.675
 7505 1  28.443887 -1.168918e+01  1.675
 7506 1  29.664000 -1.096273e+01  1.675
 7507 1  27.242838 -1.383550e+01  1.675
 7508 1  26.003661 -1.314207e+01  1.675
 7509 1  25.984596 -1.172220e+01  1.675
 7510 1  27.204709 -1.099575e+01  1.675
 7511 1  24.783547 -1.386852e+01  1.675
 7512 1  23.544370 -1.317509e+01  1.675
 7513 1  23.525306 -1.175522e+01  1.675
 7514 1  24.745419 -1.102877e+01  1.675
 7515 1  22.324257 -1.390154e+01  1.675
 7516 1  21.085080 -1.320811e+01  1.675
 7517 1  21.066015 -1.178824e+01  1.675
 7518 1  22.286128 -1.106179e+01  1.675
 7519 1  19.864967 -1.393456e+01  1.675
 7520 1  18.625789 -1.324113e+01  1.675
 7521 1  18.606725 -1.182126e+01  1.675
 7522 1  19.826838 -1.109481e+01  1.675
 7523 1  17.405676 -1.396758e+01  1.675
 7524 1  16.166499 -1.327415e+01  1.675
 7525 1  16.147434 -1.185428e+01  1.675
 7526 1  17.367547 -1.112783e+01  1.675
 7527 1  14.946386 -1.400060e+01  1.675
 7528 1  13.707208 -1.330717e+01  1.675
 7529 1  13.688144 -1.188730e+01  1.675
 7530 1  14.908257 -1.116085e+01  1.675
 7531 1  12.487095 -1.403362e+01  1.675
 7532 1  11.247918 -1.334019e+01  1.675
 7533 1  11.228853 -1.192032e+01  1.675
 7534 1  12.448967 -1.119387e+01  1.675
 7535 1  10.027805 -1.406664e+01  1.675
 7536 1   8.788627 -1.337321e+01  1.675
 7537 1   8.769563 -1.195334e+01  1.675
 7538 1   9.989676 -1.122690e+01  1.675
 7539 1   7.568514 -1.409966e+01  1.675
 7540 1   6.329337 -1.340623e+01  1.675
 7541 1   6.310272 -1.198636e+01  1.675
 7542 1   7.530386 -1.125992e+01  1.675
 7543 1   5.109224 -1.413268e+01  1.675
 7544 1   3.870046 -1.343925e+01  1.675
 7545 1   3.850982 -1.201938e+01  1.675
 7546 1   5.071095 -1.129294e+01  1.675
 7547 1   2.649933 -1.416570e+01  1.675
 7548 1   1.410756 -1.347227e+01  1.675
 7549 1   1.391692 -1.205240e+01  1.675
 7550 1   2.611805 -1.132596e+01  1.675
 7551 1   0.190643 -1.419872e+01  1.675
 7552 1  -1.048535 -1.350529e+01  1.675
 7553 1  -1.067599 -1.208542e+01  1.675
 7554 1   0.152514 -1.135898e+01  1.675
 7555 1  -2.268648 -1.423174e+01  1.675
 7556 1  -3.507825 -1.353831e+01  1.675
 7557 1  -3.526889 -1.211844e+01  1.675
 7558 1  -2.306776 -1.139200e+01  1.675
 7559 1  -4.727938 -1.426476e+01  1.675
 7560 1  -5.967116 -1.357133e+01  1.675
 7561 1  -5.986180 -1.215146e+01  1.675
 7562 1  -4.766067 -1.142502e+01  1.675
 7563 1  -7.187229 -1.429778e+01  1.675
 7564 1  -8.426406 -1.360436e+01  1.675
 7565 1  -8.445470 -1.218448e+01  1.675
 7566 1  -7.225357 -1.145804e+01  1.675
 7567 1  -9.646519 -1.433080e+01  1.675
 7568 1 -10.885697 -1.363738e+01  1.675
 7569 1 -10.904761 -1.221750e+01  1.675
 7570 1  -9.684648 -1.149106e+01  1.675
 7571 1 -12.105810 -1.436382e+01  1.675
 7572 1 -13.344987 -1.367040e+01  1.675
 7573 1 -13.364051 -1.225052e+01  1.675
 7574 1 -12.143938 -1.152408e+01  1.675
 7575 1 -14.565100 -1.439684e+01  1.675
 7576 1 -15.804278 -1.370342e+01  1.675
 7577 1 -15.823342 -1.228354e+01  1.675
 7578 1 -14.603229 -1.155710e+01  1.675
 7579 1 -17.024391 -1.442986e+01  1.675
 7580 1 -18.263568 -1.373644e+01  1.675
 7581 1 -18.282632 -1.231656e+01  1.675
 7582 1 -17.062519 -1.159012e+01  1.675
 7583 1 -19.483681 -1.446288e+01  1.675
 7584 1 -20.722859 -1.376946e+01  1.675
 7585 1 -20.741923 -1.234958e+01  1.675
 7586 1 -19.521810 -1.162314e+01  1.675
 7587 1 -21.942972 -1.449590e+01  1.675
 7588 1 -23.182149 -1.380248e+01  1.675
 7589 1 -23.201213 -1.238260e+01  1.675
 7590 1 -21.981100 -1.165616e+01  1.675
 7591 1 -24.402262 -1.452892e+01  1.675
 7592 1 -25.641439 -1.383550e+01  1.675
 7593 1 -25.660504 -1.241563e+01  1.675
 7594 1 -24.440391 -1.168918e+01  1.675
 7595 1 -26.861553 -1.456194e+01  1.675
 7596 1 -28.100730 -1.386852e+01  1.675
 7597 1 -28.119794 -1.244865e+01  1.675
 7598 1 -26.899681 -1.172220e+01  1.675
 7599 1 -29.320843 -1.459496e+01  1.675
 7600 1 -30.560020 -1.390154e+01  1.675
 7601 1 -30.579085 -1.248167e+01  1.675
 7602 1 -29.358972 -1.175522e+01  1.675
 7603 1 -31.780134 -1.462798e+01  1.675
 7604 1 -33.019311 -1.393456e+01  1.675
 7605 1 -33.038375 -1.251469e+01  1.675
 7606 1 -31.818262 -1.178824e+01  1.675
 7607 1 -34.239424 -1.466100e+01  1.675
 7608 1 -35.478601 -1.396758e+01  1.675
 7609 1 -35.497666 -1.254771e+01  1.675
 7610 1 -34.277553 -1.182126e+01  1.675
 7611 1 -36.698715 -1.469402e+01  1.675
 7612 1 -37.937892 -1.400060e+01  1.675
 7613 1 -37.956956 -1.258073e+01  1.675
 7614 1 -36.736843 -1.185428e+01  1.675
 7615 1 -39.158005 -1.472704e+01  1.675
 7616 1 -40.397182 -1.403362e+01  1.675
 7617 1 -40.416247 -1.261375e+01  1.675
 7618 1 -39.196134 -1.188730e+01  1.675
 7619 1 -41.617295 -1.476006e+01  1.675
 7620 1 -42.856473 -1.406664e+01  1.675
 7621 1 -42.875537 -1.264677e+01  1.675
 7622 1 -41.655424 -1.192032e+01  1.675
 7623 1 -44.076586 -1.479309e+01  1.675
 7624 1 -45.315763 -1.409966e+01  1.675
 7625 1 -45.334828 -1.267979e+01  1.675
 7626 1 -44.114714 -1.195334e+01  1.675
 7627 1 -46.535876 -1.482611e+01  1.675
 7628 1 -47.775054 -1.413268e+01  1.675
 7629 1 -47.794118 -1.271281e+01  1.675
 7630 1 -46.574005 -1.198636e+01  1.675
 7631 1 -48.995167 -1.485913e+01  1.675
 7632 1 -50.234344 -1.416570e+01  1.675
 7633 1 -50.253409 -1.274583e+01  1.675
 7634 1 -49.033295 -1.201938e+01  1.675
 7635 1 -51.454457 -1.489215e+01  1.675
 7636 1 -52.693635 -1.419872e+01  1.675
 7637 1 -52.712699 -1.277885e+01  1.675
 7638 1 -51.492586 -1.205240e+01  1.675
 7639 1 -53.913748 -1.492517e+01  1.675
 7640 1 -55.152925 -1.423174e+01  1.675
 7641 1 -55.171990 -1.281187e+01  1.675
 7642 1 -53.951876 -1.208542e+01  1.675
 7643 1 -56.373038 -1.495819e+01  1.675
 7644 1 -57.612216 -1.426476e+01  1.675
 7645 1 -57.631280 -1.284489e+01  1.675
 7646 1 -56.411167 -1.211844e+01  1.675
 7647 1 -58.832329 -1.499121e+01  1.675
 7648 1 -60.071506 -1.429778e+01  1.675
 7649 1 -60.090570 -1.287791e+01  1.675
 7650 1 -58.870457 -1.215146e+01  1.675
 7651 1 -61.291619 -1.502423e+01  1.675
 7652 1 -62.530797 -1.433080e+01  1.675
 7653 1 -62.549861 -1.291093e+01  1.675
 7654 1 -61.329748 -1.218448e+01  1.675
 7655 1 -63.750910 -1.505725e+01  1.675
 7656 1 -64.990087 -1.436382e+01  1.675
 7657 1 -65.009151 -1.294395e+01  1.675
 7658 1 -63.789038 -1.221750e+01  1.675
 7659 1 -66.210200 -1.509027e+01  1.675
 7660 1 -67.449378 -1.439684e+01  1.675
 7661 1 -67.468442 -1.297697e+01  1.675
 7662 1 -66.248329 -1.225052e+01  1.675
 7663 1 -68.669491 -1.512329e+01  1.675
 7664 1 -69.908668 -1.442986e+01  1.675
 7665 1 -69.927732 -1.300999e+01  1.675
 7666 1 -68.707619 -1.228354e+01  1.675
 7667 1 -71.128781 -1.515631e+01  1.675
 7668 1 -72.367959 -1.446288e+01  1.675
 7669 1 -72.387023 -1.304301e+01  1.675
 7670 1 -71.166910 -1.231656e+01  1.675
 7671 1 -73.588072 -1.518933e+01  1.675
 7672 1 -74.827249 -1.449590e+01  1.675
 7673 1 -74.846313 -1.307603e+01  1.675
 7674 1 -73.626200 -1.234958e+01  1.675
 7675 1 -76.047362 -1.522235e+01  1.675
 7676 1 -77.286540 -1.452892e+01  1.675
 7677 1 -77.305604 -1.310905e+01  1.675
 7678 1 -76.085491 -1.238260e+01  1.675
 7679 1 -78.506653 -1.525537e+01  1.675
 7680 1 -78.544781 -1.241563e+01  1.675
 7681 1  78.830745 -8.882455e+00  1.675
 7682 1  77.591568 -8.189029e+00  1.675
 7683 1  77.572504 -6.769157e+00  1.675
 7684 1  78.792617 -6.042711e+00  1.675
 7685 1  76.371455 -8.915475e+00  1.675
 7686 1  75.132277 -8.222050e+00  1.675
 7687 1  75.113213 -6.802178e+00  1.675
 7688 1  76.333326 -6.075731e+00  1.675
 7689 1  73.912164 -8.948496e+00  1.675
 7690 1  72.672987 -8.255070e+00  1.675
 7691 1  72.653923 -6.835198e+00  1.675
 7692 1  73.874036 -6.108752e+00  1.675
 7693 1  71.452874 -8.981516e+00  1.675
 7694 1  70.213696 -8.288090e+00  1.675
 7695 1  70.194632 -6.868218e+00  1.675
 7696 1  71.414745 -6.141772e+00  1.675
 7697 1  68.993583 -9.014536e+00  1.675
 7698 1  67.754406 -8.321110e+00  1.675
 7699 1  67.735342 -6.901238e+00  1.675
 7700 1  68.955455 -6.174792e+00  1.675
 7701 1  66.534293 -9.047557e+00  1.675
 7702 1  65.295115 -8.354131e+00  1.675
 7703 1  65.276051 -6.934259e+00  1.675
 7704 1  66.496164 -6.207813e+00  1.675
 7705 1  64.075002 -9.080577e+00  1.675
 7706 1  62.835825 -8.387151e+00  1.675
 7707 1  62.816761 -6.967279e+00  1.675
 7708 1  64.036874 -6.240833e+00  1.675
 7709 1  61.615712 -9.113597e+00  1.675
 7710 1  60.376534 -8.420171e+00  1.675
 7711 1  60.357470 -7.000299e+00  1.675
 7712 1  61.577583 -6.273853e+00  1.675
 7713 1  59.156421 -9.146617e+00  1.675
 7714 1  57.917244 -8.453192e+00  1.675
 7715 1  57.898180 -7.033320e+00  1.675
 7716 1  59.118293 -6.306873e+00  1.675
 7717 1  56.697131 -9.179638e+00  1.675
 7718 1  55.457954 -8.486212e+00  1.675
 7719 1  55.438889 -7.066340e+00  1.675
 7720 1  56.659002 -6.339894e+00  1.675
 7721 1  54.237840 -9.212658e+00  1.675
 7722 1  52.998663 -8.519232e+00  1.675
 7723 1  52.979599 -7.099360e+00  1.675
 7724 1  54.199712 -6.372914e+00  1.675
 7725 1  51.778550 -9.245678e+00  1.675
 7726 1  50.539373 -8.552252e+00  1.675
 7727 1  50.520308 -7.132380e+00  1.675
 7728 1  51.740421 -6.405934e+00  1.675
 7729 1  49.319259 -9.278699e+00  1.675
 7730 1  48.080082 -8.585273e+00  1.675
 7731 1  48.061018 -7.165401e+00  1.675
 7732 1  49.281131 -6.438955e+00  1.675
 7733 1  46.859969 -9.311719e+00  1.675
 7734 1  45.620792 -8.618293e+00  1.675
 7735 1  45.601727 -7.198421e+00  1.675
 7736 1  46.821840 -6.471975e+00  1.675
 7737 1  44.400678 -9.344739e+00  1.675
 7738 1  43.161501 -8.651313e+00  1.675
 7739 1  43.142437 -7.231441e+00  1.675
 7740 1  44.362550 -6.504995e+00  1.675
 7741 1  41.941388 -9.377759e+00  1.675
 7742 1  40.702211 -8.684334e+00  1.675
 7743 1  40.683146 -7.264461e+00  1.675
 7744 1  41.903259 -6.538015e+00  1.675
 7745 1  39.482098 -9.410780e+00  1.675
 7746 1  38.242920 -8.717354e+00  1.675
 7747 1  38.223856 -7.297482e+00  1.675
 7748 1  39.443969 -6.571036e+00  1.675
 7749 1  37.022807 -9.443800e+00  1.675
 7750 1  35.783630 -8.750374e+00  1.675
 7751 1  35.764565 -7.330502e+00  1.675
 7752 1  36.984679 -6.604056e+00  1.675
 7753 1  34.563517 -9.476820e+00  1.675
 7754 1  33.324339 -8.783394e+00  1.675
 7755 1  33.305275 -7.363522e+00  1.675
 7756 1  34.525388 -6.637076e+00  1.675
 7757 1  32.104226 -9.509841e+00  1.675
 7758 1  30.865049 -8.816415e+00  1.675
 7759 1  30.845984 -7.396543e+00  1.675
 7760 1  32.066098 -6.670096e+00  1.675
 7761 1  29.644936 -9.542861e+00  1.675
 7762 1  28.405758 -8.849435e+00  1.675
 7763 1  28.386694 -7.429563e+00  1.675
 7764 1  29.606807 -6.703117e+00  1.675
 7765 1  27.185645 -9.575881e+00  1.675
 7766 1  25.946468 -8.882455e+00  1.675
 7767 1  25.927404 -7.462583e+00  1.675
 7768 1  27.147517 -6.736137e+00  1.675
 7769 1  24.726355 -9.608901e+00  1.675
 7770 1  23.487177 -8.915475e+00  1.675
 7771 1  23.468113 -7.495603e+00  1.675
 7772 1  24.688226 -6.769157e+00  1.675
 7773 1  22.267064 -9.641922e+00  1.675
 7774 1  21.027887 -8.948496e+00  1.675
 7775 1  21.008823 -7.528624e+00  1.675
 7776 1  22.228936 -6.802178e+00  1.675
 7777 1  19.807774 -9.674942e+00  1.675
 7778 1  18.568596 -8.981516e+00  1.675
 7779 1  18.549532 -7.561644e+00  1.675
 7780 1  19.769645 -6.835198e+00  1.675
 7781 1  17.348483 -9.707962e+00  1.675
 7782 1  16.109306 -9.014536e+00  1.675
 7783 1  16.090242 -7.594664e+00  1.675
 7784 1  17.310355 -6.868218e+00  1.675
 7785 1  14.889193 -9.740982e+00  1.675
 7786 1  13.650015 -9.047557e+00  1.675
 7787 1  13.630951 -7.627685e+00  1.675
 7788 1  14.851064 -6.901238e+00  1.675
 7789 1  12.429902 -9.774003e+00  1.675
 7790 1  11.190725 -9.080577e+00  1.675
 7791 1  11.171661 -7.660705e+00  1.675
 7792 1  12.391774 -6.934259e+00  1.675
 7793 1   9.970612 -9.807023e+00  1.675
 7794 1   8.731434 -9.113597e+00  1.675
 7795 1   8.712370 -7.693725e+00  1.675
 7796 1   9.932483 -6.967279e+00  1.675
 7797 1   7.511321 -9.840043e+00  1.675
 7798 1   6.272144 -9.146617e+00  1.675
 7799 1   6.253080 -7.726745e+00  1.675
 7800 1   7.473193 -7.000299e+00  1.675
 7801 1   5.052031 -9.873064e+00  1.675
 7802 1   3.812853 -9.179638e+00  1.675
 7803 1   3.793789 -7.759766e+00  1.675
 7804 1   5.013902 -7.033320e+00  1.675
 7805 1   2.592740 -9.906084e+00  1.675
 7806 1   1.353563 -9.212658e+00  1.675
 7807 1   1.334499 -7.792786e+00  1.675
 7808 1   2.554612 -7.066340e+00  1.675
 7809 1   0.133450 -9.939104e+00  1.675
 7810 1  -1.105728 -9.245678e+00  1.675
 7811 1  -1.124792 -7.825806e+00  1.675
 7812 1   0.095321 -7.099360e+00  1.675
 7813 1  -2.325841 -9.972124e+00  1.675
 7814 1  -3.565018 -9.278699e+00  1.675
 7815 1  -3.584082 -7.858827e+00  1.675
 7816 1  -2.363969 -7.132380e+00  1.675
 7817 1  -4.785131 -1.000514e+01  1.675
 7818 1  -6.024308 -9.311719e+00  1.675
 7819 1  -6.043373 -7.891847e+00  1.675
 7820 1  -4.823260 -7.165401e+00  1.675
 7821 1  -7.244422 -1.003816e+01  1.675
 7822 1  -8.483599 -9.344739e+00  1.675
 7823 1  -8.502663 -7.924867e+00  1.675
 7824 1  -7.282550 -7.198421e+00  1.675
 7825 1  -9.703712 -1.007119e+01  1.675
 7826 1 -10.942889 -9.377759e+00  1.675
 7827 1 -10.961954 -7.957887e+00  1.675
 7828 1  -9.741841 -7.231441e+00  1.675
 7829 1 -12.163003 -1.010421e+01  1.675
 7830 1 -13.402180 -9.410780e+00  1.675
 7831 1 -13.421244 -7.990908e+00  1.675
 7832 1 -12.201131 -7.264461e+00  1.675
 7833 1 -14.622293 -1.013723e+01  1.675
 7834 1 -15.861470 -9.443800e+00  1.675
 7835 1 -15.880535 -8.023928e+00  1.675
 7836 1 -14.660422 -7.297482e+00  1.675
 7837 1 -17.081583 -1.017025e+01  1.675
 7838 1 -18.320761 -9.476820e+00  1.675
 7839 1 -18.339825 -8.056948e+00  1.675
 7840 1 -17.119712 -7.330502e+00  1.675
 7841 1 -19.540874 -1.020327e+01  1.675
 7842 1 -20.780051 -9.509841e+00  1.675
 7843 1 -20.799116 -8.089968e+00  1.675
 7844 1 -19.579002 -7.363522e+00  1.675
 7845 1 -22.000164 -1.023629e+01  1.675
 7846 1 -23.239342 -9.542861e+00  1.675
 7847 1 -23.258406 -8.122989e+00  1.675
 7848 1 -22.038293 -7.396543e+00  1.675
 7849 1 -24.459455 -1.026931e+01  1.675
 7850 1 -25.698632 -9.575881e+00  1.675
 7851 1 -25.717697 -8.156009e+00  1.675
 7852 1 -24.497583 -7.429563e+00  1.675
 7853 1 -26.918745 -1.030233e+01  1.675
 7854 1 -28.157923 -9.608901e+00  1.675
 7855 1 -28.176987 -8.189029e+00  1.675
 7856 1 -26.956874 -7.462583e+00  1.675
 7857 1 -29.378036 -1.033535e+01  1.675
 7858 1 -30.617213 -9.641922e+00  1.675
 7859 1 -30.636278 -8.222050e+00  1.675
 7860 1 -29.416164 -7.495603e+00  1.675
 7861 1 -31.837326 -1.036837e+01  1.675
 7862 1 -33.076504 -9.674942e+00  1.675
 7863 1 -33.095568 -8.255070e+00  1.675
 7864 1 -31.875455 -7.528624e+00  1.675
 7865 1 -34.296617 -1.040139e+01  1.675
 7866 1 -35.535794 -9.707962e+00  1.675
 7867 1 -35.554858 -8.288090e+00  1.675
 7868 1 -34.334745 -7.561644e+00  1.675
 7869 1 -36.755907 -1.043441e+01  1.675
 7870 1 -37.995085 -9.740982e+00  1.675
 7871 1 -38.014149 -8.321110e+00  1.675
 7872 1 -36.794036 -7.594664e+00  1.675
 7873 1 -39.215198 -1.046743e+01  1.675
 7874 1 -40.454375 -9.774003e+00  1.675
 7875 1 -40.473439 -8.354131e+00  1.675
 7876 1 -39.253326 -7.627685e+00  1.675
 7877 1 -41.674488 -1.050045e+01  1.675
 7878 1 -42.913666 -9.807023e+00  1.675
 7879 1 -42.932730 -8.387151e+00  1.675
 7880 1 -41.712617 -7.660705e+00  1.675
 7881 1 -44.133779 -1.053347e+01  1.675
 7882 1 -45.372956 -9.840043e+00  1.675
 7883 1 -45.392020 -8.420171e+00  1.675
 7884 1 -44.171907 -7.693725e+00  1.675
 7885 1 -46.593069 -1.056649e+01  1.675
 7886 1 -47.832247 -9.873064e+00  1.675
 7887 1 -47.851311 -8.453192e+00  1.675
 7888 1 -46.631198 -7.726745e+00  1.675
 7889 1 -49.052360 -1.059951e+01  1.675
 7890 1 -50.291537 -9.906084e+00  1.675
 7891 1 -50.310601 -8.486212e+00  1.675
 7892 1 -49.090488 -7.759766e+00  1.675
 7893 1 -51.511650 -1.063253e+01  1.675
 7894 1 -52.750828 -9.939104e+00  1.675
 7895 1 -52.769892 -8.519232e+00  1.675
 7896 1 -51.549779 -7.792786e+00  1.675
 7897 1 -53.970941 -1.066555e+01  1.675
 7898 1 -55.210118 -9.972124e+00  1.675
 7899 1 -55.229182 -8.552252e+00  1.675
 7900 1 -54.009069 -7.825806e+00  1.675
 7901 1 -56.430231 -1.069857e+01  1.675
 7902 1 -57.669409 -1.000514e+01  1.675
 7903 1 -57.688473 -8.585273e+00  1.675
 7904 1 -56.468360 -7.858827e+00  1.675
 7905 1 -58.889522 -1.073159e+01  1.675
 7906 1 -60.128699 -1.003816e+01  1.675
 7907 1 -60.147763 -8.618293e+00  1.675
 7908 1 -58.927650 -7.891847e+00  1.675
 7909 1 -61.348812 -1.076461e+01  1.675
 7910 1 -62.587989 -1.007119e+01  1.675
 7911 1 -62.607054 -8.651313e+00  1.675
 7912 1 -61.386941 -7.924867e+00  1.675
 7913 1 -63.808103 -1.079763e+01  1.675
 7914 1 -65.047280 -1.010421e+01  1.675
 7915 1 -65.066344 -8.684334e+00  1.675
 7916 1 -63.846231 -7.957887e+00  1.675
 7917 1 -66.267393 -1.083065e+01  1.675
 7918 1 -67.506570 -1.013723e+01  1.675
 7919 1 -67.525635 -8.717354e+00  1.675
 7920 1 -66.305522 -7.990908e+00  1.675
 7921 1 -68.726684 -1.086367e+01  1.675
 7922 1 -69.965861 -1.017025e+01  1.675
 7923 1 -69.984925 -8.750374e+00  1.675
 7924 1 -68.764812 -8.023928e+00  1.675
 7925 1 -71.185974 -1.089669e+01  1.675
 7926 1 -72.425151 -1.020327e+01  1.675
 7927 1 -72.444216 -8.783394e+00  1.675
 7928 1 -71.224103 -8.056948e+00  1.675
 7929 1 -73.645265 -1.092971e+01  1.675
 7930 1 -74.884442 -1.023629e+01  1.675
 7931 1 -74.903506 -8.816415e+00  1.675
 7932 1 -73.683393 -8.089968e+00  1.675
 7933 1 -76.104555 -1.096273e+01  1.675
 7934 1 -77.343732 -1.026931e+01  1.675
 7935 1 -77.362797 -8.849435e+00  1.675
 7936 1 -76.142684 -8.122989e+00  1.675
 7937 1 -78.563845 -1.099575e+01  1.675
 7938 1 -78.601974 -8.156009e+00  1.675
 7939 1  78.773552 -4.622839e+00  1.675
 7940 1  77.534375 -3.929413e+00  1.675
 7941 1  77.515311 -2.509541e+00  1.675
 7942 1  78.735424 -1.783095e+00  1.675
 7943 1  76.314262 -4.655859e+00  1.675
 7944 1  75.075085 -3.962434e+00  1.675
 7945 1  75.056020 -2.542562e+00  1.675
 7946 1  76.276133 -1.816115e+00  1.675
 7947 1  73.854971 -4.688880e+00  1.675
 7948 1  72.615794 -3.995454e+00  1.675
 7949 1  72.596730 -2.575582e+00  1.675
 7950 1  73.816843 -1.849136e+00  1.675
 7951 1  71.395681 -4.721900e+00  1.675
 7952 1  70.156504 -4.028474e+00  1.675
 7953 1  70.137439 -2.608602e+00  1.675
 7954 1  71.357552 -1.882156e+00  1.675
 7955 1  68.936390 -4.754920e+00  1.675
 7956 1  67.697213 -4.061494e+00  1.675
 7957 1  67.678149 -2.641622e+00  1.675
 7958 1  68.898262 -1.915176e+00  1.675
 7959 1  66.477100 -4.787941e+00  1.675
 7960 1  65.237923 -4.094515e+00  1.675
 7961 1  65.218858 -2.674643e+00  1.675
 7962 1  66.438971 -1.948196e+00  1.675
 7963 1  64.017810 -4.820961e+00  1.675
 7964 1  62.778632 -4.127535e+00  1.675
 7965 1  62.759568 -2.707663e+00  1.675
 7966 1  63.979681 -1.981217e+00  1.675
 7967 1  61.558519 -4.853981e+00  1.675
 7968 1  60.319342 -4.160555e+00  1.675
 7969 1  60.300277 -2.740683e+00  1.675
 7970 1  61.520391 -2.014237e+00  1.675
 7971 1  59.099229 -4.887001e+00  1.675
 7972 1  57.860051 -4.193576e+00  1.675
 7973 1  57.840987 -2.773703e+00  1.675
 7974 1  59.061100 -2.047257e+00  1.675
 7975 1  56.639938 -4.920022e+00  1.675
 7976 1  55.400761 -4.226596e+00  1.675
 7977 1  55.381696 -2.806724e+00  1.675
 7978 1  56.601810 -2.080278e+00  1.675
 7979 1  54.180648 -4.953042e+00  1.675
 7980 1  52.941470 -4.259616e+00  1.675
 7981 1  52.922406 -2.839744e+00  1.675
 7982 1  54.142519 -2.113298e+00  1.675
 7983 1  51.721357 -4.986062e+00  1.675
 7984 1  50.482180 -4.292636e+00  1.675
 7985 1  50.463115 -2.872764e+00  1.675
 7986 1  51.683229 -2.146318e+00  1.675
 7987 1  49.262067 -5.019082e+00  1.675
 7988 1  48.022889 -4.325657e+00  1.675
 7989 1  48.003825 -2.905785e+00  1.675
 7990 1  49.223938 -2.179338e+00  1.675
 7991 1  46.802776 -5.052103e+00  1.675
 7992 1  45.563599 -4.358677e+00  1.675
 7993 1  45.544535 -2.938805e+00  1.675
 7994 1  46.764648 -2.212359e+00  1.675
 7995 1  44.343486 -5.085123e+00  1.675
 7996 1  43.104308 -4.391697e+00  1.675
 7997 1  43.085244 -2.971825e+00  1.675
 7998 1  44.305357 -2.245379e+00  1.675
 7999 1  41.884195 -5.118143e+00  1.675
 8000 1  40.645018 -4.424717e+00  1.675
 8001 1  40.625954 -3.004845e+00  1.675
 8002 1  41.846067 -2.278399e+00  1.675
 8003 1  39.424905 -5.151164e+00  1.675
 8004 1  38.185727 -4.457738e+00  1.675
 8005 1  38.166663 -3.037866e+00  1.675
 8006 1  39.386776 -2.311420e+00  1.675
 8007 1  36.965614 -5.184184e+00  1.675
 8008 1  35.726437 -4.490758e+00  1.675
 8009 1  35.707373 -3.070886e+00  1.675
 8010 1  36.927486 -2.344440e+00  1.675
 8011 1  34.506324 -5.217204e+00  1.675
 8012 1  33.267146 -4.523778e+00  1.675
 8013 1  33.248082 -3.103906e+00  1.675
 8014 1  34.468195 -2.377460e+00  1.675
 8015 1  32.047033 -5.250224e+00  1.675
 8016 1  30.807856 -4.556799e+00  1.675
 8017 1  30.788792 -3.136927e+00  1.675
 8018 1  32.008905 -2.410480e+00  1.675
 8019 1  29.587743 -5.283245e+00  1.675
 8020 1  28.348565 -4.589819e+00  1.675
 8021 1  28.329501 -3.169947e+00  1.675
 8022 1  29.549614 -2.443501e+00  1.675
 8023 1  27.128452 -5.316265e+00  1.675
 8024 1  25.889275 -4.622839e+00  1.675
 8025 1  25.870211 -3.202967e+00  1.675
 8026 1  27.090324 -2.476521e+00  1.675
 8027 1  24.669162 -5.349285e+00  1.675
 8028 1  23.429984 -4.655859e+00  1.675
 8029 1  23.410920 -3.235987e+00  1.675
 8030 1  24.631033 -2.509541e+00  1.675
 8031 1  22.209871 -5.382306e+00  1.675
 8032 1  20.970694 -4.688880e+00  1.675
 8033 1  20.951630 -3.269008e+00  1.675
 8034 1  22.171743 -2.542562e+00  1.675
 8035 1  19.750581 -5.415326e+00  1.675
 8036 1  18.511404 -4.721900e+00  1.675
 8037 1  18.492339 -3.302028e+00  1.675
 8038 1  19.712452 -2.575582e+00  1.675
 8039 1  17.291290 -5.448346e+00  1.675
 8040 1  16.052113 -4.754920e+00  1.675
 8041 1  16.033049 -3.335048e+00  1.675
 8042 1  17.253162 -2.608602e+00  1.675
 8043 1  14.832000 -5.481366e+00  1.675
 8044 1  13.592823 -4.787941e+00  1.675
 8045 1  13.573758 -3.368069e+00  1.675
 8046 1  14.793871 -2.641622e+00  1.675
 8047 1  12.372709 -5.514387e+00  1.675
 8048 1  11.133532 -4.820961e+00  1.675
 8049 1  11.114468 -3.401089e+00  1.675
 8050 1  12.334581 -2.674643e+00  1.675
 8051 1   9.913419 -5.547407e+00  1.675
 8052 1   8.674242 -4.853981e+00  1.675
 8053 1   8.655177 -3.434109e+00  1.675
 8054 1   9.875290 -2.707663e+00  1.675
 8055 1   7.454129 -5.580427e+00  1.675
 8056 1   6.214951 -4.887001e+00  1.675
 8057 1   6.195887 -3.467129e+00  1.675
 8058 1   7.416000 -2.740683e+00  1.675
 8059 1   4.994838 -5.613448e+00  1.675
 8060 1   3.755661 -4.920022e+00  1.675
 8061 1   3.736596 -3.500150e+00  1.675
 8062 1   4.956709 -2.773703e+00  1.675
 8063 1   2.535548 -5.646468e+00  1.675
 8064 1   1.296370 -4.953042e+00  1.675
 8065 1   1.277306 -3.533170e+00  1.675
 8066 1   2.497419 -2.806724e+00  1.675
 8067 1   0.076257 -5.679488e+00  1.675
 8068 1  -1.162920 -4.986062e+00  1.675
 8069 1  -1.181985 -3.566190e+00  1.675
 8070 1   0.038129 -2.839744e+00  1.675
 8071 1  -2.383033 -5.712508e+00  1.675
 8072 1  -3.622211 -5.019082e+00  1.675
 8073 1  -3.641275 -3.599210e+00  1.675
 8074 1  -2.421162 -2.872764e+00  1.675
 8075 1  -4.842324 -5.745529e+00  1.675
 8076 1  -6.081501 -5.052103e+00  1.675
 8077 1  -6.100566 -3.632231e+00  1.675
 8078 1  -4.880452 -2.905785e+00  1.675
 8079 1  -7.301614 -5.778549e+00  1.675
 8080 1  -8.540792 -5.085123e+00  1.675
 8081 1  -8.559856 -3.665251e+00  1.675
 8082 1  -7.339743 -2.938805e+00  1.675
 8083 1  -9.760905 -5.811569e+00  1.675
 8084 1 -11.000082 -5.118143e+00  1.675
 8085 1 -11.019146 -3.698271e+00  1.675
 8086 1  -9.799033 -2.971825e+00  1.675
 8087 1 -12.220195 -5.844589e+00  1.675
 8088 1 -13.459373 -5.151164e+00  1.675
 8089 1 -13.478437 -3.731292e+00  1.675
 8090 1 -12.258324 -3.004845e+00  1.675
 8091 1 -14.679486 -5.877610e+00  1.675
 8092 1 -15.918663 -5.184184e+00  1.675
 8093 1 -15.937727 -3.764312e+00  1.675
 8094 1 -14.717614 -3.037866e+00  1.675
 8095 1 -17.138776 -5.910630e+00  1.675
 8096 1 -18.377954 -5.217204e+00  1.675
 8097 1 -18.397018 -3.797332e+00  1.675
 8098 1 -17.176905 -3.070886e+00  1.675
 8099 1 -19.598067 -5.943650e+00  1.675
 8100 1 -20.837244 -5.250224e+00  1.675
 8101 1 -20.856308 -3.830352e+00  1.675
 8102 1 -19.636195 -3.103906e+00  1.675
 8103 1 -22.057357 -5.976671e+00  1.675
 8104 1 -23.296535 -5.283245e+00  1.675
 8105 1 -23.315599 -3.863373e+00  1.675
 8106 1 -22.095486 -3.136927e+00  1.675
 8107 1 -24.516648 -6.009691e+00  1.675
 8108 1 -25.755825 -5.316265e+00  1.675
 8109 1 -25.774889 -3.896393e+00  1.675
 8110 1 -24.554776 -3.169947e+00  1.675
 8111 1 -26.975938 -6.042711e+00  1.675
 8112 1 -28.215116 -5.349285e+00  1.675
 8113 1 -28.234180 -3.929413e+00  1.675
 8114 1 -27.014067 -3.202967e+00  1.675
 8115 1 -29.435229 -6.075731e+00  1.675
 8116 1 -30.674406 -5.382306e+00  1.675
 8117 1 -30.693470 -3.962434e+00  1.675
 8118 1 -29.473357 -3.235987e+00  1.675
 8119 1 -31.894519 -6.108752e+00  1.675
 8120 1 -33.133697 -5.415326e+00  1.675
 8121 1 -33.152761 -3.995454e+00  1.675
 8122 1 -31.932648 -3.269008e+00  1.675
 8123 1 -34.353810 -6.141772e+00  1.675
 8124 1 -35.592987 -5.448346e+00  1.675
 8125 1 -35.612051 -4.028474e+00  1.675
 8126 1 -34.391938 -3.302028e+00  1.675
 8127 1 -36.813100 -6.174792e+00  1.675
 8128 1 -38.052277 -5.481366e+00  1.675
 8129 1 -38.071342 -4.061494e+00  1.675
 8130 1 -36.851229 -3.335048e+00  1.675
 8131 1 -39.272391 -6.207813e+00  1.675
 8132 1 -40.511568 -5.514387e+00  1.675
 8133 1 -40.530632 -4.094515e+00  1.675
 8134 1 -39.310519 -3.368069e+00  1.675
 8135 1 -41.731681 -6.240833e+00  1.675
 8136 1 -42.970858 -5.547407e+00  1.675
 8137 1 -42.989923 -4.127535e+00  1.675
 8138 1 -41.769810 -3.401089e+00  1.675
 8139 1 -44.190972 -6.273853e+00  1.675
 8140 1 -45.430149 -5.580427e+00  1.675
 8141 1 -45.449213 -4.160555e+00  1.675
 8142 1 -44.229100 -3.434109e+00  1.675
 8143 1 -46.650262 -6.306873e+00  1.675
 8144 1 -47.889439 -5.613448e+00  1.675
 8145 1 -47.908504 -4.193576e+00  1.675
 8146 1 -46.688391 -3.467129e+00  1.675
 8147 1 -49.109553 -6.339894e+00  1.675
 8148 1 -50.348730 -5.646468e+00  1.675
 8149 1 -50.367794 -4.226596e+00  1.675
 8150 1 -49.147681 -3.500150e+00  1.675
 8151 1 -51.568843 -6.372914e+00  1.675
 8152 1 -52.808020 -5.679488e+00  1.675
 8153 1 -52.827085 -4.259616e+00  1.675
 8154 1 -51.606972 -3.533170e+00  1.675
 8155 1 -54.028133 -6.405934e+00  1.675
 8156 1 -55.267311 -5.712508e+00  1.675
 8157 1 -55.286375 -4.292636e+00  1.675
 8158 1 -54.066262 -3.566190e+00  1.675
 8159 1 -56.487424 -6.438955e+00  1.675
 8160 1 -57.726601 -5.745529e+00  1.675
 8161 1 -57.745666 -4.325657e+00  1.675
 8162 1 -56.525552 -3.599210e+00  1.675
 8163 1 -58.946714 -6.471975e+00  1.675
 8164 1 -60.185892 -5.778549e+00  1.675
 8165 1 -60.204956 -4.358677e+00  1.675
 8166 1 -58.984843 -3.632231e+00  1.675
 8167 1 -61.406005 -6.504995e+00  1.675
 8168 1 -62.645182 -5.811569e+00  1.675
 8169 1 -62.664247 -4.391697e+00  1.675
 8170 1 -61.444133 -3.665251e+00  1.675
 8171 1 -63.865295 -6.538015e+00  1.675
 8172 1 -65.104473 -5.844589e+00  1.675
 8173 1 -65.123537 -4.424717e+00  1.675
 8174 1 -63.903424 -3.698271e+00  1.675
 8175 1 -66.324586 -6.571036e+00  1.675
 8176 1 -67.563763 -5.877610e+00  1.675
 8177 1 -67.582828 -4.457738e+00  1.675
 8178 1 -66.362714 -3.731292e+00  1.675
 8179 1 -68.783876 -6.604056e+00  1.675
 8180 1 -70.023054 -5.910630e+00  1.675
 8181 1 -70.042118 -4.490758e+00  1.675
 8182 1 -68.822005 -3.764312e+00  1.675
 8183 1 -71.243167 -6.637076e+00  1.675
 8184 1 -72.482344 -5.943650e+00  1.675
 8185 1 -72.501408 -4.523778e+00  1.675
 8186 1 -71.281295 -3.797332e+00  1.675
 8187 1 -73.702457 -6.670096e+00  1.675
 8188 1 -74.941635 -5.976671e+00  1.675
 8189 1 -74.960699 -4.556799e+00  1.675
 8190 1 -73.740586 -3.830352e+00  1.675
 8191 1 -76.161748 -6.703117e+00  1.675
 8192 1 -77.400925 -6.009691e+00  1.675
 8193 1 -77.419989 -4.589819e+00  1.675
 8194 1 -76.199876 -3.863373e+00  1.675
 8195 1 -78.621038 -6.736137e+00  1.675
 8196 1 -78.659167 -3.896393e+00  1.675
 8197 1  78.716360 -3.632231e-01  1.675
 8198 1  77.477182  3.302028e-01  1.675
 8199 1  77.458118  1.750075e+00  1.675
 8200 1  78.678231  2.476521e+00  1.675
 8201 1  76.257069 -3.962434e-01  1.675
 8202 1  75.017892  2.971825e-01  1.675
 8203 1  74.998827  1.717055e+00  1.675
 8204 1  76.218941  2.443501e+00  1.675
 8205 1  73.797779 -4.292636e-01  1.675
 8206 1  72.558601  2.641622e-01  1.675
 8207 1  72.539537  1.684034e+00  1.675
 8208 1  73.759650  2.410480e+00  1.675
 8209 1  71.338488 -4.622839e-01  1.675
 8210 1  70.099311  2.311420e-01  1.675
 8211 1  70.080247  1.651014e+00  1.675
 8212 1  71.300360  2.377460e+00  1.675
 8213 1  68.879198 -4.953042e-01  1.675
 8214 1  67.640020  1.981217e-01  1.675
 8215 1  67.620956  1.617994e+00  1.675
 8216 1  68.841069  2.344440e+00  1.675
 8217 1  66.419907 -5.283245e-01  1.675
 8218 1  65.180730  1.651014e-01  1.675
 8219 1  65.161666  1.584973e+00  1.675
 8220 1  66.381779  2.311420e+00  1.675
 8221 1  63.960617 -5.613448e-01  1.675
 8222 1  62.721439  1.320811e-01  1.675
 8223 1  62.702375  1.551953e+00  1.675
 8224 1  63.922488  2.278399e+00  1.675
 8225 1  61.501326 -5.943650e-01  1.675
 8226 1  60.262149  9.906084e-02  1.675
 8227 1  60.243085  1.518933e+00  1.675
 8228 1  61.463198  2.245379e+00  1.675
 8229 1  59.042036 -6.273853e-01  1.675
 8230 1  57.802858  6.604056e-02  1.675
 8231 1  57.783794  1.485913e+00  1.675
 8232 1  59.003907  2.212359e+00  1.675
 8233 1  56.582745 -6.604056e-01  1.675
 8234 1  55.343568  3.302028e-02  1.675
 8235 1  55.324504  1.452892e+00  1.675
 8236 1  56.544617  2.179338e+00  1.675
 8237 1  54.123455 -6.934259e-01  1.675
 8238 1  52.884277 -3.100197e-15  1.675
 8239 1  52.865213  1.419872e+00  1.675
 8240 1  54.085326  2.146318e+00  1.675
 8241 1  51.664164 -7.264461e-01  1.675
 8242 1  50.424987 -3.302028e-02  1.675
 8243 1  50.405923  1.386852e+00  1.675
 8244 1  51.626036  2.113298e+00  1.675
 8245 1  49.204874 -7.594664e-01  1.675
 8246 1  47.965696 -6.604056e-02  1.675
 8247 1  47.946632  1.353831e+00  1.675
 8248 1  49.166745  2.080278e+00  1.675
 8249 1  46.745583 -7.924867e-01  1.675
 8250 1  45.506406 -9.906084e-02  1.675
 8251 1  45.487342  1.320811e+00  1.675
 8252 1  46.707455  2.047257e+00  1.675
 8253 1  44.286293 -8.255070e-01  1.675
 8254 1  43.047116 -1.320811e-01  1.675
 8255 1  43.028051  1.287791e+00  1.675
 8256 1  44.248164  2.014237e+00  1.675
 8257 1  41.827002 -8.585273e-01  1.675
 8258 1  40.587825 -1.651014e-01  1.675
 8259 1  40.568761  1.254771e+00  1.675
 8260 1  41.788874  1.981217e+00  1.675
 8261 1  39.367712 -8.915475e-01  1.675
 8262 1  38.128535 -1.981217e-01  1.675
 8263 1  38.109470  1.221750e+00  1.675
 8264 1  39.329583  1.948196e+00  1.675
 8265 1  36.908421 -9.245678e-01  1.675
 8266 1  35.669244 -2.311420e-01  1.675
 8267 1  35.650180  1.188730e+00  1.675
 8268 1  36.870293  1.915176e+00  1.675
 8269 1  34.449131 -9.575881e-01  1.675
 8270 1  33.209954 -2.641622e-01  1.675
 8271 1  33.190889  1.155710e+00  1.675
 8272 1  34.411002  1.882156e+00  1.675
 8273 1  31.989840 -9.906084e-01  1.675
 8274 1  30.750663 -2.971825e-01  1.675
 8275 1  30.731599  1.122690e+00  1.675
 8276 1  31.951712  1.849136e+00  1.675
 8277 1  29.530550 -1.023629e+00  1.675
 8278 1  28.291373 -3.302028e-01  1.675
 8279 1  28.272308  1.089669e+00  1.675
 8280 1  29.492421  1.816115e+00  1.675
 8281 1  27.071260 -1.056649e+00  1.675
 8282 1  25.832082 -3.632231e-01  1.675
 8283 1  25.813018  1.056649e+00  1.675
 8284 1  27.033131  1.783095e+00  1.675
 8285 1  24.611969 -1.089669e+00  1.675
 8286 1  23.372792 -3.962434e-01  1.675
 8287 1  23.353727  1.023629e+00  1.675
 8288 1  24.573841  1.750075e+00  1.675
 8289 1  22.152679 -1.122690e+00  1.675
 8290 1  20.913501 -4.292636e-01  1.675
 8291 1  20.894437  9.906084e-01  1.675
 8292 1  22.114550  1.717055e+00  1.675
 8293 1  19.693388 -1.155710e+00  1.675
 8294 1  18.454211 -4.622839e-01  1.675
 8295 1  18.435146  9.575881e-01  1.675
 8296 1  19.655260  1.684034e+00  1.675
 8297 1  17.234098 -1.188730e+00  1.675
 8298 1  15.994920 -4.953042e-01  1.675
 8299 1  15.975856  9.245678e-01  1.675
 8300 1  17.195969  1.651014e+00  1.675
 8301 1  14.774807 -1.221750e+00  1.675
 8302 1  13.535630 -5.283245e-01  1.675
 8303 1  13.516566  8.915475e-01  1.675
 8304 1  14.736679  1.617994e+00  1.675
 8305 1  12.315517 -1.254771e+00  1.675
 8306 1  11.076339 -5.613448e-01  1.675
 8307 1  11.057275  8.585273e-01  1.675
 8308 1  12.277388  1.584973e+00  1.675
 8309 1   9.856226 -1.287791e+00  1.675
 8310 1   8.617049 -5.943650e-01  1.675
 8311 1   8.597985  8.255070e-01  1.675
 8312 1   9.818098  1.551953e+00  1.675
 8313 1   7.396936 -1.320811e+00  1.675
 8314 1   6.157758 -6.273853e-01  1.675
 8315 1   6.138694  7.924867e-01  1.675
 8316 1   7.358807  1.518933e+00  1.675
 8317 1   4.937645 -1.353831e+00  1.675
 8318 1   3.698468 -6.604056e-01  1.675
 8319 1   3.679404  7.594664e-01  1.675
 8320 1   4.899517  1.485913e+00  1.675
 8321 1   2.478355 -1.386852e+00  1.675
 8322 1   1.239177 -6.934259e-01  1.675
 8323 1   1.220113  7.264461e-01  1.675
 8324 1   2.440226  1.452892e+00  1.675
 8325 1   0.019064 -1.419872e+00  1.675
 8326 1  -1.220113 -7.264461e-01  1.675
 8327 1  -1.239177  6.934259e-01  1.675
 8328 1  -0.019064  1.419872e+00  1.675
 8329 1  -2.440226 -1.452892e+00  1.675
 8330 1  -3.679404 -7.594664e-01  1.675
 8331 1  -3.698468  6.604056e-01  1.675
 8332 1  -2.478355  1.386852e+00  1.675
 8333 1  -4.899517 -1.485913e+00  1.675
 8334 1  -6.138694 -7.924867e-01  1.675
 8335 1  -6.157758  6.273853e-01  1.675
 8336 1  -4.937645  1.353831e+00  1.675
 8337 1  -7.358807 -1.518933e+00  1.675
 8338 1  -8.597985 -8.255070e-01  1.675
 8339 1  -8.617049  5.943650e-01  1.675
 8340 1  -7.396936  1.320811e+00  1.675
 8341 1  -9.818098 -1.551953e+00  1.675
 8342 1 -11.057275 -8.585273e-01  1.675
 8343 1 -11.076339  5.613448e-01  1.675
 8344 1  -9.856226  1.287791e+00  1.675
 8345 1 -12.277388 -1.584973e+00  1.675
 8346 1 -13.516566 -8.915475e-01  1.675
 8347 1 -13.535630  5.283245e-01  1.675
 8348 1 -12.315517  1.254771e+00  1.675
 8349 1 -14.736679 -1.617994e+00  1.675
 8350 1 -15.975856 -9.245678e-01  1.675
 8351 1 -15.994920  4.953042e-01  1.675
 8352 1 -14.774807  1.221750e+00  1.675
 8353 1 -17.195969 -1.651014e+00  1.675
 8354 1 -18.435146 -9.575881e-01  1.675
 8355 1 -18.454211  4.622839e-01  1.675
 8356 1 -17.234098  1.188730e+00  1.675
 8357 1 -19.655260 -1.684034e+00  1.675
 8358 1 -20.894437 -9.906084e-01  1.675
 8359 1 -20.913501  4.292636e-01  1.675
 8360 1 -19.693388  1.155710e+00  1.675
 8361 1 -22.114550 -1.717055e+00  1.675
 8362 1 -23.353727 -1.023629e+00  1.675
 8363 1 -23.372792  3.962434e-01  1.675
 8364 1 -22.152679  1.122690e+00  1.675
 8365 1 -24.573841 -1.750075e+00  1.675
 8366 1 -25.813018 -1.056649e+00  1.675
 8367 1 -25.832082  3.632231e-01  1.675
 8368 1 -24.611969  1.089669e+00  1.675
 8369 1 -27.033131 -1.783095e+00  1.675
 8370 1 -28.272308 -1.089669e+00  1.675
 8371 1 -28.291373  3.302028e-01  1.675
 8372 1 -27.071260  1.056649e+00  1.675
 8373 1 -29.492421 -1.816115e+00  1.675
 8374 1 -30.731599 -1.122690e+00  1.675
 8375 1 -30.750663  2.971825e-01  1.675
 8376 1 -29.530550  1.023629e+00  1.675
 8377 1 -31.951712 -1.849136e+00  1.675
 8378 1 -33.190889 -1.155710e+00  1.675
 8379 1 -33.209954  2.641622e-01  1.675
 8380 1 -31.989840  9.906084e-01  1.675
 8381 1 -34.411002 -1.882156e+00  1.675
 8382 1 -35.650180 -1.188730e+00  1.675
 8383 1 -35.669244  2.311420e-01  1.675
 8384 1 -34.449131  9.575881e-01  1.675
 8385 1 -36.870293 -1.915176e+00  1.675
 8386 1 -38.109470 -1.221750e+00  1.675
 8387 1 -38.128535  1.981217e-01  1.675
 8388 1 -36.908421  9.245678e-01  1.675
 8389 1 -39.329583 -1.948196e+00  1.675
 8390 1 -40.568761 -1.254771e+00  1.675
 8391 1 -40.587825  1.651014e-01  1.675
 8392 1 -39.367712  8.915475e-01  1.675
 8393 1 -41.788874 -1.981217e+00  1.675
 8394 1 -43.028051 -1.287791e+00  1.675
 8395 1 -43.047116  1.320811e-01  1.675
 8396 1 -41.827002  8.585273e-01  1.675
 8397 1 -44.248164 -2.014237e+00  1.675
 8398 1 -45.487342 -1.320811e+00  1.675
 8399 1 -45.506406  9.906084e-02  1.675
 8400 1 -44.286293  8.255070e-01  1.675
 8401 1 -46.707455 -2.047257e+00  1.675
 8402 1 -47.946632 -1.353831e+00  1.675
 8403 1 -47.965696  6.604056e-02  1.675
 8404 1 -46.745583  7.924867e-01  1.675
 8405 1 -49.166745 -2.080278e+00  1.675
 8406 1 -50.405923 -1.386852e+00  1.675
 8407 1 -50.424987  3.302028e-02  1.675
 8408 1 -49.204874  7.594664e-01  1.675
 8409 1 -51.626036 -2.113298e+00  1.675
 8410 1 -52.865213 -1.419872e+00  1.675
 8411 1 -52.884277  3.131471e-15  1.675
 8412 1 -51.664164  7.264461e-01  1.675
 8413 1 -54.085326 -2.146318e+00  1.675
 8414 1 -55.324504 -1.452892e+00  1.675
 8415 1 -55.343568 -3.302028e-02  1.675
 8416 1 -54.123455  6.934259e-01  1.675
 8417 1 -56.544617 -2.179338e+00  1.675
 8418 1 -57.783794 -1.485913e+00  1.675
 8419 1 -57.802858 -6.604056e-02  1.675
 8420 1 -56.582745  6.604056e-01  1.675
 8421 1 -59.003907 -2.212359e+00  1.675
 8422 1 -60.243085 -1.518933e+00  1.675
 8423 1 -60.262149 -9.906084e-02  1.675
 8424 1 -59.042036  6.273853e-01  1.675
 8425 1 -61.463198 -2.245379e+00  1.675
 8426 1 -62.702375 -1.551953e+00  1.675
 8427 1 -62.721439 -1.320811e-01  1.675
 8428 1 -61.501326  5.943650e-01  1.675
 8429 1 -63.922488 -2.278399e+00  1.675
 8430 1 -65.161666 -1.584973e+00  1.675
 8431 1 -65.180730 -1.651014e-01  1.675
 8432 1 -63.960617  5.613448e-01  1.675
 8433 1 -66.381779 -2.311420e+00  1.675
 8434 1 -67.620956 -1.617994e+00  1.675
 8435 1 -67.640020 -1.981217e-01  1.675
 8436 1 -66.419907  5.283245e-01  1.675
 8437 1 -68.841069 -2.344440e+00  1.675
 8438 1 -70.080247 -1.651014e+00  1.675
 8439 1 -70.099311 -2.311420e-01  1.675
 8440 1 -68.879198  4.953042e-01  1.675
 8441 1 -71.300360 -2.377460e+00  1.675
 8442 1 -72.539537 -1.684034e+00  1.675
 8443 1 -72.558601 -2.641622e-01  1.675
 8444 1 -71.338488  4.622839e-01  1.675
 8445 1 -73.759650 -2.410480e+00  1.675
 8446 1 -74.998827 -1.717055e+00  1.675
 8447 1 -75.017892 -2.971825e-01  1.675
 8448 1 -73.797779  4.292636e-01  1.675
 8449 1 -76.218941 -2.443501e+00  1.675
 8450 1 -77.458118 -1.750075e+00  1.675
 8451 1 -77.477182 -3.302028e-01  1.675
 8452 1 -76.257069  3.962434e-01  1.675
 8453 1 -78.678231 -2.476521e+00  1.675
 8454 1 -78.716360  3.632231e-01  1.675
 8455 1  78.659167  3.896393e+00  1.675
 8456 1  77.419989  4.589819e+00  1.675
 8457 1  77.400925  6.009691e+00  1.675
 8458 1  78.621038  6.736137e+00  1.675
 8459 1  76.199876  3.863373e+00  1.675
 8460 1  74.960699  4.556799e+00  1.675
 8461 1  74.941635  5.976671e+00  1.675
 8462 1  76.161748  6.703117e+00  1.675
 8463 1  73.740586  3.830352e+00  1.675
 8464 1  72.501408  4.523778e+00  1.675
 8465 1  72.482344  5.943650e+00  1.675
 8466 1  73.702457  6.670096e+00  1.675
 8467 1  71.281295  3.797332e+00  1.675
 8468 1  70.042118  4.490758e+00  1.675
 8469 1  70.023054  5.910630e+00  1.675
 8470 1  71.243167  6.637076e+00  1.675
 8471 1  68.822005  3.764312e+00  1.675
 8472 1  67.582828  4.457738e+00  1.675
 8473 1  67.563763  5.877610e+00  1.675
 8474 1  68.783876  6.604056e+00  1.675
 8475 1  66.362714  3.731292e+00  1.675
 8476 1  65.123537  4.424717e+00  1.675
 8477 1  65.104473  5.844589e+00  1.675
 8478 1  66.324586  6.571036e+00  1.675
 8479 1  63.903424  3.698271e+00  1.675
 8480 1  62.664247  4.391697e+00  1.675
 8481 1  62.645182  5.811569e+00  1.675
 8482 1  63.865295  6.538015e+00  1.675
 8483 1  61.444133  3.665251e+00  1.675
 8484 1  60.204956  4.358677e+00  1.675
 8485 1  60.185892  5.778549e+00  1.675
 8486 1  61.406005  6.504995e+00  1.675
 8487 1  58.984843  3.632231e+00  1.675
 8488 1  57.745666  4.325657e+00  1.675
 8489 1  57.726601  5.745529e+00  1.675
 8490 1  58.946714  6.471975e+00  1.675
 8491 1  56.525552  3.599210e+00  1.675
 8492 1  55.286375  4.292636e+00  1.675
 8493 1  55.267311  5.712508e+00  1.675
 8494 1  56.487424  6.438955e+00  1.675
 8495 1  54.066262  3.566190e+00  1.675
 8496 1  52.827085  4.259616e+00  1.675
 8497 1  52.808020  5.679488e+00  1.675
 8498 1  54.028133  6.405934e+00  1.675
 8499 1  51.606972  3.533170e+00  1.675
 8500 1  50.367794  4.226596e+00  1.675
 8501 1  50.348730  5.646468e+00  1.675
 8502 1  51.568843  6.372914e+00  1.675
 8503 1  49.147681  3.500150e+00  1.675
 8504 1  47.908504  4.193576e+00  1.675
 8505 1  47.889439  5.613448e+00  1.675
 8506 1  49.109553  6.339894e+00  1.675
 8507 1  46.688391  3.467129e+00  1.675
 8508 1  45.449213  4.160555e+00  1.675
 8509 1  45.430149  5.580427e+00  1.675
 8510 1  46.650262  6.306873e+00  1.675
 8511 1  44.229100  3.434109e+00  1.675
 8512 1  42.989923  4.127535e+00  1.675
 8513 1  42.970858  5.547407e+00  1.675
 8514 1  44.190972  6.273853e+00  1.675
 8515 1  41.769810  3.401089e+00  1.675
 8516 1  40.530632  4.094515e+00  1.675
 8517 1  40.511568  5.514387e+00  1.675
 8518 1  41.731681  6.240833e+00  1.675
 8519 1  39.310519  3.368069e+00  1.675
 8520 1  38.071342  4.061494e+00  1.675
 8521 1  38.052277  5.481366e+00  1.675
 8522 1  39.272391  6.207813e+00  1.675
 8523 1  36.851229  3.335048e+00  1.675
 8524 1  35.612051  4.028474e+00  1.675
 8525 1  35.592987  5.448346e+00  1.675
 8526 1  36.813100  6.174792e+00  1.675
 8527 1  34.391938  3.302028e+00  1.675
 8528 1  33.152761  3.995454e+00  1.675
 8529 1  33.133697  5.415326e+00  1.675
 8530 1  34.353810  6.141772e+00  1.675
 8531 1  31.932648  3.269008e+00  1.675
 8532 1  30.693470  3.962434e+00  1.675
 8533 1  30.674406  5.382306e+00  1.675
 8534 1  31.894519  6.108752e+00  1.675
 8535 1  29.473357  3.235987e+00  1.675
 8536 1  28.234180  3.929413e+00  1.675
 8537 1  28.215116  5.349285e+00  1.675
 8538 1  29.435229  6.075731e+00  1.675
 8539 1  27.014067  3.202967e+00  1.675
 8540 1  25.774889  3.896393e+00  1.675
 8541 1  25.755825  5.316265e+00  1.675
 8542 1  26.975938  6.042711e+00  1.675
 8543 1  24.554776  3.169947e+00  1.675
 8544 1  23.315599  3.863373e+00  1.675
 8545 1  23.296535  5.283245e+00  1.675
 8546 1  24.516648  6.009691e+00  1.675
 8547 1  22.095486  3.136927e+00  1.675
 8548 1  20.856308  3.830352e+00  1.675
 8549 1  20.837244  5.250224e+00  1.675
 8550 1  22.057357  5.976671e+00  1.675
 8551 1  19.636195  3.103906e+00  1.675
 8552 1  18.397018  3.797332e+00  1.675
 8553 1  18.377954  5.217204e+00  1.675
 8554 1  19.598067  5.943650e+00  1.675
 8555 1  17.176905  3.070886e+00  1.675
 8556 1  15.937727  3.764312e+00  1.675
 8557 1  15.918663  5.184184e+00  1.675
 8558 1  17.138776  5.910630e+00  1.675
 8559 1  14.717614  3.037866e+00  1.675
 8560 1  13.478437  3.731292e+00  1.675
 8561 1  13.459373  5.151164e+00  1.675
 8562 1  14.679486  5.877610e+00  1.675
 8563 1  12.258324  3.004845e+00  1.675
 8564 1  11.019146  3.698271e+00  1.675
 8565 1  11.000082  5.118143e+00  1.675
 8566 1  12.220195  5.844589e+00  1.675
 8567 1   9.799033  2.971825e+00  1.675
 8568 1   8.559856  3.665251e+00  1.675
 8569 1   8.540792  5.085123e+00  1.675
 8570 1   9.760905  5.811569e+00  1.675
 8571 1   7.339743  2.938805e+00  1.675
 8572 1   6.100566  3.632231e+00  1.675
 8573 1   6.081501  5.052103e+00  1.675
 8574 1   7.301614  5.778549e+00  1.675
 8575 1   4.880452  2.905785e+00  1.675
 8576 1   3.641275  3.599210e+00  1.675
 8577 1   3.622211  5.019082e+00  1.675
 8578 1   4.842324  5.745529e+00  1.675
 8579 1   2.421162  2.872764e+00  1.675
 8580 1   1.181985  3.566190e+00  1.675
 8581 1   1.162920  4.986062e+00  1.675
 8582 1   2.383033  5.712508e+00  1.675
 8583 1  -0.038129  2.839744e+00  1.675
 8584 1  -1.277306  3.533170e+00  1.675
 8585 1  -1.296370  4.953042e+00  1.675
 8586 1  -0.076257  5.679488e+00  1.675
 8587 1  -2.497419  2.806724e+00  1.675
 8588 1  -3.736596  3.500150e+00  1.675
 8589 1  -3.755661  4.920022e+00  1.675
 8590 1  -2.535548  5.646468e+00  1.675
 8591 1  -4.956709  2.773703e+00  1.675
 8592 1  -6.195887  3.467129e+00  1.675
 8593 1  -6.214951  4.887001e+00  1.675
 8594 1  -4.994838  5.613448e+00  1.675
 8595 1  -7.416000  2.740683e+00  1.675
 8596 1  -8.655177  3.434109e+00  1.675
 8597 1  -8.674242  4.853981e+00  1.675
 8598 1  -7.454129  5.580427e+00  1.675
 8599 1  -9.875290  2.707663e+00  1.675
 8600 1 -11.114468  3.401089e+00  1.675
 8601 1 -11.133532  4.820961e+00  1.675
 8602 1  -9.913419  5.547407e+00  1.675
 8603 1 -12.334581  2.674643e+00  1.675
 8604 1 -13.573758  3.368069e+00  1.675
 8605 1 -13.592823  4.787941e+00  1.675
 8606 1 -12.372709  5.514387e+00  1.675
 8607 1 -14.793871  2.641622e+00  1.675
 8608 1 -16.033049  3.335048e+00  1.675
 8609 1 -16.052113  4.754920e+00  1.675
 8610 1 -14.832000  5.481366e+00  1.675
 8611 1 -17.253162  2.608602e+00  1.675
 8612 1 -18.492339  3.302028e+00  1.675
 8613 1 -18.511404  4.721900e+00  1.675
 8614 1 -17.291290  5.448346e+00  1.675
 8615 1 -19.712452  2.575582e+00  1.675
 8616 1 -20.951630  3.269008e+00  1.675
 8617 1 -20.970694  4.688880e+00  1.675
 8618 1 -19.750581  5.415326e+00  1.675
 8619 1 -22.171743  2.542562e+00  1.675
 8620 1 -23.410920  3.235987e+00  1.675
 8621 1 -23.429984  4.655859e+00  1.675
 8622 1 -22.209871  5.382306e+00  1.675
 8623 1 -24.631033  2.509541e+00  1.675
 8624 1 -25.870211  3.202967e+00  1.675
 8625 1 -25.889275  4.622839e+00  1.675
 8626 1 -24.669162  5.349285e+00  1.675
 8627 1 -27.090324  2.476521e+00  1.675
 8628 1 -28.329501  3.169947e+00  1.675
 8629 1 -28.348565  4.589819e+00  1.675
 8630 1 -27.128452  5.316265e+00  1.675
 8631 1 -29.549614  2.443501e+00  1.675
 8632 1 -30.788792  3.136927e+00  1.675
 8633 1 -30.807856  4.556799e+00  1.675
 8634 1 -29.587743  5.283245e+00  1.675
 8635 1 -32.008905  2.410480e+00  1.675
 8636 1 -33.248082  3.103906e+00  1.675
 8637 1 -33.267146  4.523778e+00  1.675
 8638 1 -32.047033  5.250224e+00  1.675
 8639 1 -34.468195  2.377460e+00  1.675
 8640 1 -35.707373  3.070886e+00  1.675
 8641 1 -35.726437  4.490758e+00  1.675
 8642 1 -34.506324  5.217204e+00  1.675
 8643 1 -36.927486  2.344440e+00  1.675
 8644 1 -38.166663  3.037866e+00  1.675
 8645 1 -38.185727  4.457738e+00  1.675
 8646 1 -36.965614  5.184184e+00  1.675
 8647 1 -39.386776  2.311420e+00  1.675
 8648 1 -40.625954  3.004845e+00  1.675
 8649 1 -40.645018  4.424717e+00  1.675
 8650 1 -39.424905  5.151164e+00  1.675
 8651 1 -41.846067  2.278399e+00  1.675
 8652 1 -43.085244  2.971825e+00  1.675
 8653 1 -43.104308  4.391697e+00  1.675
 8654 1 -41.884195  5.118143e+00  1.675
 8655 1 -44.305357  2.245379e+00  1.675
 8656 1 -45.544535  2.938805e+00  1.675
 8657 1 -45.563599  4.358677e+00  1.675
 8658 1 -44.343486  5.085123e+00  1.675
 8659 1 -46.764648  2.212359e+00  1.675
 8660 1 -48.003825  2.905785e+00  1.675
 8661 1 -48.022889  4.325657e+00  1.675
 8662 1 -46.802776  5.052103e+00  1.675
 8663 1 -49.223938  2.179338e+00  1.675
 8664 1 -50.463115  2.872764e+00  1.675
 8665 1 -50.482180  4.292636e+00  1.675
 8666 1 -49.262067  5.019082e+00  1.675
 8667 1 -51.683229  2.146318e+00  1.675
 8668 1 -52.922406  2.839744e+00  1.675
 8669 1 -52.941470  4.259616e+00  1.675
 8670 1 -51.721357  4.986062e+00  1.675
 8671 1 -54.142519  2.113298e+00  1.675
 8672 1 -55.381696  2.806724e+00  1.675
 8673 1 -55.400761  4.226596e+00  1.675
 8674 1 -54.180648  4.953042e+00  1.675
 8675 1 -56.601810  2.080278e+00  1.675
 8676 1 -57.840987  2.773703e+00  1.675
 8677 1 -57.860051  4.193576e+00  1.675
 8678 1 -56.639938  4.920022e+00  1.675
 8679 1 -59.061100  2.047257e+00  1.675
 8680 1 -60.300277  2.740683e+00  1.675
 8681 1 -60.319342  4.160555e+00  1.675
 8682 1 -59.099229  4.887001e+00  1.675
 8683 1 -61.520391  2.014237e+00  1.675
 8684 1 -62.759568  2.707663e+00  1.675
 8685 1 -62.778632  4.127535e+00  1.675
 8686 1 -61.558519  4.853981e+00  1.675
 8687 1 -63.979681  1.981217e+00  1.675
 8688 1 -65.218858  2.674643e+00  1.675
 8689 1 -65.237923  4.094515e+00  1.675
 8690 1 -64.017810  4.820961e+00  1.675
 8691 1 -66.438971  1.948196e+00  1.675
 8692 1 -67.678149  2.641622e+00  1.675
 8693 1 -67.697213  4.061494e+00  1.675
 8694 1 -66.477100  4.787941e+00  1.675
 8695 1 -68.898262  1.915176e+00  1.675
 8696 1 -70.137439  2.608602e+00  1.675
 8697 1 -70.156504  4.028474e+00  1.675
 8698 1 -68.936390  4.754920e+00  1.675
 8699 1 -71.357552  1.882156e+00  1.675
 8700 1 -72.596730  2.575582e+00  1.675
 8701 1 -72.615794  3.995454e+00  1.675
 8702 1 -71.395681  4.721900e+00  1.675
 8703 1 -73.816843  1.849136e+00  1.675
 8704 1 -75.056020  2.542562e+00  1.675
 8705 1 -75.075085  3.962434e+00  1.675
 8706 1 -73.854971  4.688880e+00  1.675
 8707 1 -76.276133  1.816115e+00  1.675
 8708 1 -77.515311  2.509541e+00  1.675
 8709 1 -77.534375  3.929413e+00  1.675
 8710 1 -76.314262  4.655859e+00  1.675
 8711 1 -78.735424  1.783095e+00  1.675
 8712 1 -78.773552  4.622839e+00  1.675
 8713 1  78.601974  8.156009e+00  1.675
 8714 1  77.362797  8.849435e+00  1.675
 8715 1  77.343732  1.026931e+01  1.675
 8716 1  78.563845  1.099575e+01  1.675
 8717 1  76.142684  8.122989e+00  1.675
 8718 1  74.903506  8.816415e+00  1.675
 8719 1  74.884442  1.023629e+01  1.675
 8720 1  76.104555  1.096273e+01  1.675
 8721 1  73.683393  8.089968e+00  1.675
 8722 1  72.444216  8.783394e+00  1.675
 8723 1  72.425151  1.020327e+01  1.675
 8724 1  73.645265  1.092971e+01  1.675
 8725 1  71.224103  8.056948e+00  1.675
 8726 1  69.984925  8.750374e+00  1.675
 8727 1  69.965861  1.017025e+01  1.675
 8728 1  71.185974  1.089669e+01  1.675
 8729 1  68.764812  8.023928e+00  1.675
 8730 1  67.525635  8.717354e+00  1.675
 8731 1  67.506570  1.013723e+01  1.675
 8732 1  68.726684  1.086367e+01  1.675
 8733 1  66.305522  7.990908e+00  1.675
 8734 1  65.066344  8.684334e+00  1.675
 8735 1  65.047280  1.010421e+01  1.675
 8736 1  66.267393  1.083065e+01  1.675
 8737 1  63.846231  7.957887e+00  1.675
 8738 1  62.607054  8.651313e+00  1.675
 8739 1  62.587989  1.007119e+01  1.675
 8740 1  63.808103  1.079763e+01  1.675
 8741 1  61.386941  7.924867e+00  1.675
 8742 1  60.147763  8.618293e+00  1.675
 8743 1  60.128699  1.003816e+01  1.675
 8744 1  61.348812  1.076461e+01  1.675
 8745 1  58.927650  7.891847e+00  1.675
 8746 1  57.688473  8.585273e+00  1.675
 8747 1  57.669409  1.000514e+01  1.675
 8748 1  58.889522  1.073159e+01  1.675
 8749 1  56.468360  7.858827e+00  1.675
 8750 1  55.229182  8.552252e+00  1.675
 8751 1  55.210118  9.972124e+00  1.675
 8752 1  56.430231  1.069857e+01  1.675
 8753 1  54.009069  7.825806e+00  1.675
 8754 1  52.769892  8.519232e+00  1.675
 8755 1  52.750828  9.939104e+00  1.675
 8756 1  53.970941  1.066555e+01  1.675
 8757 1  51.549779  7.792786e+00  1.675
 8758 1  50.310601  8.486212e+00  1.675
 8759 1  50.291537  9.906084e+00  1.675
 8760 1  51.511650  1.063253e+01  1.675
 8761 1  49.090488  7.759766e+00  1.675
 8762 1  47.851311  8.453192e+00  1.675
 8763 1  47.832247  9.873064e+00  1.675
 8764 1  49.052360  1.059951e+01  1.675
 8765 1  46.631198  7.726745e+00  1.675
 8766 1  45.392020  8.420171e+00  1.675
 8767 1  45.372956  9.840043e+00  1.675
 8768 1  46.593069  1.056649e+01  1.675
 8769 1  44.171907  7.693725e+00  1.675
 8770 1  42.932730  8.387151e+00  1.675
 8771 1  42.913666  9.807023e+00  1.675
 8772 1  44.133779  1.053347e+01  1.675
 8773 1  41.712617  7.660705e+00  1.675
 8774 1  40.473439  8.354131e+00  1.675
 8775 1  40.454375  9.774003e+00  1.675
 8776 1  41.674488  1.050045e+01  1.675
 8777 1  39.253326  7.627685e+00  1.675
 8778 1  38.014149  8.321110e+00  1.675
 8779 1  37.995085  9.740982e+00  1.675
 8780 1  39.215198  1.046743e+01  1.675
 8781 1  36.794036  7.594664e+00  1.675
 8782 1  35.554858  8.288090e+00  1.675
 8783 1  35.535794  9.707962e+00  1.675
 8784 1  36.755907  1.043441e+01  1.675
 8785 1  34.334745  7.561644e+00  1.675
 8786 1  33.095568  8.255070e+00  1.675
 8787 1  33.076504  9.674942e+00  1.675
 8788 1  34.296617  1.040139e+01  1.675
 8789 1  31.875455  7.528624e+00  1.675
 8790 1  30.636278  8.222050e+00  1.675
 8791 1  30.617213  9.641922e+00  1.675
 8792 1  31.837326  1.036837e+01  1.675
 8793 1  29.416164  7.495603e+00  1.675
 8794 1  28.176987  8.189029e+00  1.675
 8795 1  28.157923  9.608901e+00  1.675
 8796 1  29.378036  1.033535e+01  1.675
 8797 1  26.956874  7.462583e+00  1.675
 8798 1  25.717697  8.156009e+00  1.675
 8799 1  25.698632  9.575881e+00  1.675
 8800 1  26.918745  1.030233e+01  1.675
 8801 1  24.497583  7.429563e+00  1.675
 8802 1  23.258406  8.122989e+00  1.675
 8803 1  23.239342  9.542861e+00  1.675
 8804 1  24.459455  1.026931e+01  1.675
 8805 1  22.038293  7.396543e+00  1.675
 8806 1  20.799116  8.089968e+00  1.675
 8807 1  20.780051  9.509841e+00  1.675
 8808 1  22.000164  1.023629e+01  1.675
 8809 1  19.579002  7.363522e+00  1.675
 8810 1  18.339825  8.056948e+00  1.675
 8811 1  18.320761  9.476820e+00  1.675
 8812 1  19.540874  1.020327e+01  1.675
 8813 1  17.119712  7.330502e+00  1.675
 8814 1  15.880535  8.023928e+00  1.675
 8815 1  15.861470  9.443800e+00  1.675
 8816 1  17.081583  1.017025e+01  1.675
 8817 1  14.660422  7.297482e+00  1.675
 8818 1  13.421244  7.990908e+00  1.675
 8819 1  13.402180  9.410780e+00  1.675
 8820 1  14.622293  1.013723e+01  1.675
 8821 1  12.201131  7.264461e+00  1.675
 8822 1  10.961954  7.957887e+00  1.675
 8823 1  10.942889  9.377759e+00  1.675
 8824 1  12.163003  1.010421e+01  1.675
 8825 1   9.741841  7.231441e+00  1.675
 8826 1   8.502663  7.924867e+00  1.675
 8827 1   8.483599  9.344739e+00  1.675
 8828 1   9.703712  1.007119e+01  1.675
 8829 1   7.282550  7.198421e+00  1.675
 8830 1   6.043373  7.891847e+00  1.675
 8831 1   6.024308  9.311719e+00  1.675
 8832 1   7.244422  1.003816e+01  1.675
 8833 1   4.823260  7.165401e+00  1.675
 8834 1   3.584082  7.858827e+00  1.675
 8835 1   3.565018  9.278699e+00  1.675
 8836 1   4.785131  1.000514e+01  1.675
 8837 1   2.363969  7.132380e+00  1.675
 8838 1   1.124792  7.825806e+00  1.675
 8839 1   1.105728  9.245678e+00  1.675
 8840 1   2.325841  9.972124e+00  1.675
 8841 1  -0.095321  7.099360e+00  1.675
 8842 1  -1.334499  7.792786e+00  1.675
 8843 1  -1.353563  9.212658e+00  1.675
 8844 1  -0.133450  9.939104e+00  1.675
 8845 1  -2.554612  7.066340e+00  1.675
 8846 1  -3.793789  7.759766e+00  1.675
 8847 1  -3.812853  9.179638e+00  1.675
 8848 1  -2.592740  9.906084e+00  1.675
 8849 1  -5.013902  7.033320e+00  1.675
 8850 1  -6.253080  7.726745e+00  1.675
 8851 1  -6.272144  9.146617e+00  1.675
 8852 1  -5.052031  9.873064e+00  1.675
 8853 1  -7.473193  7.000299e+00  1.675
 8854 1  -8.712370  7.693725e+00  1.675
 8855 1  -8.731434  9.113597e+00  1.675
 8856 1  -7.511321  9.840043e+00  1.675
 8857 1  -9.932483  6.967279e+00  1.675
 8858 1 -11.171661  7.660705e+00  1.675
 8859 1 -11.190725  9.080577e+00  1.675
 8860 1  -9.970612  9.807023e+00  1.675
 8861 1 -12.391774  6.934259e+00  1.675
 8862 1 -13.630951  7.627685e+00  1.675
 8863 1 -13.650015  9.047557e+00  1.675
 8864 1 -12.429902  9.774003e+00  1.675
 8865 1 -14.851064  6.901238e+00  1.675
 8866 1 -16.090242  7.594664e+00  1.675
 8867 1 -16.109306  9.014536e+00  1.675
 8868 1 -14.889193  9.740982e+00  1.675
 8869 1 -17.310355  6.868218e+00  1.675
 8870 1 -18.549532  7.561644e+00  1.675
 8871 1 -18.568596  8.981516e+00  1.675
 8872 1 -17.348483  9.707962e+00  1.675
 8873 1 -19.769645  6.835198e+00  1.675
 8874 1 -21.008823  7.528624e+00  1.675
 8875 1 -21.027887  8.948496e+00  1.675
 8876 1 -19.807774  9.674942e+00  1.675
 8877 1 -22.228936  6.802178e+00  1.675
 8878 1 -23.468113  7.495603e+00  1.675
 8879 1 -23.487177  8.915475e+00  1.675
 8880 1 -22.267064  9.641922e+00  1.675
 8881 1 -24.688226  6.769157e+00  1.675
 8882 1 -25.927404  7.462583e+00  1.675
 8883 1 -25.946468  8.882455e+00  1.675
 8884 1 -24.726355  9.608901e+00  1.675
 8885 1 -27.147517  6.736137e+00  1.675
 8886 1 -28.386694  7.429563e+00  1.675
 8887 1 -28.405758  8.849435e+00  1.675
 8888 1 -27.185645  9.575881e+00  1.675
 8889 1 -29.606807  6.703117e+00  1.675
 8890 1 -30.845984  7.396543e+00  1.675
 8891 1 -30.865049  8.816415e+00  1.675
 8892 1 -29.644936  9.542861e+00  1.675
 8893 1 -32.066098  6.670096e+00  1.675
 8894 1 -33.305275  7.363522e+00  1.675
 8895 1 -33.324339  8.783394e+00  1.675
 8896 1 -32.104226  9.509841e+00  1.675
 8897 1 -34.525388  6.637076e+00  1.675
 8898 1 -35.764565  7.330502e+00  1.675
 8899 1 -35.783630  8.750374e+00  1.675
 8900 1 -34.563517  9.476820e+00  1.675
 8901 1 -36.984679  6.604056e+00  1.675
 8902 1 -38.223856  7.297482e+00  1.675
 8903 1 -38.242920  8.717354e+00  1.675
 8904 1 -37.022807  9.443800e+00  1.675
 8905 1 -39.443969  6.571036e+00  1.675
 8906 1 -40.683146  7.264461e+00  1.675
 8907 1 -40.702211  8.684334e+00  1.675
 8908 1 -39.482098  9.410780e+00  1.675
 8909 1 -41.903259  6.538015e+00  1.675
 8910 1 -43.142437  7.231441e+00  1.675
 8911 1 -43.161501  8.651313e+00  1.675
 8912 1 -41.941388  9.377759e+00  1.675
 8913 1 -44.362550  6.504995e+00  1.675
 8914 1 -45.601727  7.198421e+00  1.675
 8915 1 -45.620792  8.618293e+00  1.675
 8916 1 -44.400678  9.344739e+00  1.675
 8917 1 -46.821840  6.471975e+00  1.675
 8918 1 -48.061018  7.165401e+00  1.675
 8919 1 -48.080082  8.585273e+00  1.675
 8920 1 -46.859969  9.311719e+00  1.675
 8921 1 -49.281131  6.438955e+00  1.675
 8922 1 -50.520308  7.132380e+00  1.675
 8923 1 -50.539373  8.552252e+00  1.675
 8924 1 -49.319259  9.278699e+00  1.675
 8925 1 -51.740421  6.405934e+00  1.675
 8926 1 -52.979599  7.099360e+00  1.675
 8927 1 -52.998663  8.519232e+00  1.675
 8928 1 -51.778550  9.245678e+00  1.675
 8929 1 -54.199712  6.372914e+00  1.675
 8930 1 -55.438889  7.066340e+00  1.675
 8931 1 -55.457954  8.486212e+00  1.675
 8932 1 -54.237840  9.212658e+00  1.675
 8933 1 -56.659002  6.339894e+00  1.675
 8934 1 -57.898180  7.033320e+00  1.675
 8935 1 -57.917244  8.453192e+00  1.675
 8936 1 -56.697131  9.179638e+00  1.675
 8937 1 -59.118293  6.306873e+00  1.675
 8938 1 -60.357470  7.000299e+00  1.675
 8939 1 -60.376534  8.420171e+00  1.675
 8940 1 -59.156421  9.146617e+00  1.675
 8941 1 -61.577583  6.273853e+00  1.675
 8942 1 -62.816761  6.967279e+00  1.675
 8943 1 -62.835825  8.387151e+00  1.675
 8944 1 -61.615712  9.113597e+00  1.675
 8945 1 -64.036874  6.240833e+00  1.675
 8946 1 -65.276051  6.934259e+00  1.675
 8947 1 -65.295115  8.354131e+00  1.675
 8948 1 -64.075002  9.080577e+00  1.675
 8949 1 -66.496164  6.207813e+00  1.675
 8950 1 -67.735342  6.901238e+00  1.675
 8951 1 -67.754406  8.321110e+00  1.675
 8952 1 -66.534293  9.047557e+00  1.675
 8953 1 -68.955455  6.174792e+00  1.675
 8954 1 -70.194632  6.868218e+00  1.675
 8955 1 -70.213696  8.288090e+00  1.675
 8956 1 -68.993583  9.014536e+00  1.675
 8957 1 -71.414745  6.141772e+00  1.675
 8958 1 -72.653923  6.835198e+00  1.675
 8959 1 -72.672987  8.255070e+00  1.675
 8960 1 -71.452874  8.981516e+00  1.675
 8961 1 -73.874036  6.108752e+00  1.675
 8962 1 -75.113213  6.802178e+00  1.675
 8963 1 -75.132277  8.222050e+00  1.675
 8964 1 -73.912164  8.948496e+00  1.675
 8965 1 -76.333326  6.075731e+00  1.675
 8966 1 -77.572504  6.769157e+00  1.675
 8967 1 -77.591568  8.189029e+00  1.675
 8968 1 -76.371455  8.915475e+00  1.675
 8969 1 -78.792617  6.042711e+00  1.675
 8970 1 -78.830745  8.882455e+00  1.675
 8971 1  78.544781  1.241563e+01  1.675
 8972 1  77.305604  1.310905e+01  1.675
 8973 1  77.286540  1.452892e+01  1.675
 8974 1  78.506653  1.525537e+01  1.675
 8975 1  76.085491  1.238260e+01  1.675
 8976 1  74.846313  1.307603e+01  1.675
 8977 1  74.827249  1.449590e+01  1.675
 8978 1  76.047362  1.522235e+01  1.675
 8979 1  73.626200  1.234958e+01  1.675
 8980 1  72.387023  1.304301e+01  1.675
 8981 1  72.367959  1.446288e+01  1.675
 8982 1  73.588072  1.518933e+01  1.675
 8983 1  71.166910  1.231656e+01  1.675
 8984 1  69.927732  1.300999e+01  1.675
 8985 1  69.908668  1.442986e+01  1.675
 8986 1  71.128781  1.515631e+01  1.675
 8987 1  68.707619  1.228354e+01  1.675
 8988 1  67.468442  1.297697e+01  1.675
 8989 1  67.449378  1.439684e+01  1.675
 8990 1  68.669491  1.512329e+01  1.675
 8991 1  66.248329  1.225052e+01  1.675
 8992 1  65.009151  1.294395e+01  1.675
 8993 1  64.990087  1.436382e+01  1.675
 8994 1  66.210200  1.509027e+01  1.675
 8995 1  63.789038  1.221750e+01  1.675
 8996 1  62.549861  1.291093e+01  1.675
 8997 1  62.530797  1.433080e+01  1.675
 8998 1  63.750910  1.505725e+01  1.675
 8999 1  61.329748  1.218448e+01  1.675
 9000 1  60.090570  1.287791e+01  1.675
 9001 1  60.071506  1.429778e+01  1.675
 9002 1  61.291619  1.502423e+01  1.675
 9003 1  58.870457  1.215146e+01  1.675
 9004 1  57.631280  1.284489e+01  1.675
 9005 1  57.612216  1.426476e+01  1.675
 9006 1  58.832329  1.499121e+01  1.675
 9007 1  56.411167  1.211844e+01  1.675
 9008 1  55.171990  1.281187e+01  1.675
 9009 1  55.152925  1.423174e+01  1.675
 9010 1  56.373038  1.495819e+01  1.675
 9011 1  53.951876  1.208542e+01  1.675
 9012 1  52.712699  1.277885e+01  1.675
 9013 1  52.693635  1.419872e+01  1.675
 9014 1  53.913748  1.492517e+01  1.675
 9015 1  51.492586  1.205240e+01  1.675
 9016 1  50.253409  1.274583e+01  1.675
 9017 1  50.234344  1.416570e+01  1.675
 9018 1  51.454457  1.489215e+01  1.675
 9019 1  49.033295  1.201938e+01  1.675
 9020 1  47.794118  1.271281e+01  1.675
 9021 1  47.775054  1.413268e+01  1.675
 9022 1  48.995167  1.485913e+01  1.675
 9023 1  46.574005  1.198636e+01  1.675
 9024 1  45.334828  1.267979e+01  1.675
 9025 1  45.315763  1.409966e+01  1.675
 9026 1  46.535876  1.482611e+01  1.675
 9027 1  44.114714  1.195334e+01  1.675
 9028 1  42.875537  1.264677e+01  1.675
 9029 1  42.856473  1.406664e+01  1.675
 9030 1  44.076586  1.479309e+01  1.675
 9031 1  41.655424  1.192032e+01  1.675
 9032 1  40.416247  1.261375e+01  1.675
 9033 1  40.397182  1.403362e+01  1.675
 9034 1  41.617295  1.476006e+01  1.675
 9035 1  39.196134  1.188730e+01  1.675
 9036 1  37.956956  1.258073e+01  1.675
 9037 1  37.937892  1.400060e+01  1.675
 9038 1  39.158005  1.472704e+01  1.675
 9039 1  36.736843  1.185428e+01  1.675
 9040 1  35.497666  1.254771e+01  1.675
 9041 1  35.478601  1.396758e+01  1.675
 9042 1  36.698715  1.469402e+01  1.675
 9043 1  34.277553  1.182126e+01  1.675
 9044 1  33.038375  1.251469e+01  1.675
 9045 1  33.019311  1.393456e+01  1.675
 9046 1  34.239424  1.466100e+01  1.675
 9047 1  31.818262  1.178824e+01  1.675
 9048 1  30.579085  1.248167e+01  1.675
 9049 1  30.560020  1.390154e+01  1.675
 9050 1  31.780134  1.462798e+01  1.675
 9051 1  29.358972  1.175522e+01  1.675
 9052 1  28.119794  1.244865e+01  1.675
 9053 1  28.100730  1.386852e+01  1.675
 9054 1  29.320843  1.459496e+01  1.675
 9055 1  26.899681  1.172220e+01  1.675
 9056 1  25.660504  1.241563e+01  1.675
 9057 1  25.641439  1.383550e+01  1.675
 9058 1  26.861553  1.456194e+01  1.675
 9059 1  24.440391  1.168918e+01  1.675
 9060 1  23.201213  1.238260e+01  1.675
 9061 1  23.182149  1.380248e+01  1.675
 9062 1  24.402262  1.452892e+01  1.675
 9063 1  21.981100  1.165616e+01  1.675
 9064 1  20.741923  1.234958e+01  1.675
 9065 1  20.722859  1.376946e+01  1.675
 9066 1  21.942972  1.449590e+01  1.675
 9067 1  19.521810  1.162314e+01  1.675
 9068 1  18.282632  1.231656e+01  1.675
 9069 1  18.263568  1.373644e+01  1.675
 9070 1  19.483681  1.446288e+01  1.675
 9071 1  17.062519  1.159012e+01  1.675
 9072 1  15.823342  1.228354e+01  1.675
 9073 1  15.804278  1.370342e+01  1.675
 9074 1  17.024391  1.442986e+01  1.675
 9075 1  14.603229  1.155710e+01  1.675
 9076 1  13.364051  1.225052e+01  1.675
 9077 1  13.344987  1.367040e+01  1.675
 9078 1  14.565100  1.439684e+01  1.675
 9079 1  12.143938  1.152408e+01  1.675
 9080 1  10.904761  1.221750e+01  1.675
 9081 1  10.885697  1.363738e+01  1.675
 9082 1  12.105810  1.436382e+01  1.675
 9083 1   9.684648  1.149106e+01  1.675
 9084 1   8.445470  1.218448e+01  1.675
 9085 1   8.426406  1.360436e+01  1.675
 9086 1   9.646519  1.433080e+01  1.675
 9087 1   7.225357  1.145804e+01  1.675
 9088 1   5.986180  1.215146e+01  1.675
 9089 1   5.967116  1.357133e+01  1.675
 9090 1   7.187229  1.429778e+01  1.675
 9091 1   4.766067  1.142502e+01  1.675
 9092 1   3.526889  1.211844e+01  1.675
 9093 1   3.507825  1.353831e+01  1.675
 9094 1   4.727938  1.426476e+01  1.675
 9095 1   2.306776  1.139200e+01  1.675
 9096 1   1.067599  1.208542e+01  1.675
 9097 1   1.048535  1.350529e+01  1.675
 9098 1   2.268648  1.423174e+01  1.675
 9099 1  -0.152514  1.135898e+01  1.675
 9100 1  -1.391692  1.205240e+01  1.675
 9101 1  -1.410756  1.347227e+01  1.675
 9102 1  -0.190643  1.419872e+01  1.675
 9103 1  -2.611805  1.132596e+01  1.675
 9104 1  -3.850982  1.201938e+01  1.675
 9105 1  -3.870046  1.343925e+01  1.675
 9106 1  -2.649933  1.416570e+01  1.675
 9107 1  -5.071095  1.129294e+01  1.675
 9108 1  -6.310272  1.198636e+01  1.675
 9109 1  -6.329337  1.340623e+01  1.675
 9110 1  -5.109224  1.413268e+01  1.675
 9111 1  -7.530386  1.125992e+01  1.675
 9112 1  -8.769563  1.195334e+01  1.675
 9113 1  -8.788627  1.337321e+01  1.675
 9114 1  -7.568514  1.409966e+01  1.675
 9115 1  -9.989676  1.122690e+01  1.675
 9116 1 -11.228853  1.192032e+01  1.675
 9117 1 -11.247918  1.334019e+01  1.675
 9118 1 -10.027805  1.406664e+01  1.675
 9119 1 -12.448967  1.119387e+01  1.675
 9120 1 -13.688144  1.188730e+01  1.675
 9121 1 -13.707208  1.330717e+01  1.675
 9122 1 -12.487095  1.403362e+01  1.675
 9123 1 -14.908257  1.116085e+01  1.675
 9124 1 -16.147434  1.185428e+01  1.675
 9125 1 -16.166499  1.327415e+01  1.675
 9126 1 -14.946386  1.400060e+01  1.675
 9127 1 -17.367547  1.112783e+01  1.675
 9128 1 -18.606725  1.182126e+01  1.675
 9129 1 -18.625789  1.324113e+01  1.675
 9130 1 -17.405676  1.396758e+01  1.675
 9131 1 -19.826838  1.109481e+01  1.675
 9132 1 -21.066015  1.178824e+01  1.675
 9133 1 -21.085080  1.320811e+01  1.675
 9134 1 -19.864967  1.393456e+01  1.675
 9135 1 -22.286128  1.106179e+01  1.675
 9136 1 -23.525306  1.175522e+01  1.675
 9137 1 -23.544370  1.317509e+01  1.675
 9138 1 -22.324257  1.390154e+01  1.675
 9139 1 -24.745419  1.102877e+01  1.675
 9140 1 -25.984596  1.172220e+01  1.675
 9141 1 -26.003661  1.314207e+01  1.675
 9142 1 -24.783547  1.386852e+01  1.675
 9143 1 -27.204709  1.099575e+01  1.675
 9144 1 -28.443887  1.168918e+01  1.675
 9145 1 -28.462951  1.310905e+01  1.675
 9146 1 -27.242838  1.383550e+01  1.675
 9147 1 -29.664000  1.096273e+01  1.675
 9148 1 -30.903177  1.165616e+01  1.675
 9149 1 -30.922242  1.307603e+01  1.675
 9150 1 -29.702128  1.380248e+01  1.675
 9151 1 -32.123290  1.092971e+01  1.675
 9152 1 -33.362468  1.162314e+01  1.675
 9153 1 -33.381532  1.304301e+01  1.675
 9154 1 -32.161419  1.376946e+01  1.675
 9155 1 -34.582581  1.089669e+01  1.675
 9156 1 -35.821758  1.159012e+01  1.675
 9157 1 -35.840822  1.300999e+01  1.675
 9158 1 -34.620709  1.373644e+01  1.675
 9159 1 -37.041871  1.086367e+01  1.675
 9160 1 -38.281049  1.155710e+01  1.675
 9161 1 -38.300113  1.297697e+01  1.675
 9162 1 -37.080000  1.370342e+01  1.675
 9163 1 -39.501162  1.083065e+01  1.675
 9164 1 -40.740339  1.152408e+01  1.675
 9165 1 -40.759403  1.294395e+01  1.675
 9166 1 -39.539290  1.367040e+01  1.675
 9167 1 -41.960452  1.079763e+01  1.675
 9168 1 -43.199630  1.149106e+01  1.675
 9169 1 -43.218694  1.291093e+01  1.675
 9170 1 -41.998581  1.363738e+01  1.675
 9171 1 -44.419743  1.076461e+01  1.675
 9172 1 -45.658920  1.145804e+01  1.675
 9173 1 -45.677984  1.287791e+01  1.675
 9174 1 -44.457871  1.360436e+01  1.675
 9175 1 -46.879033  1.073159e+01  1.675
 9176 1 -48.118211  1.142502e+01  1.675
 9177 1 -48.137275  1.284489e+01  1.675
 9178 1 -46.917162  1.357133e+01  1.675
 9179 1 -49.338324  1.069857e+01  1.675
 9180 1 -50.577501  1.139200e+01  1.675
 9181 1 -50.596565  1.281187e+01  1.675
 9182 1 -49.376452  1.353831e+01  1.675
 9183 1 -51.797614  1.066555e+01  1.675
 9184 1 -53.036792  1.135898e+01  1.675
 9185 1 -53.055856  1.277885e+01  1.675
 9186 1 -51.835743  1.350529e+01  1.675
 9187 1 -54.256905  1.063253e+01  1.675
 9188 1 -55.496082  1.132596e+01  1.675
 9189 1 -55.515146  1.274583e+01  1.675
 9190 1 -54.295033  1.347227e+01  1.675
 9191 1 -56.716195  1.059951e+01  1.675
 9192 1 -57.955373  1.129294e+01  1.675
 9193 1 -57.974437  1.271281e+01  1.675
 9194 1 -56.754324  1.343925e+01  1.675
 9195 1 -59.175486  1.056649e+01  1.675
 9196 1 -60.414663  1.125992e+01  1.675
 9197 1 -60.433727  1.267979e+01  1.675
 9198 1 -59.213614  1.340623e+01  1.675
 9199 1 -61.634776  1.053347e+01  1.675
 9200 1 -62.873953  1.122690e+01  1.675
 9201 1 -62.893018  1.264677e+01  1.675
 9202 1 -61.672905  1.337321e+01  1.675
 9203 1 -64.094067  1.050045e+01  1.675
 9204 1 -65.333244  1.119387e+01  1.675
 9205 1 -65.352308  1.261375e+01  1.675
 9206 1 -64.132195  1.334019e+01  1.675
 9207 1 -66.553357  1.046743e+01  1.675
 9208 1 -67.792534  1.116085e+01  1.675
 9209 1 -67.811599  1.258073e+01  1.675
 9210 1 -66.591486  1.330717e+01  1.675
 9211 1 -69.012648  1.043441e+01  1.675
 9212 1 -70.251825  1.112783e+01  1.675
 9213 1 -70.270889  1.254771e+01  1.675
 9214 1 -69.050776  1.327415e+01  1.675
 9215 1 -71.471938  1.040139e+01  1.675
 9216 1 -72.711115  1.109481e+01  1.675
 9217 1 -72.730180  1.251469e+01  1.675
 9218 1 -71.510067  1.324113e+01  1.675
 9219 1 -73.931229  1.036837e+01  1.675
 9220 1 -75.170406  1.106179e+01  1.675
 9221 1 -75.189470  1.248167e+01  1.675
 9222 1 -73.969357  1.320811e+01  1.675
 9223 1 -76.390519  1.033535e+01  1.675
 9224 1 -77.629696  1.102877e+01  1.675
 9225 1 -77.648761  1.244865e+01  1.675
 9226 1 -76.428648  1.317509e+01  1.675
 9227 1 -78.849809  1.030233e+01  1.675
 9228 1 -78.887938  1.314207e+01  1.675
 9229 1  78.487588  1.667524e+01  1.675
 9230 1  77.248411  1.736867e+01  1.675
 9231 1  77.229347  1.878854e+01  1.675
 9232 1  78.449460  1.951499e+01  1.675
 9233 1  76.028298  1.664222e+01  1.675
 9234 1  74.789121  1.733565e+01  1.675
 9235 1  74.770056  1.875552e+01  1.675
 9236 1  75.990169  1.948196e+01  1.675
 9237 1  73.569007  1.660920e+01  1.675
 9238 1  72.329830  1.730263e+01  1.675
 9239 1  72.310766  1.872250e+01  1.675
 9240 1  73.530879  1.944894e+01  1.675
 9241 1  71.109717  1.657618e+01  1.675
 9242 1  69.870540  1.726961e+01  1.675
 9243 1  69.851475  1.868948e+01  1.675
 9244 1  71.071588  1.941592e+01  1.675
 9245 1  68.650426  1.654316e+01  1.675
 9246 1  67.411249  1.723659e+01  1.675
 9247 1  67.392185  1.865646e+01  1.675
 9248 1  68.612298  1.938290e+01  1.675
 9249 1  66.191136  1.651014e+01  1.675
 9250 1  64.951959  1.720357e+01  1.675
 9251 1  64.932894  1.862344e+01  1.675
 9252 1  66.153007  1.934988e+01  1.675
 9253 1  63.731846  1.647712e+01  1.675
 9254 1  62.492668  1.717055e+01  1.675
 9255 1  62.473604  1.859042e+01  1.675
 9256 1  63.693717  1.931686e+01  1.675
 9257 1  61.272555  1.644410e+01  1.675
 9258 1  60.033378  1.713753e+01  1.675
 9259 1  60.014313  1.855740e+01  1.675
 9260 1  61.234427  1.928384e+01  1.675
 9261 1  58.813265  1.641108e+01  1.675
 9262 1  57.574087  1.710450e+01  1.675
 9263 1  57.555023  1.852438e+01  1.675
 9264 1  58.775136  1.925082e+01  1.675
 9265 1  56.353974  1.637806e+01  1.675
 9266 1  55.114797  1.707148e+01  1.675
 9267 1  55.095732  1.849136e+01  1.675
 9268 1  56.315846  1.921780e+01  1.675
 9269 1  53.894684  1.634504e+01  1.675
 9270 1  52.655506  1.703846e+01  1.675
 9271 1  52.636442  1.845834e+01  1.675
 9272 1  53.856555  1.918478e+01  1.675
 9273 1  51.435393  1.631202e+01  1.675
 9274 1  50.196216  1.700544e+01  1.675
 9275 1  50.177151  1.842532e+01  1.675
 9276 1  51.397265  1.915176e+01  1.675
 9277 1  48.976103  1.627900e+01  1.675
 9278 1  47.736925  1.697242e+01  1.675
 9279 1  47.717861  1.839230e+01  1.675
 9280 1  48.937974  1.911874e+01  1.675
 9281 1  46.516812  1.624598e+01  1.675
 9282 1  45.277635  1.693940e+01  1.675
 9283 1  45.258571  1.835928e+01  1.675
 9284 1  46.478684  1.908572e+01  1.675
 9285 1  44.057522  1.621296e+01  1.675
 9286 1  42.818344  1.690638e+01  1.675
 9287 1  42.799280  1.832626e+01  1.675
 9288 1  44.019393  1.905270e+01  1.675
 9289 1  41.598231  1.617994e+01  1.675
 9290 1  40.359054  1.687336e+01  1.675
 9291 1  40.339990  1.829323e+01  1.675
 9292 1  41.560103  1.901968e+01  1.675
 9293 1  39.138941  1.614692e+01  1.675
 9294 1  37.899763  1.684034e+01  1.675
 9295 1  37.880699  1.826021e+01  1.675
 9296 1  39.100812  1.898666e+01  1.675
 9297 1  36.679650  1.611390e+01  1.675
 9298 1  35.440473  1.680732e+01  1.675
 9299 1  35.421409  1.822719e+01  1.675
 9300 1  36.641522  1.895364e+01  1.675
 9301 1  34.220360  1.608088e+01  1.675
 9302 1  32.981182  1.677430e+01  1.675
 9303 1  32.962118  1.819417e+01  1.675
 9304 1  34.182231  1.892062e+01  1.675
 9305 1  31.761069  1.604786e+01  1.675
 9306 1  30.521892  1.674128e+01  1.675
 9307 1  30.502828  1.816115e+01  1.675
 9308 1  31.722941  1.888760e+01  1.675
 9309 1  29.301779  1.601484e+01  1.675
 9310 1  28.062601  1.670826e+01  1.675
 9311 1  28.043537  1.812813e+01  1.675
 9312 1  29.263650  1.885458e+01  1.675
 9313 1  26.842488  1.598182e+01  1.675
 9314 1  25.603311  1.667524e+01  1.675
 9315 1  25.584247  1.809511e+01  1.675
 9316 1  26.804360  1.882156e+01  1.675
 9317 1  24.383198  1.594880e+01  1.675
 9318 1  23.144020  1.664222e+01  1.675
 9319 1  23.124956  1.806209e+01  1.675
 9320 1  24.345069  1.878854e+01  1.675
 9321 1  21.923907  1.591577e+01  1.675
 9322 1  20.684730  1.660920e+01  1.675
 9323 1  20.665666  1.802907e+01  1.675
 9324 1  21.885779  1.875552e+01  1.675
 9325 1  19.464617  1.588275e+01  1.675
 9326 1  18.225440  1.657618e+01  1.675
 9327 1  18.206375  1.799605e+01  1.675
 9328 1  19.426488  1.872250e+01  1.675
 9329 1  17.005326  1.584973e+01  1.675
 9330 1  15.766149  1.654316e+01  1.675
 9331 1  15.747085  1.796303e+01  1.675
 9332 1  16.967198  1.868948e+01  1.675
 9333 1  14.546036  1.581671e+01  1.675
 9334 1  13.306859  1.651014e+01  1.675
 9335 1  13.287794  1.793001e+01  1.675
 9336 1  14.507907  1.865646e+01  1.675
 9337 1  12.086745  1.578369e+01  1.675
 9338 1  10.847568  1.647712e+01  1.675
 9339 1  10.828504  1.789699e+01  1.675
 9340 1  12.048617  1.862344e+01  1.675
 9341 1   9.627455  1.575067e+01  1.675
 9342 1   8.388278  1.644410e+01  1.675
 9343 1   8.369213  1.786397e+01  1.675
 9344 1   9.589326  1.859042e+01  1.675
 9345 1   7.168164  1.571765e+01  1.675
 9346 1   5.928987  1.641108e+01  1.675
 9347 1   5.909923  1.783095e+01  1.675
 9348 1   7.130036  1.855740e+01  1.675
 9349 1   4.708874  1.568463e+01  1.675
 9350 1   3.469697  1.637806e+01  1.675
 9351 1   3.450632  1.779793e+01  1.675
 9352 1   4.670745  1.852438e+01  1.675
 9353 1   2.249584  1.565161e+01  1.675
 9354 1   1.010406  1.634504e+01  1.675
 9355 1   0.991342  1.776491e+01  1.675
 9356 1   2.211455  1.849136e+01  1.675
 9357 1  -0.209707  1.561859e+01  1.675
 9358 1  -1.448884  1.631202e+01  1.675
 9359 1  -1.467949  1.773189e+01  1.675
 9360 1  -0.247835  1.845834e+01  1.675
 9361 1  -2.668997  1.558557e+01  1.675
 9362 1  -3.908175  1.627900e+01  1.675
 9363 1  -3.927239  1.769887e+01  1.675
 9364 1  -2.707126  1.842532e+01  1.675
 9365 1  -5.128288  1.555255e+01  1.675
 9366 1  -6.367465  1.624598e+01  1.675
 9367 1  -6.386530  1.766585e+01  1.675
 9368 1  -5.166416  1.839230e+01  1.675
 9369 1  -7.587578  1.551953e+01  1.675
 9370 1  -8.826756  1.621296e+01  1.675
 9371 1  -8.845820  1.763283e+01  1.675
 9372 1  -7.625707  1.835928e+01  1.675
 9373 1 -10.046869  1.548651e+01  1.675
 9374 1 -11.286046  1.617994e+01  1.675
 9375 1 -11.305110  1.759981e+01  1.675
 9376 1 -10.084997  1.832626e+01  1.675
 9377 1 -12.506159  1.545349e+01  1.675
 9378 1 -13.745337  1.614692e+01  1.675
 9379 1 -13.764401  1.756679e+01  1.675
 9380 1 -12.544288  1.829323e+01  1.675
 9381 1 -14.965450  1.542047e+01  1.675
 9382 1 -16.204627  1.611390e+01  1.675
 9383 1 -16.223691  1.753377e+01  1.675
 9384 1 -15.003578  1.826021e+01  1.675
 9385 1 -17.424740  1.538745e+01  1.675
 9386 1 -18.663918  1.608088e+01  1.675
 9387 1 -18.682982  1.750075e+01  1.675
 9388 1 -17.462869  1.822719e+01  1.675
 9389 1 -19.884031  1.535443e+01  1.675
 9390 1 -21.123208  1.604786e+01  1.675
 9391 1 -21.142272  1.746773e+01  1.675
 9392 1 -19.922159  1.819417e+01  1.675
 9393 1 -22.343321  1.532141e+01  1.675
 9394 1 -23.582499  1.601484e+01  1.675
 9395 1 -23.601563  1.743471e+01  1.675
 9396 1 -22.381450  1.816115e+01  1.675
 9397 1 -24.802612  1.528839e+01  1.675
 9398 1 -26.041789  1.598182e+01  1.675
 9399 1 -26.060853  1.740169e+01  1.675
 9400 1 -24.840740  1.812813e+01  1.675
 9401 1 -27.261902  1.525537e+01  1.675
 9402 1 -28.501080  1.594880e+01  1.675
 9403 1 -28.520144  1.736867e+01  1.675
 9404 1 -27.300031  1.809511e+01  1.675
 9405 1 -29.721193  1.522235e+01  1.675
 9406 1 -30.960370  1.591577e+01  1.675
 9407 1 -30.979434  1.733565e+01  1.675
 9408 1 -29.759321  1.806209e+01  1.675
 9409 1 -32.180483  1.518933e+01  1.675
 9410 1 -33.419661  1.588275e+01  1.675
 9411 1 -33.438725  1.730263e+01  1.675
 9412 1 -32.218612  1.802907e+01  1.675
 9413 1 -34.639774  1.515631e+01  1.675
 9414 1 -35.878951  1.584973e+01  1.675
 9415 1 -35.898015  1.726961e+01  1.675
 9416 1 -34.677902  1.799605e+01  1.675
 9417 1 -37.099064  1.512329e+01  1.675
 9418 1 -38.338242  1.581671e+01  1.675
 9419 1 -38.357306  1.723659e+01  1.675
 9420 1 -37.137193  1.796303e+01  1.675
 9421 1 -39.558355  1.509027e+01  1.675
 9422 1 -40.797532  1.578369e+01  1.675
 9423 1 -40.816596  1.720357e+01  1.675
 9424 1 -39.596483  1.793001e+01  1.675
 9425 1 -42.017645  1.505725e+01  1.675
 9426 1 -43.256822  1.575067e+01  1.675
 9427 1 -43.275887  1.717055e+01  1.675
 9428 1 -42.055774  1.789699e+01  1.675
 9429 1 -44.476936  1.502423e+01  1.675
 9430 1 -45.716113  1.571765e+01  1.675
 9431 1 -45.735177  1.713753e+01  1.675
 9432 1 -44.515064  1.786397e+01  1.675
 9433 1 -46.936226  1.499121e+01  1.675
 9434 1 -48.175403  1.568463e+01  1.675
 9435 1 -48.194468  1.710450e+01  1.675
 9436 1 -46.974355  1.783095e+01  1.675
 9437 1 -49.395517  1.495819e+01  1.675
 9438 1 -50.634694  1.565161e+01  1.675
 9439 1 -50.653758  1.707148e+01  1.675
 9440 1 -49.433645  1.779793e+01  1.675
 9441 1 -51.854807  1.492517e+01  1.675
 9442 1 -53.093984  1.561859e+01  1.675
 9443 1 -53.113049  1.703846e+01  1.675
 9444 1 -51.892936  1.776491e+01  1.675
 9445 1 -54.314097  1.489215e+01  1.675
 9446 1 -55.553275  1.558557e+01  1.675
 9447 1 -55.572339  1.700544e+01  1.675
 9448 1 -54.352226  1.773189e+01  1.675
 9449 1 -56.773388  1.485913e+01  1.675
 9450 1 -58.012565  1.555255e+01  1.675
 9451 1 -58.031630  1.697242e+01  1.675
 9452 1 -56.811516  1.769887e+01  1.675
 9453 1 -59.232678  1.482611e+01  1.675
 9454 1 -60.471856  1.551953e+01  1.675
 9455 1 -60.490920  1.693940e+01  1.675
 9456 1 -59.270807  1.766585e+01  1.675
 9457 1 -61.691969  1.479309e+01  1.675
 9458 1 -62.931146  1.548651e+01  1.675
 9459 1 -62.950211  1.690638e+01  1.675
 9460 1 -61.730097  1.763283e+01  1.675
 9461 1 -64.151259  1.476006e+01  1.675
 9462 1 -65.390437  1.545349e+01  1.675
 9463 1 -65.409501  1.687336e+01  1.675
 9464 1 -64.189388  1.759981e+01  1.675
 9465 1 -66.610550  1.472704e+01  1.675
 9466 1 -67.849727  1.542047e+01  1.675
 9467 1 -67.868792  1.684034e+01  1.675
 9468 1 -66.648678  1.756679e+01  1.675
 9469 1 -69.069840  1.469402e+01  1.675
 9470 1 -70.309018  1.538745e+01  1.675
 9471 1 -70.328082  1.680732e+01  1.675
 9472 1 -69.107969  1.753377e+01  1.675
 9473 1 -71.529131  1.466100e+01  1.675
 9474 1 -72.768308  1.535443e+01  1.675
 9475 1 -72.787372  1.677430e+01  1.675
 9476 1 -71.567259  1.750075e+01  1.675
 9477 1 -73.988421  1.462798e+01  1.675
 9478 1 -75.227599  1.532141e+01  1.675
 9479 1 -75.246663  1.674128e+01  1.675
 9480 1 -74.026550  1.746773e+01  1.675
 9481 1 -76.447712  1.459496e+01  1.675
 9482 1 -77.686889  1.528839e+01  1.675
 9483 1 -77.705953  1.670826e+01  1.675
 9484 1 -76.485840  1.743471e+01  1.675
 9485 1 -78.907002  1.456194e+01  1.675
 9486 1 -78.945131  1.740169e+01  1.675
 9487 1  78.430396  2.093486e+01  1.675
 9488 1  77.191218  2.162828e+01  1.675
 9489 1  77.172154  2.304816e+01  1.675
 9490 1  78.392267  2.377460e+01  1.675
 9491 1  75.971105  2.090184e+01  1.675
 9492 1  74.731928  2.159526e+01  1.675
 9493 1  74.712863  2.301513e+01  1.675
 9494 1  75.932977  2.374158e+01  1.675
 9495 1  73.511815  2.086882e+01  1.675
 9496 1  72.272637  2.156224e+01  1.675
 9497 1  72.253573  2.298211e+01  1.675
 9498 1  73.473686  2.370856e+01  1.675
 9499 1  71.052524  2.083580e+01  1.675
 9500 1  69.813347  2.152922e+01  1.675
 9501 1  69.794283  2.294909e+01  1.675
 9502 1  71.014396  2.367554e+01  1.675
 9503 1  68.593234  2.080278e+01  1.675
 9504 1  67.354056  2.149620e+01  1.675
 9505 1  67.334992  2.291607e+01  1.675
 9506 1  68.555105  2.364252e+01  1.675
 9507 1  66.133943  2.076976e+01  1.675
 9508 1  64.894766  2.146318e+01  1.675
 9509 1  64.875702  2.288305e+01  1.675
 9510 1  66.095815  2.360950e+01  1.675
 9511 1  63.674653  2.073674e+01  1.675
 9512 1  62.435475  2.143016e+01  1.675
 9513 1  62.416411  2.285003e+01  1.675
 9514 1  63.636524  2.357648e+01  1.675
 9515 1  61.215362  2.070372e+01  1.675
 9516 1  59.976185  2.139714e+01  1.675
 9517 1  59.957121  2.281701e+01  1.675
 9518 1  61.177234  2.354346e+01  1.675
 9519 1  58.756072  2.067069e+01  1.675
 9520 1  57.516894  2.136412e+01  1.675
 9521 1  57.497830  2.278399e+01  1.675
 9522 1  58.717943  2.351044e+01  1.675
 9523 1  56.296781  2.063767e+01  1.675
 9524 1  55.057604  2.133110e+01  1.675
 9525 1  55.038540  2.275097e+01  1.675
 9526 1  56.258653  2.347742e+01  1.675
 9527 1  53.837491  2.060465e+01  1.675
 9528 1  52.598313  2.129808e+01  1.675
 9529 1  52.579249  2.271795e+01  1.675
 9530 1  53.799362  2.344440e+01  1.675
 9531 1  51.378200  2.057163e+01  1.675
 9532 1  50.139023  2.126506e+01  1.675
 9533 1  50.119959  2.268493e+01  1.675
 9534 1  51.340072  2.341138e+01  1.675
 9535 1  48.918910  2.053861e+01  1.675
 9536 1  47.679732  2.123204e+01  1.675
 9537 1  47.660668  2.265191e+01  1.675
 9538 1  48.880781  2.337836e+01  1.675
 9539 1  46.459619  2.050559e+01  1.675
 9540 1  45.220442  2.119902e+01  1.675
 9541 1  45.201378  2.261889e+01  1.675
 9542 1  46.421491  2.334534e+01  1.675
 9543 1  44.000329  2.047257e+01  1.675
 9544 1  42.761152  2.116600e+01  1.675
 9545 1  42.742087  2.258587e+01  1.675
 9546 1  43.962200  2.331232e+01  1.675
 9547 1  41.541038  2.043955e+01  1.675
 9548 1  40.301861  2.113298e+01  1.675
 9549 1  40.282797  2.255285e+01  1.675
 9550 1  41.502910  2.327930e+01  1.675
 9551 1  39.081748  2.040653e+01  1.675
 9552 1  37.842571  2.109996e+01  1.675
 9553 1  37.823506  2.251983e+01  1.675
 9554 1  39.043619  2.324628e+01  1.675
 9555 1  36.622457  2.037351e+01  1.675
 9556 1  35.383280  2.106694e+01  1.675
 9557 1  35.364216  2.248681e+01  1.675
 9558 1  36.584329  2.321326e+01  1.675
 9559 1  34.163167  2.034049e+01  1.675
 9560 1  32.923990  2.103392e+01  1.675
 9561 1  32.904925  2.245379e+01  1.675
 9562 1  34.125038  2.318024e+01  1.675
 9563 1  31.703876  2.030747e+01  1.675
 9564 1  30.464699  2.100090e+01  1.675
 9565 1  30.445635  2.242077e+01  1.675
 9566 1  31.665748  2.314722e+01  1.675
 9567 1  29.244586  2.027445e+01  1.675
 9568 1  28.005409  2.096788e+01  1.675
 9569 1  27.986344  2.238775e+01  1.675
 9570 1  29.206457  2.311420e+01  1.675
 9571 1  26.785296  2.024143e+01  1.675
 9572 1  25.546118  2.093486e+01  1.675
 9573 1  25.527054  2.235473e+01  1.675
 9574 1  26.747167  2.308118e+01  1.675
 9575 1  24.326005  2.020841e+01  1.675
 9576 1  23.086828  2.090184e+01  1.675
 9577 1  23.067763  2.232171e+01  1.675
 9578 1  24.287877  2.304816e+01  1.675
 9579 1  21.866715  2.017539e+01  1.675
 9580 1  20.627537  2.086882e+01  1.675
 9581 1  20.608473  2.228869e+01  1.675
 9582 1  21.828586  2.301513e+01  1.675
 9583 1  19.407424  2.014237e+01  1.675
 9584 1  18.168247  2.083580e+01  1.675
 9585 1  18.149182  2.225567e+01  1.675
 9586 1  19.369296  2.298211e+01  1.675
 9587 1  16.948134  2.010935e+01  1.675
 9588 1  15.708956  2.080278e+01  1.675
 9589 1  15.689892  2.222265e+01  1.675
 9590 1  16.910005  2.294909e+01  1.675
 9591 1  14.488843  2.007633e+01  1.675
 9592 1  13.249666  2.076976e+01  1.675
 9593 1  13.230601  2.218963e+01  1.675
 9594 1  14.450715  2.291607e+01  1.675
 9595 1  12.029553  2.004331e+01  1.675
 9596 1  10.790375  2.073674e+01  1.675
 9597 1  10.771311  2.215661e+01  1.675
 9598 1  11.991424  2.288305e+01  1.675
 9599 1   9.570262  2.001029e+01  1.675
 9600 1   8.331085  2.070372e+01  1.675
 9601 1   8.312021  2.212359e+01  1.675
 9602 1   9.532134  2.285003e+01  1.675
 9603 1   7.110972  1.997727e+01  1.675
 9604 1   5.871794  2.067069e+01  1.675
 9605 1   5.852730  2.209057e+01  1.675
 9606 1   7.072843  2.281701e+01  1.675
 9607 1   4.651681  1.994425e+01  1.675
 9608 1   3.412504  2.063767e+01  1.675
 9609 1   3.393440  2.205755e+01  1.675
 9610 1   4.613553  2.278399e+01  1.675
 9611 1   2.192391  1.991123e+01  1.675
 9612 1   0.953213  2.060465e+01  1.675
 9613 1   0.934149  2.202453e+01  1.675
 9614 1   2.154262  2.275097e+01  1.675
 9615 1  -0.266900  1.987821e+01  1.675
 9616 1  -1.506077  2.057163e+01  1.675
 9617 1  -1.525141  2.199151e+01  1.675
 9618 1  -0.305028  2.271795e+01  1.675
 9619 1  -2.726190  1.984519e+01  1.675
 9620 1  -3.965368  2.053861e+01  1.675
 9621 1  -3.984432  2.195849e+01  1.675
 9622 1  -2.764319  2.268493e+01  1.675
 9623 1  -5.185481  1.981217e+01  1.675
 9624 1  -6.424658  2.050559e+01  1.675
 9625 1  -6.443722  2.192547e+01  1.675
 9626 1  -5.223609  2.265191e+01  1.675
 9627 1  -7.644771  1.977915e+01  1.675
 9628 1  -8.883949  2.047257e+01  1.675
 9629 1  -8.903013  2.189245e+01  1.675
 9630 1  -7.682900  2.261889e+01  1.675
 9631 1 -10.104062  1.974613e+01  1.675
 9632 1 -11.343239  2.043955e+01  1.675
 9633 1 -11.362303  2.185943e+01  1.675
 9634 1 -10.142190  2.258587e+01  1.675
 9635 1 -12.563352  1.971311e+01  1.675
 9636 1 -13.802530  2.040653e+01  1.675
 9637 1 -13.821594  2.182640e+01  1.675
 9638 1 -12.601481  2.255285e+01  1.675
 9639 1 -15.022643  1.968009e+01  1.675
 9640 1 -16.261820  2.037351e+01  1.675
 9641 1 -16.280884  2.179338e+01  1.675
 9642 1 -15.060771  2.251983e+01  1.675
 9643 1 -17.481933  1.964707e+01  1.675
 9644 1 -18.721110  2.034049e+01  1.675
 9645 1 -18.740175  2.176036e+01  1.675
 9646 1 -17.520062  2.248681e+01  1.675
 9647 1 -19.941224  1.961405e+01  1.675
 9648 1 -21.180401  2.030747e+01  1.675
 9649 1 -21.199465  2.172734e+01  1.675
 9650 1 -19.979352  2.245379e+01  1.675
 9651 1 -22.400514  1.958103e+01  1.675
 9652 1 -23.639691  2.027445e+01  1.675
 9653 1 -23.658756  2.169432e+01  1.675
 9654 1 -22.438643  2.242077e+01  1.675
 9655 1 -24.859805  1.954801e+01  1.675
 9656 1 -26.098982  2.024143e+01  1.675
 9657 1 -26.118046  2.166130e+01  1.675
 9658 1 -24.897933  2.238775e+01  1.675
 9659 1 -27.319095  1.951499e+01  1.675
 9660 1 -28.558272  2.020841e+01  1.675
 9661 1 -28.577337  2.162828e+01  1.675
 9662 1 -27.357224  2.235473e+01  1.675
 9663 1 -29.778385  1.948196e+01  1.675
 9664 1 -31.017563  2.017539e+01  1.675
 9665 1 -31.036627  2.159526e+01  1.675
 9666 1 -29.816514  2.232171e+01  1.675
 9667 1 -32.237676  1.944894e+01  1.675
 9668 1 -33.476853  2.014237e+01  1.675
 9669 1 -33.495918  2.156224e+01  1.675
 9670 1 -32.275805  2.228869e+01  1.675
 9671 1 -34.696966  1.941592e+01  1.675
 9672 1 -35.936144  2.010935e+01  1.675
 9673 1 -35.955208  2.152922e+01  1.675
 9674 1 -34.735095  2.225567e+01  1.675
 9675 1 -37.156257  1.938290e+01  1.675
 9676 1 -38.395434  2.007633e+01  1.675
 9677 1 -38.414499  2.149620e+01  1.675
 9678 1 -37.194385  2.222265e+01  1.675
 9679 1 -39.615547  1.934988e+01  1.675
 9680 1 -40.854725  2.004331e+01  1.675
 9681 1 -40.873789  2.146318e+01  1.675
 9682 1 -39.653676  2.218963e+01  1.675
 9683 1 -42.074838  1.931686e+01  1.675
 9684 1 -43.314015  2.001029e+01  1.675
 9685 1 -43.333080  2.143016e+01  1.675
 9686 1 -42.112966  2.215661e+01  1.675
 9687 1 -44.534128  1.928384e+01  1.675
 9688 1 -45.773306  1.997727e+01  1.675
 9689 1 -45.792370  2.139714e+01  1.675
 9690 1 -44.572257  2.212359e+01  1.675
 9691 1 -46.993419  1.925082e+01  1.675
 9692 1 -48.232596  1.994425e+01  1.675
 9693 1 -48.251660  2.136412e+01  1.675
 9694 1 -47.031547  2.209057e+01  1.675
 9695 1 -49.452709  1.921780e+01  1.675
 9696 1 -50.691887  1.991123e+01  1.675
 9697 1 -50.710951  2.133110e+01  1.675
 9698 1 -49.490838  2.205755e+01  1.675
 9699 1 -51.912000  1.918478e+01  1.675
 9700 1 -53.151177  1.987821e+01  1.675
 9701 1 -53.170241  2.129808e+01  1.675
 9702 1 -51.950128  2.202453e+01  1.675
 9703 1 -54.371290  1.915176e+01  1.675
 9704 1 -55.610468  1.984519e+01  1.675
 9705 1 -55.629532  2.126506e+01  1.675
 9706 1 -54.409419  2.199151e+01  1.675
 9707 1 -56.830581  1.911874e+01  1.675
 9708 1 -58.069758  1.981217e+01  1.675
 9709 1 -58.088822  2.123204e+01  1.675
 9710 1 -56.868709  2.195849e+01  1.675
 9711 1 -59.289871  1.908572e+01  1.675
 9712 1 -60.529049  1.977915e+01  1.675
 9713 1 -60.548113  2.119902e+01  1.675
 9714 1 -59.328000  2.192547e+01  1.675
 9715 1 -61.749162  1.905270e+01  1.675
 9716 1 -62.988339  1.974613e+01  1.675
 9717 1 -63.007403  2.116600e+01  1.675
 9718 1 -61.787290  2.189245e+01  1.675
 9719 1 -64.208452  1.901968e+01  1.675
 9720 1 -65.447630  1.971311e+01  1.675
 9721 1 -65.466694  2.113298e+01  1.675
 9722 1 -64.246581  2.185943e+01  1.675
 9723 1 -66.667743  1.898666e+01  1.675
 9724 1 -67.906920  1.968009e+01  1.675
 9725 1 -67.925984  2.109996e+01  1.675
 9726 1 -66.705871  2.182640e+01  1.675
 9727 1 -69.127033  1.895364e+01  1.675
 9728 1 -70.366211  1.964707e+01  1.675
 9729 1 -70.385275  2.106694e+01  1.675
 9730 1 -69.165162  2.179338e+01  1.675
 9731 1 -71.586324  1.892062e+01  1.675
 9732 1 -72.825501  1.961405e+01  1.675
 9733 1 -72.844565  2.103392e+01  1.675
 9734 1 -71.624452  2.176036e+01  1.675
 9735 1 -74.045614  1.888760e+01  1.675
 9736 1 -75.284791  1.958103e+01  1.675
 9737 1 -75.303856  2.100090e+01  1.675
 9738 1 -74.083743  2.172734e+01  1.675
 9739 1 -76.504905  1.885458e+01  1.675
 9740 1 -77.744082  1.954801e+01  1.675
 9741 1 -77.763146  2.096788e+01  1.675
 9742 1 -76.543033  2.169432e+01  1.675
 9743 1 -78.964195  1.882156e+01  1.675
 9744 1 -79.002324  2.166130e+01  1.675
 9745 1  78.373203  2.519447e+01  1.675
 9746 1  77.134025  2.588790e+01  1.675
 9747 1  77.114961  2.730777e+01  1.675
 9748 1  78.335074  2.803422e+01  1.675
 9749 1  75.913912  2.516145e+01  1.675
 9750 1  74.674735  2.585488e+01  1.675
 9751 1  74.655671  2.727475e+01  1.675
 9752 1  75.875784  2.800120e+01  1.675
 9753 1  73.454622  2.512843e+01  1.675
 9754 1  72.215444  2.582186e+01  1.675
 9755 1  72.196380  2.724173e+01  1.675
 9756 1  73.416493  2.796818e+01  1.675
 9757 1  70.995331  2.509541e+01  1.675
 9758 1  69.756154  2.578884e+01  1.675
 9759 1  69.737090  2.720871e+01  1.675
 9760 1  70.957203  2.793516e+01  1.675
 9761 1  68.536041  2.506239e+01  1.675
 9762 1  67.296864  2.575582e+01  1.675
 9763 1  67.277799  2.717569e+01  1.675
 9764 1  68.497912  2.790214e+01  1.675
 9765 1  66.076750  2.502937e+01  1.675
 9766 1  64.837573  2.572280e+01  1.675
 9767 1  64.818509  2.714267e+01  1.675
 9768 1  66.038622  2.786912e+01  1.675
 9769 1  63.617460  2.499635e+01  1.675
 9770 1  62.378283  2.568978e+01  1.675
 9771 1  62.359218  2.710965e+01  1.675
 9772 1  63.579331  2.783610e+01  1.675
 9773 1  61.158169  2.496333e+01  1.675
 9774 1  59.918992  2.565676e+01  1.675
 9775 1  59.899928  2.707663e+01  1.675
 9776 1  61.120041  2.780308e+01  1.675
 9777 1  58.698879  2.493031e+01  1.675
 9778 1  57.459702  2.562374e+01  1.675
 9779 1  57.440637  2.704361e+01  1.675
 9780 1  58.660750  2.777006e+01  1.675
 9781 1  56.239588  2.489729e+01  1.675
 9782 1  55.000411  2.559072e+01  1.675
 9783 1  54.981347  2.701059e+01  1.675
 9784 1  56.201460  2.773703e+01  1.675
 9785 1  53.780298  2.486427e+01  1.675
 9786 1  52.541121  2.555770e+01  1.675
 9787 1  52.522056  2.697757e+01  1.675
 9788 1  53.742169  2.770401e+01  1.675
 9789 1  51.321008  2.483125e+01  1.675
 9790 1  50.081830  2.552468e+01  1.675
 9791 1  50.062766  2.694455e+01  1.675
 9792 1  51.282879  2.767099e+01  1.675
 9793 1  48.861717  2.479823e+01  1.675
 9794 1  47.622540  2.549166e+01  1.675
 9795 1  47.603475  2.691153e+01  1.675
 9796 1  48.823589  2.763797e+01  1.675
 9797 1  46.402427  2.476521e+01  1.675
 9798 1  45.163249  2.545864e+01  1.675
 9799 1  45.144185  2.687851e+01  1.675
 9800 1  46.364298  2.760495e+01  1.675
 9801 1  43.943136  2.473219e+01  1.675
 9802 1  42.703959  2.542562e+01  1.675
 9803 1  42.684894  2.684549e+01  1.675
 9804 1  43.905008  2.757193e+01  1.675
 9805 1  41.483846  2.469917e+01  1.675
 9806 1  40.244668  2.539259e+01  1.675
 9807 1  40.225604  2.681247e+01  1.675
 9808 1  41.445717  2.753891e+01  1.675
 9809 1  39.024555  2.466615e+01  1.675
 9810 1  37.785378  2.535957e+01  1.675
 9811 1  37.766313  2.677945e+01  1.675
 9812 1  38.986427  2.750589e+01  1.675
 9813 1  36.565265  2.463313e+01  1.675
 9814 1  35.326087  2.532655e+01  1.675
 9815 1  35.307023  2.674643e+01  1.675
 9816 1  36.527136  2.747287e+01  1.675
 9817 1  34.105974  2.460011e+01  1.675
 9818 1  32.866797  2.529353e+01  1.675
 9819 1  32.847733  2.671341e+01  1.675
 9820 1  34.067846  2.743985e+01  1.675
 9821 1  31.646684  2.456709e+01  1.675
 9822 1  30.407506  2.526051e+01  1.675
 9823 1  30.388442  2.668039e+01  1.675
 9824 1  31.608555  2.740683e+01  1.675
 9825 1  29.187393  2.453407e+01  1.675
 9826 1  27.948216  2.522749e+01  1.675
 9827 1  27.929152  2.664737e+01  1.675
 9828 1  29.149265  2.737381e+01  1.675
 9829 1  26.728103  2.450105e+01  1.675
 9830 1  25.488925  2.519447e+01  1.675
 9831 1  25.469861  2.661435e+01  1.675
 9832 1  26.689974  2.734079e+01  1.675
 9833 1  24.268812  2.446803e+01  1.675
 9834 1  23.029635  2.516145e+01  1.675
 9835 1  23.010571  2.658133e+01  1.675
 9836 1  24.230684  2.730777e+01  1.675
 9837 1  21.809522  2.443501e+01  1.675
 9838 1  20.570344  2.512843e+01  1.675
 9839 1  20.551280  2.654830e+01  1.675
 9840 1  21.771393  2.727475e+01  1.675
 9841 1  19.350231  2.440199e+01  1.675
 9842 1  18.111054  2.509541e+01  1.675
 9843 1  18.091990  2.651528e+01  1.675
 9844 1  19.312103  2.724173e+01  1.675
 9845 1  16.890941  2.436897e+01  1.675
 9846 1  15.651763  2.506239e+01  1.675
 9847 1  15.632699  2.648226e+01  1.675
 9848 1  16.852812  2.720871e+01  1.675
 9849 1  14.431650  2.433595e+01  1.675
 9850 1  13.192473  2.502937e+01  1.675
 9851 1  13.173409  2.644924e+01  1.675
 9852 1  14.393522  2.717569e+01  1.675
 9853 1  11.972360  2.430293e+01  1.675
 9854 1  10.733182  2.499635e+01  1.675
 9855 1  10.714118  2.641622e+01  1.675
 9856 1  11.934231  2.714267e+01  1.675
 9857 1   9.513069  2.426991e+01  1.675
 9858 1   8.273892  2.496333e+01  1.675
 9859 1   8.254828  2.638320e+01  1.675
 9860 1   9.474941  2.710965e+01  1.675
 9861 1   7.053779  2.423689e+01  1.675
 9862 1   5.814602  2.493031e+01  1.675
 9863 1   5.795537  2.635018e+01  1.675
 9864 1   7.015650  2.707663e+01  1.675
 9865 1   4.594488  2.420386e+01  1.675
 9866 1   3.355311  2.489729e+01  1.675
 9867 1   3.336247  2.631716e+01  1.675
 9868 1   4.556360  2.704361e+01  1.675
 9869 1   2.135198  2.417084e+01  1.675
 9870 1   0.896021  2.486427e+01  1.675
 9871 1   0.876956  2.628414e+01  1.675
 9872 1   2.097069  2.701059e+01  1.675
 9873 1  -0.324093  2.413782e+01  1.675
 9874 1  -1.563270  2.483125e+01  1.675
 9875 1  -1.582334  2.625112e+01  1.675
 9876 1  -0.362221  2.697757e+01  1.675
 9877 1  -2.783383  2.410480e+01  1.675
 9878 1  -4.022560  2.479823e+01  1.675
 9879 1  -4.041625  2.621810e+01  1.675
 9880 1  -2.821512  2.694455e+01  1.675
 9881 1  -5.242674  2.407178e+01  1.675
 9882 1  -6.481851  2.476521e+01  1.675
 9883 1  -6.500915  2.618508e+01  1.675
 9884 1  -5.280802  2.691153e+01  1.675
 9885 1  -7.701964  2.403876e+01  1.675
 9886 1  -8.941141  2.473219e+01  1.675
 9887 1  -8.960206  2.615206e+01  1.675
 9888 1  -7.740093  2.687851e+01  1.675
 9889 1 -10.161254  2.400574e+01  1.675
 9890 1 -11.400432  2.469917e+01  1.675
 9891 1 -11.419496  2.611904e+01  1.675
 9892 1 -10.199383  2.684549e+01  1.675
 9893 1 -12.620545  2.397272e+01  1.675
 9894 1 -13.859722  2.466615e+01  1.675
 9895 1 -13.878787  2.608602e+01  1.675
 9896 1 -12.658673  2.681247e+01  1.675
 9897 1 -15.079835  2.393970e+01  1.675
 9898 1 -16.319013  2.463313e+01  1.675
 9899 1 -16.338077  2.605300e+01  1.675
 9900 1 -15.117964  2.677945e+01  1.675
 9901 1 -17.539126  2.390668e+01  1.675
 9902 1 -18.778303  2.460011e+01  1.675
 9903 1 -18.797368  2.601998e+01  1.675
 9904 1 -17.577254  2.674643e+01  1.675
 9905 1 -19.998416  2.387366e+01  1.675
 9906 1 -21.237594  2.456709e+01  1.675
 9907 1 -21.256658  2.598696e+01  1.675
 9908 1 -20.036545  2.671341e+01  1.675
 9909 1 -22.457707  2.384064e+01  1.675
 9910 1 -23.696884  2.453407e+01  1.675
 9911 1 -23.715948  2.595394e+01  1.675
 9912 1 -22.495835  2.668039e+01  1.675
 9913 1 -24.916997  2.380762e+01  1.675
 9914 1 -26.156175  2.450105e+01  1.675
 9915 1 -26.175239  2.592092e+01  1.675
 9916 1 -24.955126  2.664737e+01  1.675
 9917 1 -27.376288  2.377460e+01  1.675
 9918 1 -28.615465  2.446803e+01  1.675
 9919 1 -28.634529  2.588790e+01  1.675
 9920 1 -27.414416  2.661435e+01  1.675
 9921 1 -29.835578  2.374158e+01  1.675
 9922 1 -31.074756  2.443501e+01  1.675
 9923 1 -31.093820  2.585488e+01  1.675
 9924 1 -29.873707  2.658133e+01  1.675
 9925 1 -32.294869  2.370856e+01  1.675
 9926 1 -33.534046  2.440199e+01  1.675
 9927 1 -33.553110  2.582186e+01  1.675
 9928 1 -32.332997  2.654830e+01  1.675
 9929 1 -34.754159  2.367554e+01  1.675
 9930 1 -35.993337  2.436897e+01  1.675
 9931 1 -36.012401  2.578884e+01  1.675
 9932 1 -34.792288  2.651528e+01  1.675
 9933 1 -37.213450  2.364252e+01  1.675
 9934 1 -38.452627  2.433595e+01  1.675
 9935 1 -38.471691  2.575582e+01  1.675
 9936 1 -37.251578  2.648226e+01  1.675
 9937 1 -39.672740  2.360950e+01  1.675
 9938 1 -40.911918  2.430293e+01  1.675
 9939 1 -40.930982  2.572280e+01  1.675
 9940 1 -39.710869  2.644924e+01  1.675
 9941 1 -42.132031  2.357648e+01  1.675
 9942 1 -43.371208  2.426991e+01  1.675
 9943 1 -43.390272  2.568978e+01  1.675
 9944 1 -42.170159  2.641622e+01  1.675
 9945 1 -44.591321  2.354346e+01  1.675
 9946 1 -45.830499  2.423689e+01  1.675
 9947 1 -45.849563  2.565676e+01  1.675
 9948 1 -44.629450  2.638320e+01  1.675
 9949 1 -47.050612  2.351044e+01  1.675
 9950 1 -48.289789  2.420386e+01  1.675
 9951 1 -48.308853  2.562374e+01  1.675
 9952 1 -47.088740  2.635018e+01  1.675
 9953 1 -49.509902  2.347742e+01  1.675
 9954 1 -50.749080  2.417084e+01  1.675
 9955 1 -50.768144  2.559072e+01  1.675
 9956 1 -49.548031  2.631716e+01  1.675
 9957 1 -51.969193  2.344440e+01  1.675
 9958 1 -53.208370  2.413782e+01  1.675
 9959 1 -53.227434  2.555770e+01  1.675
 9960 1 -52.007321  2.628414e+01  1.675
 9961 1 -54.428483  2.341138e+01  1.675
 9962 1 -55.667660  2.410480e+01  1.675
 9963 1 -55.686725  2.552468e+01  1.675
 9964 1 -54.466612  2.625112e+01  1.675
 9965 1 -56.887774  2.337836e+01  1.675
 9966 1 -58.126951  2.407178e+01  1.675
 9967 1 -58.146015  2.549166e+01  1.675
 9968 1 -56.925902  2.621810e+01  1.675
 9969 1 -59.347064  2.334534e+01  1.675
 9970 1 -60.586241  2.403876e+01  1.675
 9971 1 -60.605306  2.545864e+01  1.675
 9972 1 -59.385193  2.618508e+01  1.675
 9973 1 -61.806355  2.331232e+01  1.675
 9974 1 -63.045532  2.400574e+01  1.675
 9975 1 -63.064596  2.542562e+01  1.675
 9976 1 -61.844483  2.615206e+01  1.675
 9977 1 -64.265645  2.327930e+01  1.675
 9978 1 -65.504822  2.397272e+01  1.675
 9979 1 -65.523887  2.539259e+01  1.675
 9980 1 -64.303774  2.611904e+01  1.675
 9981 1 -66.724935  2.324628e+01  1.675
 9982 1 -67.964113  2.393970e+01  1.675
 9983 1 -67.983177  2.535957e+01  1.675
 9984 1 -66.763064  2.608602e+01  1.675
 9985 1 -69.184226  2.321326e+01  1.675
 9986 1 -70.423403  2.390668e+01  1.675
 9987 1 -70.442468  2.532655e+01  1.675
 9988 1 -69.222354  2.605300e+01  1.675
 9989 1 -71.643516  2.318024e+01  1.675
 9990 1 -72.882694  2.387366e+01  1.675
 9991 1 -72.901758  2.529353e+01  1.675
 9992 1 -71.681645  2.601998e+01  1.675
 9993 1 -74.102807  2.314722e+01  1.675
 9994 1 -75.341984  2.384064e+01  1.675
 9995 1 -75.361049  2.526051e+01  1.675
 9996 1 -74.140935  2.598696e+01  1.675
 9997 1 -76.562097  2.311420e+01  1.675
 9998 1 -77.801275  2.380762e+01  1.675
 9999 1 -77.820339  2.522749e+01  1.675
10000 1 -76.600226  2.595394e+01  1.675
10001 1 -79.021388  2.308118e+01  1.675
10002 1 -79.059516  2.592092e+01  1.675
10003 1  78.316010  2.945409e+01  1.675
10004 1  77.076833  3.014752e+01  1.675
10005 1  77.057768  3.156739e+01  1.675
10006 1  78.277881  3.229383e+01  1.675
10007 1  75.856720  2.942107e+01  1.675
10008 1  74.617542  3.011449e+01  1.675
10009 1  74.598478  3.153437e+01  1.675
10010 1  75.818591  3.226081e+01  1.675
10011 1  73.397429  2.938805e+01  1.675
10012 1  72.158252  3.008147e+01  1.675
10013 1  72.139187  3.150135e+01  1.675
10014 1  73.359300  3.222779e+01  1.675
10015 1  70.938139  2.935503e+01  1.675
10016 1  69.698961  3.004845e+01  1.675
10017 1  69.679897  3.146833e+01  1.675
10018 1  70.900010  3.219477e+01  1.675
10019 1  68.478848  2.932201e+01  1.675
10020 1  67.239671  3.001543e+01  1.675
10021 1  67.220606  3.143531e+01  1.675
10022 1  68.440720  3.216175e+01  1.675
10023 1  66.019558  2.928899e+01  1.675
10024 1  64.780380  2.998241e+01  1.675
10025 1  64.761316  3.140229e+01  1.675
10026 1  65.981429  3.212873e+01  1.675
10027 1  63.560267  2.925597e+01  1.675
10028 1  62.321090  2.994939e+01  1.675
10029 1  62.302025  3.136927e+01  1.675
10030 1  63.522139  3.209571e+01  1.675
10031 1  61.100977  2.922295e+01  1.675
10032 1  59.861799  2.991637e+01  1.675
10033 1  59.842735  3.133625e+01  1.675
10034 1  61.062848  3.206269e+01  1.675
10035 1  58.641686  2.918993e+01  1.675
10036 1  57.402509  2.988335e+01  1.675
10037 1  57.383445  3.130323e+01  1.675
10038 1  58.603558  3.202967e+01  1.675
10039 1  56.182396  2.915691e+01  1.675
10040 1  54.943218  2.985033e+01  1.675
10041 1  54.924154  3.127020e+01  1.675
10042 1  56.144267  3.199665e+01  1.675
10043 1  53.723105  2.912389e+01  1.675
10044 1  52.483928  2.981731e+01  1.675
10045 1  52.464864  3.123718e+01  1.675
10046 1  53.684977  3.196363e+01  1.675
10047 1  51.263815  2.909087e+01  1.675
10048 1  50.024637  2.978429e+01  1.675
10049 1  50.005573  3.120416e+01  1.675
10050 1  51.225686  3.193061e+01  1.675
10051 1  48.804524  2.905785e+01  1.675
10052 1  47.565347  2.975127e+01  1.675
10053 1  47.546283  3.117114e+01  1.675
10054 1  48.766396  3.189759e+01  1.675
10055 1  46.345234  2.902483e+01  1.675
10056 1  45.106056  2.971825e+01  1.675
10057 1  45.086992  3.113812e+01  1.675
10058 1  46.307105  3.186457e+01  1.675
10059 1  43.885943  2.899181e+01  1.675
10060 1  42.646766  2.968523e+01  1.675
10061 1  42.627702  3.110510e+01  1.675
10062 1  43.847815  3.183155e+01  1.675
10063 1  41.426653  2.895879e+01  1.675
10064 1  40.187475  2.965221e+01  1.675
10065 1  40.168411  3.107208e+01  1.675
10066 1  41.388524  3.179853e+01  1.675
10067 1  38.967362  2.892576e+01  1.675
10068 1  37.728185  2.961919e+01  1.675
10069 1  37.709121  3.103906e+01  1.675
10070 1  38.929234  3.176551e+01  1.675
10071 1  36.508072  2.889274e+01  1.675
10072 1  35.268894  2.958617e+01  1.675
10073 1  35.249830  3.100604e+01  1.675
10074 1  36.469943  3.173249e+01  1.675
10075 1  34.048781  2.885972e+01  1.675
10076 1  32.809604  2.955315e+01  1.675
10077 1  32.790540  3.097302e+01  1.675
10078 1  34.010653  3.169947e+01  1.675
10079 1  31.589491  2.882670e+01  1.675
10080 1  30.350314  2.952013e+01  1.675
10081 1  30.331249  3.094000e+01  1.675
10082 1  31.551362  3.166645e+01  1.675
10083 1  29.130200  2.879368e+01  1.675
10084 1  27.891023  2.948711e+01  1.675
10085 1  27.871959  3.090698e+01  1.675
10086 1  29.092072  3.163343e+01  1.675
10087 1  26.670910  2.876066e+01  1.675
10088 1  25.431733  2.945409e+01  1.675
10089 1  25.412668  3.087396e+01  1.675
10090 1  26.632781  3.160041e+01  1.675
10091 1  24.211619  2.872764e+01  1.675
10092 1  22.972442  2.942107e+01  1.675
10093 1  22.953378  3.084094e+01  1.675
10094 1  24.173491  3.156739e+01  1.675
10095 1  21.752329  2.869462e+01  1.675
10096 1  20.513152  2.938805e+01  1.675
10097 1  20.494087  3.080792e+01  1.675
10098 1  21.714200  3.153437e+01  1.675
10099 1  19.293038  2.866160e+01  1.675
10100 1  18.053861  2.935503e+01  1.675
10101 1  18.034797  3.077490e+01  1.675
10102 1  19.254910  3.150135e+01  1.675
10103 1  16.833748  2.862858e+01  1.675
10104 1  15.594571  2.932201e+01  1.675
10105 1  15.575506  3.074188e+01  1.675
10106 1  16.795619  3.146833e+01  1.675
10107 1  14.374458  2.859556e+01  1.675
10108 1  13.135280  2.928899e+01  1.675
10109 1  13.116216  3.070886e+01  1.675
10110 1  14.336329  3.143531e+01  1.675
10111 1  11.915167  2.856254e+01  1.675
10112 1  10.675990  2.925597e+01  1.675
10113 1  10.656925  3.067584e+01  1.675
10114 1  11.877039  3.140229e+01  1.675
10115 1   9.455877  2.852952e+01  1.675
10116 1   8.216699  2.922295e+01  1.675
10117 1   8.197635  3.064282e+01  1.675
10118 1   9.417748  3.136927e+01  1.675
10119 1   6.996586  2.849650e+01  1.675
10120 1   5.757409  2.918993e+01  1.675
10121 1   5.738344  3.060980e+01  1.675
10122 1   6.958458  3.133625e+01  1.675
10123 1   4.537296  2.846348e+01  1.675
10124 1   3.298118  2.915691e+01  1.675
10125 1   3.279054  3.057678e+01  1.675
10126 1   4.499167  3.130323e+01  1.675
10127 1   2.078005  2.843046e+01  1.675
10128 1   0.838828  2.912389e+01  1.675
10129 1   0.819763  3.054376e+01  1.675
10130 1   2.039877  3.127020e+01  1.675
10131 1  -0.381285  2.839744e+01  1.675
10132 1  -1.620463  2.909087e+01  1.675
10133 1  -1.639527  3.051074e+01  1.675
10134 1  -0.419414  3.123718e+01  1.675
10135 1  -2.840576  2.836442e+01  1.675
10136 1  -4.079753  2.905785e+01  1.675
10137 1  -4.098817  3.047772e+01  1.675
10138 1  -2.878704  3.120416e+01  1.675
10139 1  -5.299866  2.833140e+01  1.675
10140 1  -6.539044  2.902483e+01  1.675
10141 1  -6.558108  3.044470e+01  1.675
10142 1  -5.337995  3.117114e+01  1.675
10143 1  -7.759157  2.829838e+01  1.675
10144 1  -8.998334  2.899181e+01  1.675
10145 1  -9.017398  3.041168e+01  1.675
10146 1  -7.797285  3.113812e+01  1.675
10147 1 -10.218447  2.826536e+01  1.675
10148 1 -11.457625  2.895879e+01  1.675
10149 1 -11.476689  3.037866e+01  1.675
10150 1 -10.256576  3.110510e+01  1.675
10151 1 -12.677738  2.823234e+01  1.675
10152 1 -13.916915  2.892576e+01  1.675
10153 1 -13.935979  3.034564e+01  1.675
10154 1 -12.715866  3.107208e+01  1.675
10155 1 -15.137028  2.819932e+01  1.675
10156 1 -16.376206  2.889274e+01  1.675
10157 1 -16.395270  3.031262e+01  1.675
10158 1 -15.175157  3.103906e+01  1.675
10159 1 -17.596319  2.816630e+01  1.675
10160 1 -18.835496  2.885972e+01  1.675
10161 1 -18.854560  3.027960e+01  1.675
10162 1 -17.634447  3.100604e+01  1.675
10163 1 -20.055609  2.813328e+01  1.675
10164 1 -21.294787  2.882670e+01  1.675
10165 1 -21.313851  3.024658e+01  1.675
10166 1 -20.093738  3.097302e+01  1.675
10167 1 -22.514900  2.810026e+01  1.675
10168 1 -23.754077  2.879368e+01  1.675
10169 1 -23.773141  3.021356e+01  1.675
10170 1 -22.553028  3.094000e+01  1.675
10171 1 -24.974190  2.806724e+01  1.675
10172 1 -26.213368  2.876066e+01  1.675
10173 1 -26.232432  3.018054e+01  1.675
10174 1 -25.012319  3.090698e+01  1.675
10175 1 -27.433481  2.803422e+01  1.675
10176 1 -28.672658  2.872764e+01  1.675
10177 1 -28.691722  3.014752e+01  1.675
10178 1 -27.471609  3.087396e+01  1.675
10179 1 -29.892771  2.800120e+01  1.675
10180 1 -31.131948  2.869462e+01  1.675
10181 1 -31.151013  3.011449e+01  1.675
10182 1 -29.930900  3.084094e+01  1.675
10183 1 -32.352062  2.796818e+01  1.675
10184 1 -33.591239  2.866160e+01  1.675
10185 1 -33.610303  3.008147e+01  1.675
10186 1 -32.390190  3.080792e+01  1.675
10187 1 -34.811352  2.793516e+01  1.675
10188 1 -36.050529  2.862858e+01  1.675
10189 1 -36.069594  3.004845e+01  1.675
10190 1 -34.849481  3.077490e+01  1.675
10191 1 -37.270643  2.790214e+01  1.675
10192 1 -38.509820  2.859556e+01  1.675
10193 1 -38.528884  3.001543e+01  1.675
10194 1 -37.308771  3.074188e+01  1.675
10195 1 -39.729933  2.786912e+01  1.675
10196 1 -40.969110  2.856254e+01  1.675
10197 1 -40.988175  2.998241e+01  1.675
10198 1 -39.768062  3.070886e+01  1.675
10199 1 -42.189223  2.783610e+01  1.675
10200 1 -43.428401  2.852952e+01  1.675
10201 1 -43.447465  2.994939e+01  1.675
10202 1 -42.227352  3.067584e+01  1.675
10203 1 -44.648514  2.780308e+01  1.675
10204 1 -45.887691  2.849650e+01  1.675
10205 1 -45.906756  2.991637e+01  1.675
10206 1 -44.686643  3.064282e+01  1.675
10207 1 -47.107804  2.777006e+01  1.675
10208 1 -48.346982  2.846348e+01  1.675
10209 1 -48.366046  2.988335e+01  1.675
10210 1 -47.145933  3.060980e+01  1.675
10211 1 -49.567095  2.773703e+01  1.675
10212 1 -50.806272  2.843046e+01  1.675
10213 1 -50.825337  2.985033e+01  1.675
10214 1 -49.605223  3.057678e+01  1.675
10215 1 -52.026385  2.770401e+01  1.675
10216 1 -53.265563  2.839744e+01  1.675
10217 1 -53.284627  2.981731e+01  1.675
10218 1 -52.064514  3.054376e+01  1.675
10219 1 -54.485676  2.767099e+01  1.675
10220 1 -55.724853  2.836442e+01  1.675
10221 1 -55.743918  2.978429e+01  1.675
10222 1 -54.523804  3.051074e+01  1.675
10223 1 -56.944966  2.763797e+01  1.675
10224 1 -58.184144  2.833140e+01  1.675
10225 1 -58.203208  2.975127e+01  1.675
10226 1 -56.983095  3.047772e+01  1.675
10227 1 -59.404257  2.760495e+01  1.675
10228 1 -60.643434  2.829838e+01  1.675
10229 1 -60.662498  2.971825e+01  1.675
10230 1 -59.442385  3.044470e+01  1.675
10231 1 -61.863547  2.757193e+01  1.675
10232 1 -63.102725  2.826536e+01  1.675
10233 1 -63.121789  2.968523e+01  1.675
10234 1 -61.901676  3.041168e+01  1.675
10235 1 -64.322838  2.753891e+01  1.675
10236 1 -65.562015  2.823234e+01  1.675
10237 1 -65.581079  2.965221e+01  1.675
10238 1 -64.360966  3.037866e+01  1.675
10239 1 -66.782128  2.750589e+01  1.675
10240 1 -68.021306  2.819932e+01  1.675
10241 1 -68.040370  2.961919e+01  1.675
10242 1 -66.820257  3.034564e+01  1.675
10243 1 -69.241419  2.747287e+01  1.675
10244 1 -70.480596  2.816630e+01  1.675
10245 1 -70.499660  2.958617e+01  1.675
10246 1 -69.279547  3.031262e+01  1.675
10247 1 -71.700709  2.743985e+01  1.675
10248 1 -72.939887  2.813328e+01  1.675
10249 1 -72.958951  2.955315e+01  1.675
10250 1 -71.738838  3.027960e+01  1.675
10251 1 -74.160000  2.740683e+01  1.675
10252 1 -75.399177  2.810026e+01  1.675
10253 1 -75.418241  2.952013e+01  1.675
10254 1 -74.198128  3.024658e+01  1.675
10255 1 -76.619290  2.737381e+01  1.675
10256 1 -77.858468  2.806724e+01  1.675
10257 1 -77.877532  2.948711e+01  1.675
10258 1 -76.657419  3.021356e+01  1.675
10259 1 -79.078581  2.734079e+01  1.675
10260 1 -79.116709  3.018054e+01  1.675
10261 1  78.258817  3.371371e+01  1.675
10262 1  77.019640  3.440713e+01  1.675
10263 1  77.000576  3.582700e+01  1.675
10264 1  78.220689  3.655345e+01  1.675
10265 1  75.799527  3.368069e+01  1.675
10266 1  74.560349  3.437411e+01  1.675
10267 1  74.541285  3.579398e+01  1.675
10268 1  75.761398  3.652043e+01  1.675
10269 1  73.340236  3.364766e+01  1.675
10270 1  72.101059  3.434109e+01  1.675
10271 1  72.081995  3.576096e+01  1.675
10272 1  73.302108  3.648741e+01  1.675
10273 1  70.880946  3.361464e+01  1.675
10274 1  69.641768  3.430807e+01  1.675
10275 1  69.622704  3.572794e+01  1.675
10276 1  70.842817  3.645439e+01  1.675
10277 1  68.421655  3.358162e+01  1.675
10278 1  67.182478  3.427505e+01  1.675
10279 1  67.163414  3.569492e+01  1.675
10280 1  68.383527  3.642137e+01  1.675
10281 1  65.962365  3.354860e+01  1.675
10282 1  64.723187  3.424203e+01  1.675
10283 1  64.704123  3.566190e+01  1.675
10284 1  65.924236  3.638835e+01  1.675
10285 1  63.503074  3.351558e+01  1.675
10286 1  62.263897  3.420901e+01  1.675
10287 1  62.244833  3.562888e+01  1.675
10288 1  63.464946  3.635533e+01  1.675
10289 1  61.043784  3.348256e+01  1.675
10290 1  59.804606  3.417599e+01  1.675
10291 1  59.785542  3.559586e+01  1.675
10292 1  61.005655  3.632231e+01  1.675
10293 1  58.584493  3.344954e+01  1.675
10294 1  57.345316  3.414297e+01  1.675
10295 1  57.326252  3.556284e+01  1.675
10296 1  58.546365  3.628929e+01  1.675
10297 1  56.125203  3.341652e+01  1.675
10298 1  54.886026  3.410995e+01  1.675
10299 1  54.866961  3.552982e+01  1.675
10300 1  56.087074  3.625627e+01  1.675
10301 1  53.665912  3.338350e+01  1.675
10302 1  52.426735  3.407693e+01  1.675
10303 1  52.407671  3.549680e+01  1.675
10304 1  53.627784  3.622325e+01  1.675
10305 1  51.206622  3.335048e+01  1.675
10306 1  49.967445  3.404391e+01  1.675
10307 1  49.948380  3.546378e+01  1.675
10308 1  51.168493  3.619023e+01  1.675
10309 1  48.747331  3.331746e+01  1.675
10310 1  47.508154  3.401089e+01  1.675
10311 1  47.489090  3.543076e+01  1.675
10312 1  48.709203  3.615721e+01  1.675
10313 1  46.288041  3.328444e+01  1.675
10314 1  45.048864  3.397787e+01  1.675
10315 1  45.029799  3.539774e+01  1.675
10316 1  46.249912  3.612419e+01  1.675
10317 1  43.828750  3.325142e+01  1.675
10318 1  42.589573  3.394485e+01  1.675
10319 1  42.570509  3.536472e+01  1.675
10320 1  43.790622  3.609117e+01  1.675
10321 1  41.369460  3.321840e+01  1.675
10322 1  40.130283  3.391183e+01  1.675
10323 1  40.111218  3.533170e+01  1.675
10324 1  41.331331  3.605815e+01  1.675
10325 1  38.910170  3.318538e+01  1.675
10326 1  37.670992  3.387881e+01  1.675
10327 1  37.651928  3.529868e+01  1.675
10328 1  38.872041  3.602512e+01  1.675
10329 1  36.450879  3.315236e+01  1.675
10330 1  35.211702  3.384579e+01  1.675
10331 1  35.192637  3.526566e+01  1.675
10332 1  36.412751  3.599210e+01  1.675
10333 1  33.991589  3.311934e+01  1.675
10334 1  32.752411  3.381277e+01  1.675
10335 1  32.733347  3.523264e+01  1.675
10336 1  33.953460  3.595908e+01  1.675
10337 1  31.532298  3.308632e+01  1.675
10338 1  30.293121  3.377975e+01  1.675
10339 1  30.274056  3.519962e+01  1.675
10340 1  31.494170  3.592606e+01  1.675
10341 1  29.073008  3.305330e+01  1.675
10342 1  27.833830  3.374673e+01  1.675
10343 1  27.814766  3.516660e+01  1.675
10344 1  29.034879  3.589304e+01  1.675
10345 1  26.613717  3.302028e+01  1.675
10346 1  25.374540  3.371371e+01  1.675
10347 1  25.355475  3.513358e+01  1.675
10348 1  26.575589  3.586002e+01  1.675
10349 1  24.154427  3.298726e+01  1.675
10350 1  22.915249  3.368069e+01  1.675
10351 1  22.896185  3.510056e+01  1.675
10352 1  24.116298  3.582700e+01  1.675
10353 1  21.695136  3.295424e+01  1.675
10354 1  20.455959  3.364766e+01  1.675
10355 1  20.436895  3.506754e+01  1.675
10356 1  21.657008  3.579398e+01  1.675
10357 1  19.235846  3.292122e+01  1.675
10358 1  17.996668  3.361464e+01  1.675
10359 1  17.977604  3.503452e+01  1.675
10360 1  19.197717  3.576096e+01  1.675
10361 1  16.776555  3.288820e+01  1.675
10362 1  15.537378  3.358162e+01  1.675
10363 1  15.518314  3.500150e+01  1.675
10364 1  16.738427  3.572794e+01  1.675
10365 1  14.317265  3.285518e+01  1.675
10366 1  13.078087  3.354860e+01  1.675
10367 1  13.059023  3.496848e+01  1.675
10368 1  14.279136  3.569492e+01  1.675
10369 1  11.857974  3.282216e+01  1.675
10370 1  10.618797  3.351558e+01  1.675
10371 1  10.599733  3.493546e+01  1.675
10372 1  11.819846  3.566190e+01  1.675
10373 1   9.398684  3.278914e+01  1.675
10374 1   8.159506  3.348256e+01  1.675
10375 1   8.140442  3.490244e+01  1.675
10376 1   9.360555  3.562888e+01  1.675
10377 1   6.939393  3.275612e+01  1.675
10378 1   5.700216  3.344954e+01  1.675
10379 1   5.681152  3.486942e+01  1.675
10380 1   6.901265  3.559586e+01  1.675
10381 1   4.480103  3.272310e+01  1.675
10382 1   3.240925  3.341652e+01  1.675
10383 1   3.221861  3.483639e+01  1.675
10384 1   4.441974  3.556284e+01  1.675
10385 1   2.020812  3.269008e+01  1.675
10386 1   0.781635  3.338350e+01  1.675
10387 1   0.762571  3.480337e+01  1.675
10388 1   1.982684  3.552982e+01  1.675
10389 1  -0.438478  3.265706e+01  1.675
10390 1  -1.677656  3.335048e+01  1.675
10391 1  -1.696720  3.477035e+01  1.675
10392 1  -0.476607  3.549680e+01  1.675
10393 1  -2.897769  3.262404e+01  1.675
10394 1  -4.136946  3.331746e+01  1.675
10395 1  -4.156010  3.473733e+01  1.675
10396 1  -2.935897  3.546378e+01  1.675
10397 1  -5.357059  3.259102e+01  1.675
10398 1  -6.596236  3.328444e+01  1.675
10399 1  -6.615301  3.470431e+01  1.675
10400 1  -5.395188  3.543076e+01  1.675
10401 1  -7.816350  3.255800e+01  1.675
10402 1  -9.055527  3.325142e+01  1.675
10403 1  -9.074591  3.467129e+01  1.675
10404 1  -7.854478  3.539774e+01  1.675
10405 1 -10.275640  3.252498e+01  1.675
10406 1 -11.514817  3.321840e+01  1.675
10407 1 -11.533882  3.463827e+01  1.675
10408 1 -10.313769  3.536472e+01  1.675
10409 1 -12.734931  3.249196e+01  1.675
10410 1 -13.974108  3.318538e+01  1.675
10411 1 -13.993172  3.460525e+01  1.675
10412 1 -12.773059  3.533170e+01  1.675
10413 1 -15.194221  3.245893e+01  1.675
10414 1 -16.433398  3.315236e+01  1.675
10415 1 -16.452463  3.457223e+01  1.675
10416 1 -15.232350  3.529868e+01  1.675
10417 1 -17.653512  3.242591e+01  1.675
10418 1 -18.892689  3.311934e+01  1.675
10419 1 -18.911753  3.453921e+01  1.675
10420 1 -17.691640  3.526566e+01  1.675
10421 1 -20.112802  3.239289e+01  1.675
10422 1 -21.351979  3.308632e+01  1.675
10423 1 -21.371044  3.450619e+01  1.675
10424 1 -20.150931  3.523264e+01  1.675
10425 1 -22.572092  3.235987e+01  1.675
10426 1 -23.811270  3.305330e+01  1.675
10427 1 -23.830334  3.447317e+01  1.675
10428 1 -22.610221  3.519962e+01  1.675
10429 1 -25.031383  3.232685e+01  1.675
10430 1 -26.270560  3.302028e+01  1.675
10431 1 -26.289625  3.444015e+01  1.675
10432 1 -25.069511  3.516660e+01  1.675
10433 1 -27.490673  3.229383e+01  1.675
10434 1 -28.729851  3.298726e+01  1.675
10435 1 -28.748915  3.440713e+01  1.675
10436 1 -27.528802  3.513358e+01  1.675
10437 1 -29.949964  3.226081e+01  1.675
10438 1 -31.189141  3.295424e+01  1.675
10439 1 -31.208206  3.437411e+01  1.675
10440 1 -29.988092  3.510056e+01  1.675
10441 1 -32.409254  3.222779e+01  1.675
10442 1 -33.648432  3.292122e+01  1.675
10443 1 -33.667496  3.434109e+01  1.675
10444 1 -32.447383  3.506754e+01  1.675
10445 1 -34.868545  3.219477e+01  1.675
10446 1 -36.107722  3.288820e+01  1.675
10447 1 -36.126786  3.430807e+01  1.675
10448 1 -34.906673  3.503452e+01  1.675
10449 1 -37.327835  3.216175e+01  1.675
10450 1 -38.567013  3.285518e+01  1.675
10451 1 -38.586077  3.427505e+01  1.675
10452 1 -37.365964  3.500150e+01  1.675
10453 1 -39.787126  3.212873e+01  1.675
10454 1 -41.026303  3.282216e+01  1.675
10455 1 -41.045367  3.424203e+01  1.675
10456 1 -39.825254  3.496848e+01  1.675
10457 1 -42.246416  3.209571e+01  1.675
10458 1 -43.485594  3.278914e+01  1.675
10459 1 -43.504658  3.420901e+01  1.675
10460 1 -42.284545  3.493546e+01  1.675
10461 1 -44.705707  3.206269e+01  1.675
10462 1 -45.944884  3.275612e+01  1.675
10463 1 -45.963948  3.417599e+01  1.675
10464 1 -44.743835  3.490244e+01  1.675
10465 1 -47.164997  3.202967e+01  1.675
10466 1 -48.404175  3.272310e+01  1.675
10467 1 -48.423239  3.414297e+01  1.675
10468 1 -47.203126  3.486942e+01  1.675
10469 1 -49.624288  3.199665e+01  1.675
10470 1 -50.863465  3.269008e+01  1.675
10471 1 -50.882529  3.410995e+01  1.675
10472 1 -49.662416  3.483639e+01  1.675
10473 1 -52.083578  3.196363e+01  1.675
10474 1 -53.322756  3.265706e+01  1.675
10475 1 -53.341820  3.407693e+01  1.675
10476 1 -52.121707  3.480337e+01  1.675
10477 1 -54.542869  3.193061e+01  1.675
10478 1 -55.782046  3.262404e+01  1.675
10479 1 -55.801110  3.404391e+01  1.675
10480 1 -54.580997  3.477035e+01  1.675
10481 1 -57.002159  3.189759e+01  1.675
10482 1 -58.241337  3.259102e+01  1.675
10483 1 -58.260401  3.401089e+01  1.675
10484 1 -57.040288  3.473733e+01  1.675
10485 1 -59.461450  3.186457e+01  1.675
10486 1 -60.700627  3.255800e+01  1.675
10487 1 -60.719691  3.397787e+01  1.675
10488 1 -59.499578  3.470431e+01  1.675
10489 1 -61.920740  3.183155e+01  1.675
10490 1 -63.159918  3.252498e+01  1.675
10491 1 -63.178982  3.394485e+01  1.675
10492 1 -61.958869  3.467129e+01  1.675
10493 1 -64.380031  3.179853e+01  1.675
10494 1 -65.619208  3.249196e+01  1.675
10495 1 -65.638272  3.391183e+01  1.675
10496 1 -64.418159  3.463827e+01  1.675
10497 1 -66.839321  3.176551e+01  1.675
10498 1 -68.078498  3.245893e+01  1.675
10499 1 -68.097563  3.387881e+01  1.675
10500 1 -66.877450  3.460525e+01  1.675
10501 1 -69.298612  3.173249e+01  1.675
10502 1 -70.537789  3.242591e+01  1.675
10503 1 -70.556853  3.384579e+01  1.675
10504 1 -69.336740  3.457223e+01  1.675
10505 1 -71.757902  3.169947e+01  1.675
10506 1 -72.997079  3.239289e+01  1.675
10507 1 -73.016144  3.381277e+01  1.675
10508 1 -71.796031  3.453921e+01  1.675
10509 1 -74.217193  3.166645e+01  1.675
10510 1 -75.456370  3.235987e+01  1.675
10511 1 -75.475434  3.377975e+01  1.675
10512 1 -74.255321  3.450619e+01  1.675
10513 1 -76.676483  3.163343e+01  1.675
10514 1 -77.915660  3.232685e+01  1.675
10515 1 -77.934725  3.374673e+01  1.675
10516 1 -76.714612  3.447317e+01  1.675
10517 1 -79.135773  3.160041e+01  1.675
10518 1 -79.173902  3.444015e+01  1.675
10519 1  78.201624  3.797332e+01  1.675
10520 1  76.962447  3.866675e+01  1.675
10521 1  76.943383  4.008662e+01  1.675
10522 1  78.163496  4.081307e+01  1.675
10523 1  75.742334  3.794030e+01  1.675
10524 1  74.503157  3.863373e+01  1.675
10525 1  74.484092  4.005360e+01  1.675
10526 1  75.704205  4.078005e+01  1.675
10527 1  73.283043  3.790728e+01  1.675
10528 1  72.043866  3.860071e+01  1.675
10529 1  72.024802  4.002058e+01  1.675
10530 1  73.244915  4.074702e+01  1.675
10531 1  70.823753  3.787426e+01  1.675
10532 1  69.584576  3.856769e+01  1.675
10533 1  69.565511  3.998756e+01  1.675
10534 1  70.785624  4.071400e+01  1.675
10535 1  68.364462  3.784124e+01  1.675
10536 1  67.125285  3.853467e+01  1.675
10537 1  67.106221  3.995454e+01  1.675
10538 1  68.326334  4.068098e+01  1.675
10539 1  65.905172  3.780822e+01  1.675
10540 1  64.665995  3.850165e+01  1.675
10541 1  64.646930  3.992152e+01  1.675
10542 1  65.867043  4.064796e+01  1.675
10543 1  63.445882  3.777520e+01  1.675
10544 1  62.206704  3.846863e+01  1.675
10545 1  62.187640  3.988850e+01  1.675
10546 1  63.407753  4.061494e+01  1.675
10547 1  60.986591  3.774218e+01  1.675
10548 1  59.747414  3.843561e+01  1.675
10549 1  59.728349  3.985548e+01  1.675
10550 1  60.948462  4.058192e+01  1.675
10551 1  58.527301  3.770916e+01  1.675
10552 1  57.288123  3.840259e+01  1.675
10553 1  57.269059  3.982246e+01  1.675
10554 1  58.489172  4.054890e+01  1.675
10555 1  56.068010  3.767614e+01  1.675
10556 1  54.828833  3.836956e+01  1.675
10557 1  54.809768  3.978944e+01  1.675
10558 1  56.029882  4.051588e+01  1.675
10559 1  53.608720  3.764312e+01  1.675
10560 1  52.369542  3.833654e+01  1.675
10561 1  52.350478  3.975642e+01  1.675
10562 1  53.570591  4.048286e+01  1.675
10563 1  51.149429  3.761010e+01  1.675
10564 1  49.910252  3.830352e+01  1.675
10565 1  49.891187  3.972340e+01  1.675
10566 1  51.111301  4.044984e+01  1.675
10567 1  48.690139  3.757708e+01  1.675
10568 1  47.450961  3.827050e+01  1.675
10569 1  47.431897  3.969038e+01  1.675
10570 1  48.652010  4.041682e+01  1.675
10571 1  46.230848  3.754406e+01  1.675
10572 1  44.991671  3.823748e+01  1.675
10573 1  44.972607  3.965736e+01  1.675
10574 1  46.192720  4.038380e+01  1.675
10575 1  43.771558  3.751104e+01  1.675
10576 1  42.532380  3.820446e+01  1.675
10577 1  42.513316  3.962434e+01  1.675
10578 1  43.733429  4.035078e+01  1.675
10579 1  41.312267  3.747802e+01  1.675
10580 1  40.073090  3.817144e+01  1.675
10581 1  40.054026  3.959132e+01  1.675
10582 1  41.274139  4.031776e+01  1.675
10583 1  38.852977  3.744500e+01  1.675
10584 1  37.613799  3.813842e+01  1.675
10585 1  37.594735  3.955829e+01  1.675
10586 1  38.814848  4.028474e+01  1.675
10587 1  36.393686  3.741198e+01  1.675
10588 1  35.154509  3.810540e+01  1.675
10589 1  35.135445  3.952527e+01  1.675
10590 1  36.355558  4.025172e+01  1.675
10591 1  33.934396  3.737896e+01  1.675
10592 1  32.695218  3.807238e+01  1.675
10593 1  32.676154  3.949225e+01  1.675
10594 1  33.896267  4.021870e+01  1.675
10595 1  31.475105  3.734594e+01  1.675
10596 1  30.235928  3.803936e+01  1.675
10597 1  30.216864  3.945923e+01  1.675
10598 1  31.436977  4.018568e+01  1.675
10599 1  29.015815  3.731292e+01  1.675
10600 1  27.776637  3.800634e+01  1.675
10601 1  27.757573  3.942621e+01  1.675
10602 1  28.977686  4.015266e+01  1.675
10603 1  26.556524  3.727990e+01  1.675
10604 1  25.317347  3.797332e+01  1.675
10605 1  25.298283  3.939319e+01  1.675
10606 1  26.518396  4.011964e+01  1.675
10607 1  24.097234  3.724688e+01  1.675
10608 1  22.858056  3.794030e+01  1.675
10609 1  22.838992  3.936017e+01  1.675
10610 1  24.059105  4.008662e+01  1.675
10611 1  21.637943  3.721386e+01  1.675
10612 1  20.398766  3.790728e+01  1.675
10613 1  20.379702  3.932715e+01  1.675
10614 1  21.599815  4.005360e+01  1.675
10615 1  19.178653  3.718083e+01  1.675
10616 1  17.939476  3.787426e+01  1.675
10617 1  17.920411  3.929413e+01  1.675
10618 1  19.140524  4.002058e+01  1.675
10619 1  16.719362  3.714781e+01  1.675
10620 1  15.480185  3.784124e+01  1.675
10621 1  15.461121  3.926111e+01  1.675
10622 1  16.681234  3.998756e+01  1.675
10623 1  14.260072  3.711479e+01  1.675
10624 1  13.020895  3.780822e+01  1.675
10625 1  13.001830  3.922809e+01  1.675
10626 1  14.221943  3.995454e+01  1.675
10627 1  11.800781  3.708177e+01  1.675
10628 1  10.561604  3.777520e+01  1.675
10629 1  10.542540  3.919507e+01  1.675
10630 1  11.762653  3.992152e+01  1.675
10631 1   9.341491  3.704875e+01  1.675
10632 1   8.102314  3.774218e+01  1.675
10633 1   8.083249  3.916205e+01  1.675
10634 1   9.303362  3.988850e+01  1.675
10635 1   6.882200  3.701573e+01  1.675
10636 1   5.643023  3.770916e+01  1.675
10637 1   5.623959  3.912903e+01  1.675
10638 1   6.844072  3.985548e+01  1.675
10639 1   4.422910  3.698271e+01  1.675
10640 1   3.183733  3.767614e+01  1.675
10641 1   3.164668  3.909601e+01  1.675
10642 1   4.384781  3.982246e+01  1.675
10643 1   1.963620  3.694969e+01  1.675
10644 1   0.724442  3.764312e+01  1.675
10645 1   0.705378  3.906299e+01  1.675
10646 1   1.925491  3.978944e+01  1.675
10647 1  -0.495671  3.691667e+01  1.675
10648 1  -1.734848  3.761010e+01  1.675
10649 1  -1.753913  3.902997e+01  1.675
10650 1  -0.533799  3.975642e+01  1.675
10651 1  -2.954961  3.688365e+01  1.675
10652 1  -4.194139  3.757708e+01  1.675
10653 1  -4.213203  3.899695e+01  1.675
10654 1  -2.993090  3.972340e+01  1.675
10655 1  -5.414252  3.685063e+01  1.675
10656 1  -6.653429  3.754406e+01  1.675
10657 1  -6.672494  3.896393e+01  1.675
10658 1  -5.452380  3.969038e+01  1.675
10659 1  -7.873542  3.681761e+01  1.675
10660 1  -9.112720  3.751104e+01  1.675
10661 1  -9.131784  3.893091e+01  1.675
10662 1  -7.911671  3.965736e+01  1.675
10663 1 -10.332833  3.678459e+01  1.675
10664 1 -11.572010  3.747802e+01  1.675
10665 1 -11.591075  3.889789e+01  1.675
10666 1 -10.370961  3.962434e+01  1.675
10667 1 -12.792123  3.675157e+01  1.675
10668 1 -14.031301  3.744500e+01  1.675
10669 1 -14.050365  3.886487e+01  1.675
10670 1 -12.830252  3.959132e+01  1.675
10671 1 -15.251414  3.671855e+01  1.675
10672 1 -16.490591  3.741198e+01  1.675
10673 1 -16.509655  3.883185e+01  1.675
10674 1 -15.289542  3.955829e+01  1.675
10675 1 -17.710704  3.668553e+01  1.675
10676 1 -18.949882  3.737896e+01  1.675
10677 1 -18.968946  3.879883e+01  1.675
10678 1 -17.748833  3.952527e+01  1.675
10679 1 -20.169995  3.665251e+01  1.675
10680 1 -21.409172  3.734594e+01  1.675
10681 1 -21.428236  3.876581e+01  1.675
10682 1 -20.208123  3.949225e+01  1.675
10683 1 -22.629285  3.661949e+01  1.675
10684 1 -23.868463  3.731292e+01  1.675
10685 1 -23.887527  3.873279e+01  1.675
10686 1 -22.667414  3.945923e+01  1.675
10687 1 -25.088576  3.658647e+01  1.675
10688 1 -26.327753  3.727990e+01  1.675
10689 1 -26.346817  3.869977e+01  1.675
10690 1 -25.126704  3.942621e+01  1.675
10691 1 -27.547866  3.655345e+01  1.675
10692 1 -28.787044  3.724688e+01  1.675
10693 1 -28.806108  3.866675e+01  1.675
10694 1 -27.585995  3.939319e+01  1.675
10695 1 -30.007157  3.652043e+01  1.675
10696 1 -31.246334  3.721386e+01  1.675
10697 1 -31.265398  3.863373e+01  1.675
10698 1 -30.045285  3.936017e+01  1.675
10699 1 -32.466447  3.648741e+01  1.675
10700 1 -33.705625  3.718083e+01  1.675
10701 1 -33.724689  3.860071e+01  1.675
10702 1 -32.504576  3.932715e+01  1.675
10703 1 -34.925738  3.645439e+01  1.675
10704 1 -36.164915  3.714781e+01  1.675
10705 1 -36.183979  3.856769e+01  1.675
10706 1 -34.963866  3.929413e+01  1.675
10707 1 -37.385028  3.642137e+01  1.675
10708 1 -38.624206  3.711479e+01  1.675
10709 1 -38.643270  3.853467e+01  1.675
10710 1 -37.423157  3.926111e+01  1.675
10711 1 -39.844319  3.638835e+01  1.675
10712 1 -41.083496  3.708177e+01  1.675
10713 1 -41.102560  3.850165e+01  1.675
10714 1 -39.882447  3.922809e+01  1.675
10715 1 -42.303609  3.635533e+01  1.675
10716 1 -43.542786  3.704875e+01  1.675
10717 1 -43.561851  3.846863e+01  1.675
10718 1 -42.341738  3.919507e+01  1.675
10719 1 -44.762900  3.632231e+01  1.675
10720 1 -46.002077  3.701573e+01  1.675
10721 1 -46.021141  3.843561e+01  1.675
10722 1 -44.801028  3.916205e+01  1.675
10723 1 -47.222190  3.628929e+01  1.675
10724 1 -48.461367  3.698271e+01  1.675
10725 1 -48.480432  3.840259e+01  1.675
10726 1 -47.260319  3.912903e+01  1.675
10727 1 -49.681481  3.625627e+01  1.675
10728 1 -50.920658  3.694969e+01  1.675
10729 1 -50.939722  3.836956e+01  1.675
10730 1 -49.719609  3.909601e+01  1.675
10731 1 -52.140771  3.622325e+01  1.675
10732 1 -53.379948  3.691667e+01  1.675
10733 1 -53.399013  3.833654e+01  1.675
10734 1 -52.178900  3.906299e+01  1.675
10735 1 -54.600061  3.619023e+01  1.675
10736 1 -55.839239  3.688365e+01  1.675
10737 1 -55.858303  3.830352e+01  1.675
10738 1 -54.638190  3.902997e+01  1.675
10739 1 -57.059352  3.615721e+01  1.675
10740 1 -58.298529  3.685063e+01  1.675
10741 1 -58.317594  3.827050e+01  1.675
10742 1 -57.097481  3.899695e+01  1.675
10743 1 -59.518642  3.612419e+01  1.675
10744 1 -60.757820  3.681761e+01  1.675
10745 1 -60.776884  3.823748e+01  1.675
10746 1 -59.556771  3.896393e+01  1.675
10747 1 -61.977933  3.609117e+01  1.675
10748 1 -63.217110  3.678459e+01  1.675
10749 1 -63.236175  3.820446e+01  1.675
10750 1 -62.016061  3.893091e+01  1.675
10751 1 -64.437223  3.605815e+01  1.675
10752 1 -65.676401  3.675157e+01  1.675
10753 1 -65.695465  3.817144e+01  1.675
10754 1 -64.475352  3.889789e+01  1.675
10755 1 -66.896514  3.602512e+01  1.675
10756 1 -68.135691  3.671855e+01  1.675
10757 1 -68.154756  3.813842e+01  1.675
10758 1 -66.934642  3.886487e+01  1.675
10759 1 -69.355804  3.599210e+01  1.675
10760 1 -70.594982  3.668553e+01  1.675
10761 1 -70.614046  3.810540e+01  1.675
10762 1 -69.393933  3.883185e+01  1.675
10763 1 -71.815095  3.595908e+01  1.675
10764 1 -73.054272  3.665251e+01  1.675
10765 1 -73.073336  3.807238e+01  1.675
10766 1 -71.853223  3.879883e+01  1.675
10767 1 -74.274385  3.592606e+01  1.675
10768 1 -75.513563  3.661949e+01  1.675
10769 1 -75.532627  3.803936e+01  1.675
10770 1 -74.312514  3.876581e+01  1.675
10771 1 -76.733676  3.589304e+01  1.675
10772 1 -77.972853  3.658647e+01  1.675
10773 1 -77.991917  3.800634e+01  1.675
10774 1 -76.771804  3.873279e+01  1.675
10775 1 -79.192966  3.586002e+01  1.675
10776 1 -79.231095  3.869977e+01  1.675
10777 1  78.144432  4.223294e+01  1.675
10778 1  76.905254  4.292636e+01  1.675
10779 1  76.886190  4.434624e+01  1.675
10780 1  78.106303  4.507268e+01  1.675
10781 1  75.685141  4.219992e+01  1.675
10782 1  74.445964  4.289334e+01  1.675
10783 1  74.426899  4.431322e+01  1.675
10784 1  75.647013  4.503966e+01  1.675
10785 1  73.225851  4.216690e+01  1.675
10786 1  71.986673  4.286032e+01  1.675
10787 1  71.967609  4.428019e+01  1.675
10788 1  73.187722  4.500664e+01  1.675
10789 1  70.766560  4.213388e+01  1.675
10790 1  69.527383  4.282730e+01  1.675
10791 1  69.508319  4.424717e+01  1.675
10792 1  70.728432  4.497362e+01  1.675
10793 1  68.307270  4.210086e+01  1.675
10794 1  67.068092  4.279428e+01  1.675
10795 1  67.049028  4.421415e+01  1.675
10796 1  68.269141  4.494060e+01  1.675
10797 1  65.847979  4.206784e+01  1.675
10798 1  64.608802  4.276126e+01  1.675
10799 1  64.589738  4.418113e+01  1.675
10800 1  65.809851  4.490758e+01  1.675
10801 1  63.388689  4.203482e+01  1.675
10802 1  62.149511  4.272824e+01  1.675
10803 1  62.130447  4.414811e+01  1.675
10804 1  63.350560  4.487456e+01  1.675
10805 1  60.929398  4.200180e+01  1.675
10806 1  59.690221  4.269522e+01  1.675
10807 1  59.671157  4.411509e+01  1.675
10808 1  60.891270  4.484154e+01  1.675
10809 1  58.470108  4.196878e+01  1.675
10810 1  57.230930  4.266220e+01  1.675
10811 1  57.211866  4.408207e+01  1.675
10812 1  58.431979  4.480852e+01  1.675
10813 1  56.010817  4.193576e+01  1.675
10814 1  54.771640  4.262918e+01  1.675
10815 1  54.752576  4.404905e+01  1.675
10816 1  55.972689  4.477550e+01  1.675
10817 1  53.551527  4.190273e+01  1.675
10818 1  52.312349  4.259616e+01  1.675
10819 1  52.293285  4.401603e+01  1.675
10820 1  53.513398  4.474248e+01  1.675
10821 1  51.092236  4.186971e+01  1.675
10822 1  49.853059  4.256314e+01  1.675
10823 1  49.833995  4.398301e+01  1.675
10824 1  51.054108  4.470946e+01  1.675
10825 1  48.632946  4.183669e+01  1.675
10826 1  47.393768  4.253012e+01  1.675
10827 1  47.374704  4.394999e+01  1.675
10828 1  48.594817  4.467644e+01  1.675
10829 1  46.173655  4.180367e+01  1.675
10830 1  44.934478  4.249710e+01  1.675
10831 1  44.915414  4.391697e+01  1.675
10832 1  46.135527  4.464342e+01  1.675
10833 1  43.714365  4.177065e+01  1.675
10834 1  42.475188  4.246408e+01  1.675
10835 1  42.456123  4.388395e+01  1.675
10836 1  43.676236  4.461040e+01  1.675
10837 1  41.255074  4.173763e+01  1.675
10838 1  40.015897  4.243106e+01  1.675
10839 1  39.996833  4.385093e+01  1.675
10840 1  41.216946  4.457738e+01  1.675
10841 1  38.795784  4.170461e+01  1.675
10842 1  37.556607  4.239804e+01  1.675
10843 1  37.537542  4.381791e+01  1.675
10844 1  38.757655  4.454436e+01  1.675
10845 1  36.336493  4.167159e+01  1.675
10846 1  35.097316  4.236502e+01  1.675
10847 1  35.078252  4.378489e+01  1.675
10848 1  36.298365  4.451134e+01  1.675
10849 1  33.877203  4.163857e+01  1.675
10850 1  32.638026  4.233200e+01  1.675
10851 1  32.618961  4.375187e+01  1.675
10852 1  33.839074  4.447832e+01  1.675
10853 1  31.417912  4.160555e+01  1.675
10854 1  30.178735  4.229898e+01  1.675
10855 1  30.159671  4.371885e+01  1.675
10856 1  31.379784  4.444530e+01  1.675
10857 1  28.958622  4.157253e+01  1.675
10858 1  27.719445  4.226596e+01  1.675
10859 1  27.700380  4.368583e+01  1.675
10860 1  28.920493  4.441228e+01  1.675
10861 1  26.499332  4.153951e+01  1.675
10862 1  25.260154  4.223294e+01  1.675
10863 1  25.241090  4.365281e+01  1.675
10864 1  26.461203  4.437926e+01  1.675
10865 1  24.040041  4.150649e+01  1.675
10866 1  22.800864  4.219992e+01  1.675
10867 1  22.781799  4.361979e+01  1.675
10868 1  24.001913  4.434624e+01  1.675
10869 1  21.580751  4.147347e+01  1.675
10870 1  20.341573  4.216690e+01  1.675
10871 1  20.322509  4.358677e+01  1.675
10872 1  21.542622  4.431322e+01  1.675
10873 1  19.121460  4.144045e+01  1.675
10874 1  17.882283  4.213388e+01  1.675
10875 1  17.863218  4.355375e+01  1.675
10876 1  19.083332  4.428019e+01  1.675
10877 1  16.662170  4.140743e+01  1.675
10878 1  15.422992  4.210086e+01  1.675
10879 1  15.403928  4.352073e+01  1.675
10880 1  16.624041  4.424717e+01  1.675
10881 1  14.202879  4.137441e+01  1.675
10882 1  12.963702  4.206784e+01  1.675
10883 1  12.944637  4.348771e+01  1.675
10884 1  14.164751  4.421415e+01  1.675
10885 1  11.743589  4.134139e+01  1.675
10886 1  10.504411  4.203482e+01  1.675
10887 1  10.485347  4.345469e+01  1.675
10888 1  11.705460  4.418113e+01  1.675
10889 1   9.284298  4.130837e+01  1.675
10890 1   8.045121  4.200180e+01  1.675
10891 1   8.026057  4.342167e+01  1.675
10892 1   9.246170  4.414811e+01  1.675
10893 1   6.825008  4.127535e+01  1.675
10894 1   5.585830  4.196878e+01  1.675
10895 1   5.566766  4.338865e+01  1.675
10896 1   6.786879  4.411509e+01  1.675
10897 1   4.365717  4.124233e+01  1.675
10898 1   3.126540  4.193576e+01  1.675
10899 1   3.107476  4.335563e+01  1.675
10900 1   4.327589  4.408207e+01  1.675
10901 1   1.906427  4.120931e+01  1.675
10902 1   0.667249  4.190273e+01  1.675
10903 1   0.648185  4.332261e+01  1.675
10904 1   1.868298  4.404905e+01  1.675
10905 1  -0.552864  4.117629e+01  1.675
10906 1  -1.792041  4.186971e+01  1.675
10907 1  -1.811105  4.328959e+01  1.675
10908 1  -0.590992  4.401603e+01  1.675
10909 1  -3.012154  4.114327e+01  1.675
10910 1  -4.251332  4.183669e+01  1.675
10911 1  -4.270396  4.325657e+01  1.675
10912 1  -3.050283  4.398301e+01  1.675
10913 1  -5.471445  4.111025e+01  1.675
10914 1  -6.710622  4.180367e+01  1.675
10915 1  -6.729686  4.322355e+01  1.675
10916 1  -5.509573  4.394999e+01  1.675
10917 1  -7.930735  4.107723e+01  1.675
10918 1  -9.169913  4.177065e+01  1.675
10919 1  -9.188977  4.319053e+01  1.675
10920 1  -7.968864  4.391697e+01  1.675
10921 1 -10.390026  4.104421e+01  1.675
10922 1 -11.629203  4.173763e+01  1.675
10923 1 -11.648267  4.315751e+01  1.675
10924 1 -10.428154  4.388395e+01  1.675
10925 1 -12.849316  4.101119e+01  1.675
10926 1 -14.088494  4.170461e+01  1.675
10927 1 -14.107558  4.312449e+01  1.675
10928 1 -12.887445  4.385093e+01  1.675
10929 1 -15.308607  4.097817e+01  1.675
10930 1 -16.547784  4.167159e+01  1.675
10931 1 -16.566848  4.309146e+01  1.675
10932 1 -15.346735  4.381791e+01  1.675
10933 1 -17.767897  4.094515e+01  1.675
10934 1 -19.007074  4.163857e+01  1.675
10935 1 -19.026139  4.305844e+01  1.675
10936 1 -17.806026  4.378489e+01  1.675
10937 1 -20.227188  4.091213e+01  1.675
10938 1 -21.466365  4.160555e+01  1.675
10939 1 -21.485429  4.302542e+01  1.675
10940 1 -20.265316  4.375187e+01  1.675
10941 1 -22.686478  4.087911e+01  1.675
10942 1 -23.925655  4.157253e+01  1.675
10943 1 -23.944720  4.299240e+01  1.675
10944 1 -22.724607  4.371885e+01  1.675
10945 1 -25.145769  4.084609e+01  1.675
10946 1 -26.384946  4.153951e+01  1.675
10947 1 -26.404010  4.295938e+01  1.675
10948 1 -25.183897  4.368583e+01  1.675
10949 1 -27.605059  4.081307e+01  1.675
10950 1 -28.844236  4.150649e+01  1.675
10951 1 -28.863301  4.292636e+01  1.675
10952 1 -27.643188  4.365281e+01  1.675
10953 1 -30.064350  4.078005e+01  1.675
10954 1 -31.303527  4.147347e+01  1.675
10955 1 -31.322591  4.289334e+01  1.675
10956 1 -30.102478  4.361979e+01  1.675
10957 1 -32.523640  4.074702e+01  1.675
10958 1 -33.762817  4.144045e+01  1.675
10959 1 -33.781882  4.286032e+01  1.675
10960 1 -32.561769  4.358677e+01  1.675
10961 1 -34.982930  4.071400e+01  1.675
10962 1 -36.222108  4.140743e+01  1.675
10963 1 -36.241172  4.282730e+01  1.675
10964 1 -35.021059  4.355375e+01  1.675
10965 1 -37.442221  4.068098e+01  1.675
10966 1 -38.681398  4.137441e+01  1.675
10967 1 -38.700463  4.279428e+01  1.675
10968 1 -37.480349  4.352073e+01  1.675
10969 1 -39.901511  4.064796e+01  1.675
10970 1 -41.140689  4.134139e+01  1.675
10971 1 -41.159753  4.276126e+01  1.675
10972 1 -39.939640  4.348771e+01  1.675
10973 1 -42.360802  4.061494e+01  1.675
10974 1 -43.599979  4.130837e+01  1.675
10975 1 -43.619044  4.272824e+01  1.675
10976 1 -42.398930  4.345469e+01  1.675
10977 1 -44.820092  4.058192e+01  1.675
10978 1 -46.059270  4.127535e+01  1.675
10979 1 -46.078334  4.269522e+01  1.675
10980 1 -44.858221  4.342167e+01  1.675
10981 1 -47.279383  4.054890e+01  1.675
10982 1 -48.518560  4.124233e+01  1.675
10983 1 -48.537624  4.266220e+01  1.675
10984 1 -47.317511  4.338865e+01  1.675
10985 1 -49.738673  4.051588e+01  1.675
10986 1 -50.977851  4.120931e+01  1.675
10987 1 -50.996915  4.262918e+01  1.675
10988 1 -49.776802  4.335563e+01  1.675
10989 1 -52.197964  4.048286e+01  1.675
10990 1 -53.437141  4.117629e+01  1.675
10991 1 -53.456205  4.259616e+01  1.675
10992 1 -52.236092  4.332261e+01  1.675
10993 1 -54.657254  4.044984e+01  1.675
10994 1 -55.896432  4.114327e+01  1.675
10995 1 -55.915496  4.256314e+01  1.675
10996 1 -54.695383  4.328959e+01  1.675
10997 1 -57.116545  4.041682e+01  1.675
10998 1 -58.355722  4.111025e+01  1.675
10999 1 -58.374786  4.253012e+01  1.675
11000 1 -57.154673  4.325657e+01  1.675
11001 1 -59.575835  4.038380e+01  1.675
11002 1 -60.815013  4.107723e+01  1.675
11003 1 -60.834077  4.249710e+01  1.675
11004 1 -59.613964  4.322355e+01  1.675
11005 1 -62.035126  4.035078e+01  1.675
11006 1 -63.274303  4.104421e+01  1.675
11007 1 -63.293367  4.246408e+01  1.675
11008 1 -62.073254  4.319053e+01  1.675
11009 1 -64.494416  4.031776e+01  1.675
11010 1 -65.733594  4.101119e+01  1.675
11011 1 -65.752658  4.243106e+01  1.675
11012 1 -64.532545  4.315751e+01  1.675
11013 1 -66.953707  4.028474e+01  1.675
11014 1 -68.192884  4.097817e+01  1.675
11015 1 -68.211948  4.239804e+01  1.675
11016 1 -66.991835  4.312449e+01  1.675
11017 1 -69.412997  4.025172e+01  1.675
11018 1 -70.652175  4.094515e+01  1.675
11019 1 -70.671239  4.236502e+01  1.675
11020 1 -69.451126  4.309146e+01  1.675
11021 1 -71.872288  4.021870e+01  1.675
11022 1 -73.111465  4.091213e+01  1.675
11023 1 -73.130529  4.233200e+01  1.675
11024 1 -71.910416  4.305844e+01  1.675
11025 1 -74.331578  4.018568e+01  1.675
11026 1 -75.570756  4.087911e+01  1.675
11027 1 -75.589820  4.229898e+01  1.675
11028 1 -74.369707  4.302542e+01  1.675
11029 1 -76.790869  4.015266e+01  1.675
11030 1 -78.030046  4.084609e+01  1.675
11031 1 -78.049110  4.226596e+01  1.675
11032 1 -76.828997  4.299240e+01  1.675
11033 1 -79.250159  4.011964e+01  1.675
11034 1 -79.288288  4.295938e+01  1.675
11035 1  26.442139  4.579913e+01  1.675
11036 1  23.982848  4.576611e+01  1.675
11037 1  21.523558  4.573309e+01  1.675
11038 1  19.064267  4.570007e+01  1.675
11039 1  16.604977  4.566705e+01  1.675
11040 1  14.145686  4.563403e+01  1.675
11041 1  11.686396  4.560101e+01  1.675
11042 1   9.227105  4.556799e+01  1.675
11043 1   6.767815  4.553497e+01  1.675
11044 1   4.308524  4.550195e+01  1.675
11045 1   1.849234  4.546892e+01  1.675
11046 1  -0.610057  4.543590e+01  1.675
11047 1  -3.069347  4.540288e+01  1.675
11048 1  -5.528638  4.536986e+01  1.675
11049 1  -7.987928  4.533684e+01  1.675
11050 1 -10.447218  4.530382e+01  1.675
11051 1 -12.906509  4.527080e+01  1.675
11052 1 -15.365799  4.523778e+01  1.675
11053 1 -17.825090  4.520476e+01  1.675
11054 1 -20.284380  4.517174e+01  1.675
11055 1 -22.743671  4.513872e+01  1.675
11056 1 -25.202961  4.510570e+01  1.675
11057 1 -26.442139  4.579913e+01  1.675
11058 1 -27.662252  4.507268e+01  1.675
11059 1 -28.901429  4.576611e+01  1.675
11060 1 -30.121542  4.503966e+01  1.675
11061 1 -31.360720  4.573309e+01  1.675
11062 1 -32.580833  4.500664e+01  1.675
11063 1 -33.820010  4.570007e+01  1.675
11064 1 -35.040123  4.497362e+01  1.675
11065 1 -36.279301  4.566705e+01  1.675
11066 1 -37.499414  4.494060e+01  1.675
11067 1 -38.738591  4.563403e+01  1.675
11068 1 -39.958704  4.490758e+01  1.675
11069 1 -41.197882  4.560101e+01  1.675
11070 1 -42.417995  4.487456e+01  1.675
11071 1 -43.657172  4.556799e+01  1.675
11072 1 -44.877285  4.484154e+01  1.675
11073 1 -46.116463  4.553497e+01  1.675
11074 1 -47.336576  4.480852e+01  1.675
11075 1 -48.575753  4.550195e+01  1.675
11076 1 -49.795866  4.477550e+01  1.675
11077 1 -51.035044  4.546892e+01  1.675
11078 1 -52.255157  4.474248e+01  1.675
11079 1 -53.494334  4.543590e+01  1.675
11080 1 -54.714447  4.470946e+01  1.675
11081 1 -55.953624  4.540288e+01  1.675
11082 1 -57.173738  4.467644e+01  1.675
11083 1 -58.412915  4.536986e+01  1.675
11084 1 -59.633028  4.464342e+01  1.675
11085 1 -60.872205  4.533684e+01  1.675
11086 1 -62.092319  4.461040e+01  1.675
11087 1 -63.331496  4.530382e+01  1.675
11088 1 -64.551609  4.457738e+01  1.675
11089 1 -65.790786  4.527080e+01  1.675
11090 1 -67.010899  4.454436e+01  1.675
11091 1 -68.250077  4.523778e+01  1.675
11092 1 -69.470190  4.451134e+01  1.675
11093 1 -70.709367  4.520476e+01  1.675
11094 1 -71.929480  4.447832e+01  1.675
11095 1 -73.168658  4.517174e+01  1.675
11096 1 -74.388771  4.444530e+01  1.675
11097 1 -75.627948  4.513872e+01  1.675
11098 1 -76.848061  4.441228e+01  1.675
11099 1 -78.087239  4.510570e+01  1.675
11100 1 -79.307352  4.437926e+01  1.675