# Lorenzo Manunza 14th April 2025

22332 atoms
1 atom types

-112.52772 112.52772 xlo xhi
-64.96791 64.96791 ylo yhi
-10001.67500 9998.32500 zlo zhi

Masses

1 12.011 # C

Atoms

    1 1  111.304739 -6.424630e+01 -1.675
    2 1  108.845337 -6.422303e+01 -1.675
    3 1  110.081758 -6.352470e+01 -1.675
    4 1  106.385935 -6.419975e+01 -1.675
    5 1  107.622356 -6.350142e+01 -1.675
    6 1  103.926533 -6.417647e+01 -1.675
    7 1  105.162954 -6.347814e+01 -1.675
    8 1  101.467131 -6.415319e+01 -1.675
    9 1  102.703552 -6.345486e+01 -1.675
   10 1   99.007729 -6.412991e+01 -1.675
   11 1  100.244150 -6.343159e+01 -1.675
   12 1   96.548327 -6.410664e+01 -1.675
   13 1   97.784748 -6.340831e+01 -1.675
   14 1   94.088925 -6.408336e+01 -1.675
   15 1   95.325346 -6.338503e+01 -1.675
   16 1   91.629523 -6.406008e+01 -1.675
   17 1   92.865944 -6.336175e+01 -1.675
   18 1   89.170121 -6.403680e+01 -1.675
   19 1   90.406542 -6.333847e+01 -1.675
   20 1   86.710719 -6.401353e+01 -1.675
   21 1   87.947140 -6.331520e+01 -1.675
   22 1   84.251317 -6.399025e+01 -1.675
   23 1   85.487738 -6.329192e+01 -1.675
   24 1   81.791915 -6.396697e+01 -1.675
   25 1   83.028336 -6.326864e+01 -1.675
   26 1   79.332513 -6.394369e+01 -1.675
   27 1   80.568934 -6.324536e+01 -1.675
   28 1   76.873111 -6.392042e+01 -1.675
   29 1   78.109532 -6.322209e+01 -1.675
   30 1   74.413709 -6.389714e+01 -1.675
   31 1   75.650130 -6.319881e+01 -1.675
   32 1   71.954307 -6.387386e+01 -1.675
   33 1   73.190728 -6.317553e+01 -1.675
   34 1   69.494905 -6.385058e+01 -1.675
   35 1   70.731326 -6.315225e+01 -1.675
   36 1   67.035503 -6.382731e+01 -1.675
   37 1   68.271924 -6.312898e+01 -1.675
   38 1   64.576101 -6.380403e+01 -1.675
   39 1   65.812522 -6.310570e+01 -1.675
   40 1   62.116699 -6.378075e+01 -1.675
   41 1   63.353120 -6.308242e+01 -1.675
   42 1   59.657297 -6.375747e+01 -1.675
   43 1   60.893718 -6.305914e+01 -1.675
   44 1   57.197895 -6.373419e+01 -1.675
   45 1   58.434316 -6.303587e+01 -1.675
   46 1   54.738493 -6.371092e+01 -1.675
   47 1   55.974914 -6.301259e+01 -1.675
   48 1   52.279091 -6.368764e+01 -1.675
   49 1   53.515512 -6.298931e+01 -1.675
   50 1   49.819690 -6.366436e+01 -1.675
   51 1   51.056110 -6.296603e+01 -1.675
   52 1   47.360288 -6.364108e+01 -1.675
   53 1   48.596708 -6.294275e+01 -1.675
   54 1   44.900886 -6.361781e+01 -1.675
   55 1   46.137306 -6.291948e+01 -1.675
   56 1   42.441484 -6.359453e+01 -1.675
   57 1   43.677904 -6.289620e+01 -1.675
   58 1   39.982082 -6.357125e+01 -1.675
   59 1   41.218502 -6.287292e+01 -1.675
   60 1   37.509240 -6.496791e+01 -1.675
   61 1   37.522680 -6.354797e+01 -1.675
   62 1   38.759100 -6.284964e+01 -1.675
   63 1   35.049838 -6.494463e+01 -1.675
   64 1   35.063278 -6.352470e+01 -1.675
   65 1   36.299698 -6.282637e+01 -1.675
   66 1   32.590436 -6.492135e+01 -1.675
   67 1   32.603876 -6.350142e+01 -1.675
   68 1   33.840296 -6.280309e+01 -1.675
   69 1   30.131034 -6.489808e+01 -1.675
   70 1   30.144474 -6.347814e+01 -1.675
   71 1   31.380894 -6.277981e+01 -1.675
   72 1   27.671632 -6.487480e+01 -1.675
   73 1   27.685072 -6.345486e+01 -1.675
   74 1   28.921492 -6.275653e+01 -1.675
   75 1   25.212230 -6.485152e+01 -1.675
   76 1   25.225670 -6.343159e+01 -1.675
   77 1   26.462090 -6.273326e+01 -1.675
   78 1   22.752828 -6.482824e+01 -1.675
   79 1   22.766268 -6.340831e+01 -1.675
   80 1   24.002688 -6.270998e+01 -1.675
   81 1   20.293426 -6.480497e+01 -1.675
   82 1   20.306866 -6.338503e+01 -1.675
   83 1   21.543286 -6.268670e+01 -1.675
   84 1   17.834024 -6.478169e+01 -1.675
   85 1   17.847464 -6.336175e+01 -1.675
   86 1   19.083884 -6.266342e+01 -1.675
   87 1   15.374622 -6.475841e+01 -1.675
   88 1   15.388062 -6.333847e+01 -1.675
   89 1   16.624482 -6.264015e+01 -1.675
   90 1   12.915220 -6.473513e+01 -1.675
   91 1   12.928660 -6.331520e+01 -1.675
   92 1   14.165080 -6.261687e+01 -1.675
   93 1   10.455818 -6.471186e+01 -1.675
   94 1   10.469258 -6.329192e+01 -1.675
   95 1   11.705678 -6.259359e+01 -1.675
   96 1    7.996416 -6.468858e+01 -1.675
   97 1    8.009856 -6.326864e+01 -1.675
   98 1    9.246276 -6.257031e+01 -1.675
   99 1    5.537014 -6.466530e+01 -1.675
  100 1    5.550454 -6.324536e+01 -1.675
  101 1    6.786874 -6.254703e+01 -1.675
  102 1    3.077612 -6.464202e+01 -1.675
  103 1    3.091052 -6.322209e+01 -1.675
  104 1    4.327472 -6.252376e+01 -1.675
  105 1    0.618210 -6.461875e+01 -1.675
  106 1    0.631650 -6.319881e+01 -1.675
  107 1    1.868070 -6.250048e+01 -1.675
  108 1   -1.841192 -6.459547e+01 -1.675
  109 1   -1.827752 -6.317553e+01 -1.675
  110 1   -0.591332 -6.247720e+01 -1.675
  111 1   -4.300594 -6.457219e+01 -1.675
  112 1   -4.287154 -6.315225e+01 -1.675
  113 1   -3.050734 -6.245392e+01 -1.675
  114 1   -6.759996 -6.454891e+01 -1.675
  115 1   -6.746556 -6.312898e+01 -1.675
  116 1   -5.510136 -6.243065e+01 -1.675
  117 1   -9.219398 -6.452563e+01 -1.675
  118 1   -9.205958 -6.310570e+01 -1.675
  119 1   -7.969538 -6.240737e+01 -1.675
  120 1  -11.678800 -6.450236e+01 -1.675
  121 1  -11.665360 -6.308242e+01 -1.675
  122 1  -10.428940 -6.238409e+01 -1.675
  123 1  -14.138202 -6.447908e+01 -1.675
  124 1  -14.124762 -6.305914e+01 -1.675
  125 1  -12.888342 -6.236081e+01 -1.675
  126 1  -16.597604 -6.445580e+01 -1.675
  127 1  -16.584164 -6.303587e+01 -1.675
  128 1  -15.347744 -6.233754e+01 -1.675
  129 1  -19.057006 -6.443252e+01 -1.675
  130 1  -19.043566 -6.301259e+01 -1.675
  131 1  -17.807146 -6.231426e+01 -1.675
  132 1  -21.516408 -6.440925e+01 -1.675
  133 1  -21.502968 -6.298931e+01 -1.675
  134 1  -20.266548 -6.229098e+01 -1.675
  135 1  -23.975810 -6.438597e+01 -1.675
  136 1  -23.962370 -6.296603e+01 -1.675
  137 1  -22.725950 -6.226770e+01 -1.675
  138 1  -26.435212 -6.436269e+01 -1.675
  139 1  -26.421772 -6.294275e+01 -1.675
  140 1  -25.185352 -6.224443e+01 -1.675
  141 1  -28.894614 -6.433941e+01 -1.675
  142 1  -28.881174 -6.291948e+01 -1.675
  143 1  -27.644754 -6.222115e+01 -1.675
  144 1  -31.354016 -6.431614e+01 -1.675
  145 1  -31.340576 -6.289620e+01 -1.675
  146 1  -30.104156 -6.219787e+01 -1.675
  147 1  -33.813418 -6.429286e+01 -1.675
  148 1  -33.799978 -6.287292e+01 -1.675
  149 1  -32.563558 -6.217459e+01 -1.675
  150 1  -36.272820 -6.426958e+01 -1.675
  151 1  -36.259380 -6.284964e+01 -1.675
  152 1  -35.022959 -6.215131e+01 -1.675
  153 1  -37.509240 -6.496791e+01 -1.675
  154 1  -38.732222 -6.424630e+01 -1.675
  155 1  -38.718782 -6.282637e+01 -1.675
  156 1  -37.482361 -6.212804e+01 -1.675
  157 1  -39.968642 -6.494463e+01 -1.675
  158 1  -41.191624 -6.422303e+01 -1.675
  159 1  -41.178184 -6.280309e+01 -1.675
  160 1  -39.941763 -6.210476e+01 -1.675
  161 1  -42.428044 -6.492135e+01 -1.675
  162 1  -43.651025 -6.419975e+01 -1.675
  163 1  -43.637586 -6.277981e+01 -1.675
  164 1  -42.401165 -6.208148e+01 -1.675
  165 1  -44.887446 -6.489808e+01 -1.675
  166 1  -46.110427 -6.417647e+01 -1.675
  167 1  -46.096988 -6.275653e+01 -1.675
  168 1  -44.860567 -6.205820e+01 -1.675
  169 1  -47.346848 -6.487480e+01 -1.675
  170 1  -48.569829 -6.415319e+01 -1.675
  171 1  -48.556390 -6.273326e+01 -1.675
  172 1  -47.319969 -6.203493e+01 -1.675
  173 1  -49.806250 -6.485152e+01 -1.675
  174 1  -51.029231 -6.412991e+01 -1.675
  175 1  -51.015792 -6.270998e+01 -1.675
  176 1  -49.779371 -6.201165e+01 -1.675
  177 1  -52.265652 -6.482824e+01 -1.675
  178 1  -53.488633 -6.410664e+01 -1.675
  179 1  -53.475194 -6.268670e+01 -1.675
  180 1  -52.238773 -6.198837e+01 -1.675
  181 1  -54.725054 -6.480497e+01 -1.675
  182 1  -55.948035 -6.408336e+01 -1.675
  183 1  -55.934596 -6.266342e+01 -1.675
  184 1  -54.698175 -6.196509e+01 -1.675
  185 1  -57.184456 -6.478169e+01 -1.675
  186 1  -58.407437 -6.406008e+01 -1.675
  187 1  -58.393998 -6.264015e+01 -1.675
  188 1  -57.157577 -6.194182e+01 -1.675
  189 1  -59.643858 -6.475841e+01 -1.675
  190 1  -60.866839 -6.403680e+01 -1.675
  191 1  -60.853400 -6.261687e+01 -1.675
  192 1  -59.616979 -6.191854e+01 -1.675
  193 1  -62.103260 -6.473513e+01 -1.675
  194 1  -63.326241 -6.401353e+01 -1.675
  195 1  -63.312802 -6.259359e+01 -1.675
  196 1  -62.076381 -6.189526e+01 -1.675
  197 1  -64.562662 -6.471186e+01 -1.675
  198 1  -65.785643 -6.399025e+01 -1.675
  199 1  -65.772204 -6.257031e+01 -1.675
  200 1  -64.535783 -6.187198e+01 -1.675
  201 1  -67.022064 -6.468858e+01 -1.675
  202 1  -68.245045 -6.396697e+01 -1.675
  203 1  -68.231606 -6.254703e+01 -1.675
  204 1  -66.995185 -6.184871e+01 -1.675
  205 1  -69.481466 -6.466530e+01 -1.675
  206 1  -70.704447 -6.394369e+01 -1.675
  207 1  -70.691008 -6.252376e+01 -1.675
  208 1  -69.454587 -6.182543e+01 -1.675
  209 1  -71.940868 -6.464202e+01 -1.675
  210 1  -73.163849 -6.392042e+01 -1.675
  211 1  -73.150410 -6.250048e+01 -1.675
  212 1  -71.913989 -6.180215e+01 -1.675
  213 1  -74.400270 -6.461875e+01 -1.675
  214 1  -75.623251 -6.389714e+01 -1.675
  215 1  -75.609812 -6.247720e+01 -1.675
  216 1  -74.373391 -6.177887e+01 -1.675
  217 1  -76.859672 -6.459547e+01 -1.675
  218 1  -78.082653 -6.387386e+01 -1.675
  219 1  -78.069214 -6.245392e+01 -1.675
  220 1  -76.832793 -6.175559e+01 -1.675
  221 1  -79.319074 -6.457219e+01 -1.675
  222 1  -80.542055 -6.385058e+01 -1.675
  223 1  -80.528616 -6.243065e+01 -1.675
  224 1  -79.292195 -6.173232e+01 -1.675
  225 1  -81.778476 -6.454891e+01 -1.675
  226 1  -83.001457 -6.382731e+01 -1.675
  227 1  -82.988018 -6.240737e+01 -1.675
  228 1  -81.751597 -6.170904e+01 -1.675
  229 1  -84.237878 -6.452563e+01 -1.675
  230 1  -85.460859 -6.380403e+01 -1.675
  231 1  -85.447420 -6.238409e+01 -1.675
  232 1  -84.210999 -6.168576e+01 -1.675
  233 1  -86.697280 -6.450236e+01 -1.675
  234 1  -87.920261 -6.378075e+01 -1.675
  235 1  -87.906822 -6.236081e+01 -1.675
  236 1  -86.670401 -6.166248e+01 -1.675
  237 1  -89.156682 -6.447908e+01 -1.675
  238 1  -90.379663 -6.375747e+01 -1.675
  239 1  -90.366224 -6.233754e+01 -1.675
  240 1  -89.129803 -6.163921e+01 -1.675
  241 1  -91.616084 -6.445580e+01 -1.675
  242 1  -92.839065 -6.373419e+01 -1.675
  243 1  -92.825626 -6.231426e+01 -1.675
  244 1  -91.589205 -6.161593e+01 -1.675
  245 1  -94.075486 -6.443252e+01 -1.675
  246 1  -95.298467 -6.371092e+01 -1.675
  247 1  -95.285028 -6.229098e+01 -1.675
  248 1  -94.048607 -6.159265e+01 -1.675
  249 1  -96.534888 -6.440925e+01 -1.675
  250 1  -97.757869 -6.368764e+01 -1.675
  251 1  -97.744430 -6.226770e+01 -1.675
  252 1  -96.508009 -6.156937e+01 -1.675
  253 1  -98.994290 -6.438597e+01 -1.675
  254 1 -100.217271 -6.366436e+01 -1.675
  255 1 -100.203832 -6.224443e+01 -1.675
  256 1  -98.967411 -6.154610e+01 -1.675
  257 1 -101.453692 -6.436269e+01 -1.675
  258 1 -102.676673 -6.364108e+01 -1.675
  259 1 -102.663234 -6.222115e+01 -1.675
  260 1 -101.426813 -6.152282e+01 -1.675
  261 1 -103.913094 -6.433941e+01 -1.675
  262 1 -105.136075 -6.361781e+01 -1.675
  263 1 -105.122636 -6.219787e+01 -1.675
  264 1 -103.886215 -6.149954e+01 -1.675
  265 1 -106.372496 -6.431614e+01 -1.675
  266 1 -107.595477 -6.359453e+01 -1.675
  267 1 -107.582038 -6.217459e+01 -1.675
  268 1 -106.345617 -6.147626e+01 -1.675
  269 1 -108.831898 -6.429286e+01 -1.675
  270 1 -110.054879 -6.357125e+01 -1.675
  271 1 -110.041440 -6.215131e+01 -1.675
  272 1 -108.805019 -6.145299e+01 -1.675
  273 1 -111.291300 -6.426958e+01 -1.675
  274 1 -112.514281 -6.354797e+01 -1.675
  275 1 -112.500842 -6.212804e+01 -1.675
  276 1 -111.264421 -6.142971e+01 -1.675
  277 1  111.331618 -6.140643e+01 -1.675
  278 1  111.345057 -5.998649e+01 -1.675
  279 1  110.095197 -6.210476e+01 -1.675
  280 1  108.872216 -6.138315e+01 -1.675
  281 1  108.885655 -5.996322e+01 -1.675
  282 1  110.122076 -5.926489e+01 -1.675
  283 1  107.635795 -6.208148e+01 -1.675
  284 1  106.412814 -6.135987e+01 -1.675
  285 1  106.426253 -5.993994e+01 -1.675
  286 1  107.662674 -5.924161e+01 -1.675
  287 1  105.176393 -6.205820e+01 -1.675
  288 1  103.953412 -6.133660e+01 -1.675
  289 1  103.966851 -5.991666e+01 -1.675
  290 1  105.203272 -5.921833e+01 -1.675
  291 1  102.716991 -6.203493e+01 -1.675
  292 1  101.494010 -6.131332e+01 -1.675
  293 1  101.507449 -5.989338e+01 -1.675
  294 1  102.743870 -5.919505e+01 -1.675
  295 1  100.257589 -6.201165e+01 -1.675
  296 1   99.034608 -6.129004e+01 -1.675
  297 1   99.048047 -5.987011e+01 -1.675
  298 1  100.284468 -5.917178e+01 -1.675
  299 1   97.798187 -6.198837e+01 -1.675
  300 1   96.575206 -6.126676e+01 -1.675
  301 1   96.588645 -5.984683e+01 -1.675
  302 1   97.825066 -5.914850e+01 -1.675
  303 1   95.338785 -6.196509e+01 -1.675
  304 1   94.115804 -6.124349e+01 -1.675
  305 1   94.129243 -5.982355e+01 -1.675
  306 1   95.365664 -5.912522e+01 -1.675
  307 1   92.879383 -6.194182e+01 -1.675
  308 1   91.656402 -6.122021e+01 -1.675
  309 1   91.669841 -5.980027e+01 -1.675
  310 1   92.906262 -5.910194e+01 -1.675
  311 1   90.419981 -6.191854e+01 -1.675
  312 1   89.197000 -6.119693e+01 -1.675
  313 1   89.210439 -5.977699e+01 -1.675
  314 1   90.446860 -5.907867e+01 -1.675
  315 1   87.960579 -6.189526e+01 -1.675
  316 1   86.737598 -6.117365e+01 -1.675
  317 1   86.751037 -5.975372e+01 -1.675
  318 1   87.987458 -5.905539e+01 -1.675
  319 1   85.501177 -6.187198e+01 -1.675
  320 1   84.278196 -6.115038e+01 -1.675
  321 1   84.291635 -5.973044e+01 -1.675
  322 1   85.528056 -5.903211e+01 -1.675
  323 1   83.041775 -6.184871e+01 -1.675
  324 1   81.818794 -6.112710e+01 -1.675
  325 1   81.832233 -5.970716e+01 -1.675
  326 1   83.068654 -5.900883e+01 -1.675
  327 1   80.582373 -6.182543e+01 -1.675
  328 1   79.359392 -6.110382e+01 -1.675
  329 1   79.372831 -5.968388e+01 -1.675
  330 1   80.609252 -5.898555e+01 -1.675
  331 1   78.122971 -6.180215e+01 -1.675
  332 1   76.899990 -6.108054e+01 -1.675
  333 1   76.913429 -5.966061e+01 -1.675
  334 1   78.149850 -5.896228e+01 -1.675
  335 1   75.663569 -6.177887e+01 -1.675
  336 1   74.440588 -6.105727e+01 -1.675
  337 1   74.454027 -5.963733e+01 -1.675
  338 1   75.690448 -5.893900e+01 -1.675
  339 1   73.204167 -6.175559e+01 -1.675
  340 1   71.981186 -6.103399e+01 -1.675
  341 1   71.994625 -5.961405e+01 -1.675
  342 1   73.231046 -5.891572e+01 -1.675
  343 1   70.744765 -6.173232e+01 -1.675
  344 1   69.521784 -6.101071e+01 -1.675
  345 1   69.535223 -5.959077e+01 -1.675
  346 1   70.771644 -5.889244e+01 -1.675
  347 1   68.285363 -6.170904e+01 -1.675
  348 1   67.062382 -6.098743e+01 -1.675
  349 1   67.075822 -5.956750e+01 -1.675
  350 1   68.312242 -5.886917e+01 -1.675
  351 1   65.825961 -6.168576e+01 -1.675
  352 1   64.602980 -6.096415e+01 -1.675
  353 1   64.616420 -5.954422e+01 -1.675
  354 1   65.852840 -5.884589e+01 -1.675
  355 1   63.366559 -6.166248e+01 -1.675
  356 1   62.143578 -6.094088e+01 -1.675
  357 1   62.157018 -5.952094e+01 -1.675
  358 1   63.393438 -5.882261e+01 -1.675
  359 1   60.907157 -6.163921e+01 -1.675
  360 1   59.684176 -6.091760e+01 -1.675
  361 1   59.697616 -5.949766e+01 -1.675
  362 1   60.934036 -5.879933e+01 -1.675
  363 1   58.447756 -6.161593e+01 -1.675
  364 1   57.224774 -6.089432e+01 -1.675
  365 1   57.238214 -5.947439e+01 -1.675
  366 1   58.474634 -5.877606e+01 -1.675
  367 1   55.988354 -6.159265e+01 -1.675
  368 1   54.765372 -6.087104e+01 -1.675
  369 1   54.778812 -5.945111e+01 -1.675
  370 1   56.015232 -5.875278e+01 -1.675
  371 1   53.528952 -6.156937e+01 -1.675
  372 1   52.305970 -6.084777e+01 -1.675
  373 1   52.319410 -5.942783e+01 -1.675
  374 1   53.555830 -5.872950e+01 -1.675
  375 1   51.069550 -6.154610e+01 -1.675
  376 1   49.846568 -6.082449e+01 -1.675
  377 1   49.860008 -5.940455e+01 -1.675
  378 1   51.096428 -5.870622e+01 -1.675
  379 1   48.610148 -6.152282e+01 -1.675
  380 1   47.387166 -6.080121e+01 -1.675
  381 1   47.400606 -5.938127e+01 -1.675
  382 1   48.637026 -5.868295e+01 -1.675
  383 1   46.150746 -6.149954e+01 -1.675
  384 1   44.927764 -6.077793e+01 -1.675
  385 1   44.941204 -5.935800e+01 -1.675
  386 1   46.177624 -5.865967e+01 -1.675
  387 1   43.691344 -6.147626e+01 -1.675
  388 1   42.468362 -6.075466e+01 -1.675
  389 1   42.481802 -5.933472e+01 -1.675
  390 1   43.718222 -5.863639e+01 -1.675
  391 1   41.231942 -6.145299e+01 -1.675
  392 1   40.008960 -6.073138e+01 -1.675
  393 1   40.022400 -5.931144e+01 -1.675
  394 1   41.258820 -5.861311e+01 -1.675
  395 1   38.772540 -6.142971e+01 -1.675
  396 1   37.549558 -6.070810e+01 -1.675
  397 1   37.562998 -5.928816e+01 -1.675
  398 1   38.799418 -5.858983e+01 -1.675
  399 1   36.313138 -6.140643e+01 -1.675
  400 1   35.090156 -6.068482e+01 -1.675
  401 1   35.103596 -5.926489e+01 -1.675
  402 1   36.340016 -5.856656e+01 -1.675
  403 1   33.853736 -6.138315e+01 -1.675
  404 1   32.630754 -6.066155e+01 -1.675
  405 1   32.644194 -5.924161e+01 -1.675
  406 1   33.880614 -5.854328e+01 -1.675
  407 1   31.394334 -6.135987e+01 -1.675
  408 1   30.171352 -6.063827e+01 -1.675
  409 1   30.184792 -5.921833e+01 -1.675
  410 1   31.421212 -5.852000e+01 -1.675
  411 1   28.934932 -6.133660e+01 -1.675
  412 1   27.711950 -6.061499e+01 -1.675
  413 1   27.725390 -5.919505e+01 -1.675
  414 1   28.961810 -5.849672e+01 -1.675
  415 1   26.475530 -6.131332e+01 -1.675
  416 1   25.252548 -6.059171e+01 -1.675
  417 1   25.265988 -5.917178e+01 -1.675
  418 1   26.502408 -5.847345e+01 -1.675
  419 1   24.016128 -6.129004e+01 -1.675
  420 1   22.793146 -6.056843e+01 -1.675
  421 1   22.806586 -5.914850e+01 -1.675
  422 1   24.043006 -5.845017e+01 -1.675
  423 1   21.556726 -6.126676e+01 -1.675
  424 1   20.333744 -6.054516e+01 -1.675
  425 1   20.347184 -5.912522e+01 -1.675
  426 1   21.583604 -5.842689e+01 -1.675
  427 1   19.097324 -6.124349e+01 -1.675
  428 1   17.874342 -6.052188e+01 -1.675
  429 1   17.887782 -5.910194e+01 -1.675
  430 1   19.124202 -5.840361e+01 -1.675
  431 1   16.637922 -6.122021e+01 -1.675
  432 1   15.414940 -6.049860e+01 -1.675
  433 1   15.428380 -5.907867e+01 -1.675
  434 1   16.664800 -5.838034e+01 -1.675
  435 1   14.178520 -6.119693e+01 -1.675
  436 1   12.955538 -6.047532e+01 -1.675
  437 1   12.968978 -5.905539e+01 -1.675
  438 1   14.205398 -5.835706e+01 -1.675
  439 1   11.719118 -6.117365e+01 -1.675
  440 1   10.496136 -6.045205e+01 -1.675
  441 1   10.509576 -5.903211e+01 -1.675
  442 1   11.745996 -5.833378e+01 -1.675
  443 1    9.259716 -6.115038e+01 -1.675
  444 1    8.036734 -6.042877e+01 -1.675
  445 1    8.050174 -5.900883e+01 -1.675
  446 1    9.286594 -5.831050e+01 -1.675
  447 1    6.800314 -6.112710e+01 -1.675
  448 1    5.577332 -6.040549e+01 -1.675
  449 1    5.590772 -5.898555e+01 -1.675
  450 1    6.827192 -5.828723e+01 -1.675
  451 1    4.340912 -6.110382e+01 -1.675
  452 1    3.117930 -6.038221e+01 -1.675
  453 1    3.131370 -5.896228e+01 -1.675
  454 1    4.367790 -5.826395e+01 -1.675
  455 1    1.881510 -6.108054e+01 -1.675
  456 1    0.658528 -6.035894e+01 -1.675
  457 1    0.671968 -5.893900e+01 -1.675
  458 1    1.908388 -5.824067e+01 -1.675
  459 1   -0.577892 -6.105727e+01 -1.675
  460 1   -1.800874 -6.033566e+01 -1.675
  461 1   -1.787434 -5.891572e+01 -1.675
  462 1   -0.551014 -5.821739e+01 -1.675
  463 1   -3.037294 -6.103399e+01 -1.675
  464 1   -4.260276 -6.031238e+01 -1.675
  465 1   -4.246836 -5.889244e+01 -1.675
  466 1   -3.010416 -5.819411e+01 -1.675
  467 1   -5.496696 -6.101071e+01 -1.675
  468 1   -6.719678 -6.028910e+01 -1.675
  469 1   -6.706238 -5.886917e+01 -1.675
  470 1   -5.469818 -5.817084e+01 -1.675
  471 1   -7.956098 -6.098743e+01 -1.675
  472 1   -9.179080 -6.026583e+01 -1.675
  473 1   -9.165640 -5.884589e+01 -1.675
  474 1   -7.929220 -5.814756e+01 -1.675
  475 1  -10.415500 -6.096415e+01 -1.675
  476 1  -11.638482 -6.024255e+01 -1.675
  477 1  -11.625042 -5.882261e+01 -1.675
  478 1  -10.388622 -5.812428e+01 -1.675
  479 1  -12.874902 -6.094088e+01 -1.675
  480 1  -14.097884 -6.021927e+01 -1.675
  481 1  -14.084444 -5.879933e+01 -1.675
  482 1  -12.848024 -5.810100e+01 -1.675
  483 1  -15.334304 -6.091760e+01 -1.675
  484 1  -16.557286 -6.019599e+01 -1.675
  485 1  -16.543846 -5.877606e+01 -1.675
  486 1  -15.307426 -5.807773e+01 -1.675
  487 1  -17.793706 -6.089432e+01 -1.675
  488 1  -19.016688 -6.017271e+01 -1.675
  489 1  -19.003248 -5.875278e+01 -1.675
  490 1  -17.766827 -5.805445e+01 -1.675
  491 1  -20.253108 -6.087104e+01 -1.675
  492 1  -21.476090 -6.014944e+01 -1.675
  493 1  -21.462650 -5.872950e+01 -1.675
  494 1  -20.226229 -5.803117e+01 -1.675
  495 1  -22.712510 -6.084777e+01 -1.675
  496 1  -23.935492 -6.012616e+01 -1.675
  497 1  -23.922052 -5.870622e+01 -1.675
  498 1  -22.685631 -5.800789e+01 -1.675
  499 1  -25.171912 -6.082449e+01 -1.675
  500 1  -26.394893 -6.010288e+01 -1.675
  501 1  -26.381454 -5.868295e+01 -1.675
  502 1  -25.145033 -5.798462e+01 -1.675
  503 1  -27.631314 -6.080121e+01 -1.675
  504 1  -28.854295 -6.007960e+01 -1.675
  505 1  -28.840856 -5.865967e+01 -1.675
  506 1  -27.604435 -5.796134e+01 -1.675
  507 1  -30.090716 -6.077793e+01 -1.675
  508 1  -31.313697 -6.005633e+01 -1.675
  509 1  -31.300258 -5.863639e+01 -1.675
  510 1  -30.063837 -5.793806e+01 -1.675
  511 1  -32.550118 -6.075466e+01 -1.675
  512 1  -33.773099 -6.003305e+01 -1.675
  513 1  -33.759660 -5.861311e+01 -1.675
  514 1  -32.523239 -5.791478e+01 -1.675
  515 1  -35.009520 -6.073138e+01 -1.675
  516 1  -36.232501 -6.000977e+01 -1.675
  517 1  -36.219062 -5.858983e+01 -1.675
  518 1  -34.982641 -5.789151e+01 -1.675
  519 1  -37.468922 -6.070810e+01 -1.675
  520 1  -38.691903 -5.998649e+01 -1.675
  521 1  -38.678464 -5.856656e+01 -1.675
  522 1  -37.442043 -5.786823e+01 -1.675
  523 1  -39.928324 -6.068482e+01 -1.675
  524 1  -41.151305 -5.996322e+01 -1.675
  525 1  -41.137866 -5.854328e+01 -1.675
  526 1  -39.901445 -5.784495e+01 -1.675
  527 1  -42.387726 -6.066155e+01 -1.675
  528 1  -43.610707 -5.993994e+01 -1.675
  529 1  -43.597268 -5.852000e+01 -1.675
  530 1  -42.360847 -5.782167e+01 -1.675
  531 1  -44.847128 -6.063827e+01 -1.675
  532 1  -46.070109 -5.991666e+01 -1.675
  533 1  -46.056670 -5.849672e+01 -1.675
  534 1  -44.820249 -5.779839e+01 -1.675
  535 1  -47.306530 -6.061499e+01 -1.675
  536 1  -48.529511 -5.989338e+01 -1.675
  537 1  -48.516072 -5.847345e+01 -1.675
  538 1  -47.279651 -5.777512e+01 -1.675
  539 1  -49.765932 -6.059171e+01 -1.675
  540 1  -50.988913 -5.987011e+01 -1.675
  541 1  -50.975474 -5.845017e+01 -1.675
  542 1  -49.739053 -5.775184e+01 -1.675
  543 1  -52.225334 -6.056843e+01 -1.675
  544 1  -53.448315 -5.984683e+01 -1.675
  545 1  -53.434876 -5.842689e+01 -1.675
  546 1  -52.198455 -5.772856e+01 -1.675
  547 1  -54.684736 -6.054516e+01 -1.675
  548 1  -55.907717 -5.982355e+01 -1.675
  549 1  -55.894278 -5.840361e+01 -1.675
  550 1  -54.657857 -5.770528e+01 -1.675
  551 1  -57.144138 -6.052188e+01 -1.675
  552 1  -58.367119 -5.980027e+01 -1.675
  553 1  -58.353680 -5.838034e+01 -1.675
  554 1  -57.117259 -5.768201e+01 -1.675
  555 1  -59.603540 -6.049860e+01 -1.675
  556 1  -60.826521 -5.977699e+01 -1.675
  557 1  -60.813082 -5.835706e+01 -1.675
  558 1  -59.576661 -5.765873e+01 -1.675
  559 1  -62.062942 -6.047532e+01 -1.675
  560 1  -63.285923 -5.975372e+01 -1.675
  561 1  -63.272484 -5.833378e+01 -1.675
  562 1  -62.036063 -5.763545e+01 -1.675
  563 1  -64.522344 -6.045205e+01 -1.675
  564 1  -65.745325 -5.973044e+01 -1.675
  565 1  -65.731886 -5.831050e+01 -1.675
  566 1  -64.495465 -5.761217e+01 -1.675
  567 1  -66.981746 -6.042877e+01 -1.675
  568 1  -68.204727 -5.970716e+01 -1.675
  569 1  -68.191288 -5.828723e+01 -1.675
  570 1  -66.954867 -5.758890e+01 -1.675
  571 1  -69.441148 -6.040549e+01 -1.675
  572 1  -70.664129 -5.968388e+01 -1.675
  573 1  -70.650690 -5.826395e+01 -1.675
  574 1  -69.414269 -5.756562e+01 -1.675
  575 1  -71.900550 -6.038221e+01 -1.675
  576 1  -73.123531 -5.966061e+01 -1.675
  577 1  -73.110092 -5.824067e+01 -1.675
  578 1  -71.873671 -5.754234e+01 -1.675
  579 1  -74.359952 -6.035894e+01 -1.675
  580 1  -75.582933 -5.963733e+01 -1.675
  581 1  -75.569494 -5.821739e+01 -1.675
  582 1  -74.333073 -5.751906e+01 -1.675
  583 1  -76.819354 -6.033566e+01 -1.675
  584 1  -78.042335 -5.961405e+01 -1.675
  585 1  -78.028896 -5.819411e+01 -1.675
  586 1  -76.792475 -5.749579e+01 -1.675
  587 1  -79.278756 -6.031238e+01 -1.675
  588 1  -80.501737 -5.959077e+01 -1.675
  589 1  -80.488298 -5.817084e+01 -1.675
  590 1  -79.251877 -5.747251e+01 -1.675
  591 1  -81.738158 -6.028910e+01 -1.675
  592 1  -82.961139 -5.956750e+01 -1.675
  593 1  -82.947700 -5.814756e+01 -1.675
  594 1  -81.711279 -5.744923e+01 -1.675
  595 1  -84.197560 -6.026583e+01 -1.675
  596 1  -85.420541 -5.954422e+01 -1.675
  597 1  -85.407102 -5.812428e+01 -1.675
  598 1  -84.170681 -5.742595e+01 -1.675
  599 1  -86.656962 -6.024255e+01 -1.675
  600 1  -87.879943 -5.952094e+01 -1.675
  601 1  -87.866504 -5.810100e+01 -1.675
  602 1  -86.630083 -5.740267e+01 -1.675
  603 1  -89.116364 -6.021927e+01 -1.675
  604 1  -90.339345 -5.949766e+01 -1.675
  605 1  -90.325906 -5.807773e+01 -1.675
  606 1  -89.089485 -5.737940e+01 -1.675
  607 1  -91.575766 -6.019599e+01 -1.675
  608 1  -92.798747 -5.947439e+01 -1.675
  609 1  -92.785308 -5.805445e+01 -1.675
  610 1  -91.548887 -5.735612e+01 -1.675
  611 1  -94.035168 -6.017271e+01 -1.675
  612 1  -95.258149 -5.945111e+01 -1.675
  613 1  -95.244710 -5.803117e+01 -1.675
  614 1  -94.008289 -5.733284e+01 -1.675
  615 1  -96.494570 -6.014944e+01 -1.675
  616 1  -97.717551 -5.942783e+01 -1.675
  617 1  -97.704112 -5.800789e+01 -1.675
  618 1  -96.467691 -5.730956e+01 -1.675
  619 1  -98.953972 -6.012616e+01 -1.675
  620 1 -100.176953 -5.940455e+01 -1.675
  621 1 -100.163514 -5.798462e+01 -1.675
  622 1  -98.927093 -5.728629e+01 -1.675
  623 1 -101.413374 -6.010288e+01 -1.675
  624 1 -102.636355 -5.938127e+01 -1.675
  625 1 -102.622916 -5.796134e+01 -1.675
  626 1 -101.386495 -5.726301e+01 -1.675
  627 1 -103.872776 -6.007960e+01 -1.675
  628 1 -105.095757 -5.935800e+01 -1.675
  629 1 -105.082318 -5.793806e+01 -1.675
  630 1 -103.845897 -5.723973e+01 -1.675
  631 1 -106.332178 -6.005633e+01 -1.675
  632 1 -107.555159 -5.933472e+01 -1.675
  633 1 -107.541720 -5.791478e+01 -1.675
  634 1 -106.305299 -5.721645e+01 -1.675
  635 1 -108.791580 -6.003305e+01 -1.675
  636 1 -110.014561 -5.931144e+01 -1.675
  637 1 -110.001122 -5.789151e+01 -1.675
  638 1 -108.764701 -5.719318e+01 -1.675
  639 1 -111.250982 -6.000977e+01 -1.675
  640 1 -112.473963 -5.928816e+01 -1.675
  641 1 -112.460524 -5.786823e+01 -1.675
  642 1 -111.224103 -5.716990e+01 -1.675
  643 1  111.371936 -5.714662e+01 -1.675
  644 1  111.385375 -5.572668e+01 -1.675
  645 1  110.135515 -5.784495e+01 -1.675
  646 1  108.912534 -5.712334e+01 -1.675
  647 1  108.925973 -5.570341e+01 -1.675
  648 1  110.162394 -5.500508e+01 -1.675
  649 1  107.676113 -5.782167e+01 -1.675
  650 1  106.453132 -5.710007e+01 -1.675
  651 1  106.466571 -5.568013e+01 -1.675
  652 1  107.702992 -5.498180e+01 -1.675
  653 1  105.216711 -5.779839e+01 -1.675
  654 1  103.993730 -5.707679e+01 -1.675
  655 1  104.007169 -5.565685e+01 -1.675
  656 1  105.243590 -5.495852e+01 -1.675
  657 1  102.757309 -5.777512e+01 -1.675
  658 1  101.534328 -5.705351e+01 -1.675
  659 1  101.547767 -5.563357e+01 -1.675
  660 1  102.784188 -5.493524e+01 -1.675
  661 1  100.297907 -5.775184e+01 -1.675
  662 1   99.074926 -5.703023e+01 -1.675
  663 1   99.088365 -5.561030e+01 -1.675
  664 1  100.324786 -5.491197e+01 -1.675
  665 1   97.838505 -5.772856e+01 -1.675
  666 1   96.615524 -5.700695e+01 -1.675
  667 1   96.628963 -5.558702e+01 -1.675
  668 1   97.865384 -5.488869e+01 -1.675
  669 1   95.379103 -5.770528e+01 -1.675
  670 1   94.156122 -5.698368e+01 -1.675
  671 1   94.169561 -5.556374e+01 -1.675
  672 1   95.405982 -5.486541e+01 -1.675
  673 1   92.919701 -5.768201e+01 -1.675
  674 1   91.696720 -5.696040e+01 -1.675
  675 1   91.710159 -5.554046e+01 -1.675
  676 1   92.946580 -5.484213e+01 -1.675
  677 1   90.460299 -5.765873e+01 -1.675
  678 1   89.237318 -5.693712e+01 -1.675
  679 1   89.250757 -5.551719e+01 -1.675
  680 1   90.487178 -5.481886e+01 -1.675
  681 1   88.000897 -5.763545e+01 -1.675
  682 1   86.777916 -5.691384e+01 -1.675
  683 1   86.791355 -5.549391e+01 -1.675
  684 1   88.027776 -5.479558e+01 -1.675
  685 1   85.541495 -5.761217e+01 -1.675
  686 1   84.318514 -5.689057e+01 -1.675
  687 1   84.331954 -5.547063e+01 -1.675
  688 1   85.568374 -5.477230e+01 -1.675
  689 1   83.082093 -5.758890e+01 -1.675
  690 1   81.859112 -5.686729e+01 -1.675
  691 1   81.872552 -5.544735e+01 -1.675
  692 1   83.108972 -5.474902e+01 -1.675
  693 1   80.622691 -5.756562e+01 -1.675
  694 1   79.399710 -5.684401e+01 -1.675
  695 1   79.413150 -5.542407e+01 -1.675
  696 1   80.649570 -5.472575e+01 -1.675
  697 1   78.163289 -5.754234e+01 -1.675
  698 1   76.940308 -5.682073e+01 -1.675
  699 1   76.953748 -5.540080e+01 -1.675
  700 1   78.190168 -5.470247e+01 -1.675
  701 1   75.703888 -5.751906e+01 -1.675
  702 1   74.480906 -5.679746e+01 -1.675
  703 1   74.494346 -5.537752e+01 -1.675
  704 1   75.730766 -5.467919e+01 -1.675
  705 1   73.244486 -5.749579e+01 -1.675
  706 1   72.021504 -5.677418e+01 -1.675
  707 1   72.034944 -5.535424e+01 -1.675
  708 1   73.271364 -5.465591e+01 -1.675
  709 1   70.785084 -5.747251e+01 -1.675
  710 1   69.562102 -5.675090e+01 -1.675
  711 1   69.575542 -5.533096e+01 -1.675
  712 1   70.811962 -5.463263e+01 -1.675
  713 1   68.325682 -5.744923e+01 -1.675
  714 1   67.102700 -5.672762e+01 -1.675
  715 1   67.116140 -5.530769e+01 -1.675
  716 1   68.352560 -5.460936e+01 -1.675
  717 1   65.866280 -5.742595e+01 -1.675
  718 1   64.643298 -5.670435e+01 -1.675
  719 1   64.656738 -5.528441e+01 -1.675
  720 1   65.893158 -5.458608e+01 -1.675
  721 1   63.406878 -5.740267e+01 -1.675
  722 1   62.183896 -5.668107e+01 -1.675
  723 1   62.197336 -5.526113e+01 -1.675
  724 1   63.433756 -5.456280e+01 -1.675
  725 1   60.947476 -5.737940e+01 -1.675
  726 1   59.724494 -5.665779e+01 -1.675
  727 1   59.737934 -5.523785e+01 -1.675
  728 1   60.974354 -5.453952e+01 -1.675
  729 1   58.488074 -5.735612e+01 -1.675
  730 1   57.265092 -5.663451e+01 -1.675
  731 1   57.278532 -5.521458e+01 -1.675
  732 1   58.514952 -5.451625e+01 -1.675
  733 1   56.028672 -5.733284e+01 -1.675
  734 1   54.805690 -5.661123e+01 -1.675
  735 1   54.819130 -5.519130e+01 -1.675
  736 1   56.055550 -5.449297e+01 -1.675
  737 1   53.569270 -5.730956e+01 -1.675
  738 1   52.346288 -5.658796e+01 -1.675
  739 1   52.359728 -5.516802e+01 -1.675
  740 1   53.596148 -5.446969e+01 -1.675
  741 1   51.109868 -5.728629e+01 -1.675
  742 1   49.886886 -5.656468e+01 -1.675
  743 1   49.900326 -5.514474e+01 -1.675
  744 1   51.136746 -5.444641e+01 -1.675
  745 1   48.650466 -5.726301e+01 -1.675
  746 1   47.427484 -5.654140e+01 -1.675
  747 1   47.440924 -5.512147e+01 -1.675
  748 1   48.677344 -5.442314e+01 -1.675
  749 1   46.191064 -5.723973e+01 -1.675
  750 1   44.968082 -5.651812e+01 -1.675
  751 1   44.981522 -5.509819e+01 -1.675
  752 1   46.217942 -5.439986e+01 -1.675
  753 1   43.731662 -5.721645e+01 -1.675
  754 1   42.508680 -5.649485e+01 -1.675
  755 1   42.522120 -5.507491e+01 -1.675
  756 1   43.758540 -5.437658e+01 -1.675
  757 1   41.272260 -5.719318e+01 -1.675
  758 1   40.049278 -5.647157e+01 -1.675
  759 1   40.062718 -5.505163e+01 -1.675
  760 1   41.299138 -5.435330e+01 -1.675
  761 1   38.812858 -5.716990e+01 -1.675
  762 1   37.589876 -5.644829e+01 -1.675
  763 1   37.603316 -5.502835e+01 -1.675
  764 1   38.839736 -5.433003e+01 -1.675
  765 1   36.353456 -5.714662e+01 -1.675
  766 1   35.130474 -5.642501e+01 -1.675
  767 1   35.143914 -5.500508e+01 -1.675
  768 1   36.380334 -5.430675e+01 -1.675
  769 1   33.894054 -5.712334e+01 -1.675
  770 1   32.671072 -5.640174e+01 -1.675
  771 1   32.684512 -5.498180e+01 -1.675
  772 1   33.920932 -5.428347e+01 -1.675
  773 1   31.434652 -5.710007e+01 -1.675
  774 1   30.211670 -5.637846e+01 -1.675
  775 1   30.225110 -5.495852e+01 -1.675
  776 1   31.461530 -5.426019e+01 -1.675
  777 1   28.975250 -5.707679e+01 -1.675
  778 1   27.752268 -5.635518e+01 -1.675
  779 1   27.765708 -5.493524e+01 -1.675
  780 1   29.002128 -5.423692e+01 -1.675
  781 1   26.515848 -5.705351e+01 -1.675
  782 1   25.292866 -5.633190e+01 -1.675
  783 1   25.306306 -5.491197e+01 -1.675
  784 1   26.542726 -5.421364e+01 -1.675
  785 1   24.056446 -5.703023e+01 -1.675
  786 1   22.833464 -5.630863e+01 -1.675
  787 1   22.846904 -5.488869e+01 -1.675
  788 1   24.083324 -5.419036e+01 -1.675
  789 1   21.597044 -5.700695e+01 -1.675
  790 1   20.374062 -5.628535e+01 -1.675
  791 1   20.387502 -5.486541e+01 -1.675
  792 1   21.623922 -5.416708e+01 -1.675
  793 1   19.137642 -5.698368e+01 -1.675
  794 1   17.914660 -5.626207e+01 -1.675
  795 1   17.928100 -5.484213e+01 -1.675
  796 1   19.164520 -5.414380e+01 -1.675
  797 1   16.678240 -5.696040e+01 -1.675
  798 1   15.455258 -5.623879e+01 -1.675
  799 1   15.468698 -5.481886e+01 -1.675
  800 1   16.705118 -5.412053e+01 -1.675
  801 1   14.218838 -5.693712e+01 -1.675
  802 1   12.995856 -5.621551e+01 -1.675
  803 1   13.009296 -5.479558e+01 -1.675
  804 1   14.245716 -5.409725e+01 -1.675
  805 1   11.759436 -5.691384e+01 -1.675
  806 1   10.536454 -5.619224e+01 -1.675
  807 1   10.549894 -5.477230e+01 -1.675
  808 1   11.786314 -5.407397e+01 -1.675
  809 1    9.300034 -5.689057e+01 -1.675
  810 1    8.077052 -5.616896e+01 -1.675
  811 1    8.090492 -5.474902e+01 -1.675
  812 1    9.326912 -5.405069e+01 -1.675
  813 1    6.840632 -5.686729e+01 -1.675
  814 1    5.617650 -5.614568e+01 -1.675
  815 1    5.631090 -5.472575e+01 -1.675
  816 1    6.867510 -5.402742e+01 -1.675
  817 1    4.381230 -5.684401e+01 -1.675
  818 1    3.158248 -5.612240e+01 -1.675
  819 1    3.171688 -5.470247e+01 -1.675
  820 1    4.408108 -5.400414e+01 -1.675
  821 1    1.921828 -5.682073e+01 -1.675
  822 1    0.698846 -5.609913e+01 -1.675
  823 1    0.712286 -5.467919e+01 -1.675
  824 1    1.948706 -5.398086e+01 -1.675
  825 1   -0.537574 -5.679746e+01 -1.675
  826 1   -1.760556 -5.607585e+01 -1.675
  827 1   -1.747116 -5.465591e+01 -1.675
  828 1   -0.510695 -5.395758e+01 -1.675
  829 1   -2.996976 -5.677418e+01 -1.675
  830 1   -4.219958 -5.605257e+01 -1.675
  831 1   -4.206518 -5.463263e+01 -1.675
  832 1   -2.970097 -5.393431e+01 -1.675
  833 1   -5.456378 -5.675090e+01 -1.675
  834 1   -6.679360 -5.602929e+01 -1.675
  835 1   -6.665920 -5.460936e+01 -1.675
  836 1   -5.429499 -5.391103e+01 -1.675
  837 1   -7.915780 -5.672762e+01 -1.675
  838 1   -9.138761 -5.600602e+01 -1.675
  839 1   -9.125322 -5.458608e+01 -1.675
  840 1   -7.888901 -5.388775e+01 -1.675
  841 1  -10.375182 -5.670435e+01 -1.675
  842 1  -11.598163 -5.598274e+01 -1.675
  843 1  -11.584724 -5.456280e+01 -1.675
  844 1  -10.348303 -5.386447e+01 -1.675
  845 1  -12.834584 -5.668107e+01 -1.675
  846 1  -14.057565 -5.595946e+01 -1.675
  847 1  -14.044126 -5.453952e+01 -1.675
  848 1  -12.807705 -5.384120e+01 -1.675
  849 1  -15.293986 -5.665779e+01 -1.675
  850 1  -16.516967 -5.593618e+01 -1.675
  851 1  -16.503528 -5.451625e+01 -1.675
  852 1  -15.267107 -5.381792e+01 -1.675
  853 1  -17.753388 -5.663451e+01 -1.675
  854 1  -18.976369 -5.591291e+01 -1.675
  855 1  -18.962930 -5.449297e+01 -1.675
  856 1  -17.726509 -5.379464e+01 -1.675
  857 1  -20.212790 -5.661123e+01 -1.675
  858 1  -21.435771 -5.588963e+01 -1.675
  859 1  -21.422332 -5.446969e+01 -1.675
  860 1  -20.185911 -5.377136e+01 -1.675
  861 1  -22.672192 -5.658796e+01 -1.675
  862 1  -23.895173 -5.586635e+01 -1.675
  863 1  -23.881734 -5.444641e+01 -1.675
  864 1  -22.645313 -5.374808e+01 -1.675
  865 1  -25.131594 -5.656468e+01 -1.675
  866 1  -26.354575 -5.584307e+01 -1.675
  867 1  -26.341136 -5.442314e+01 -1.675
  868 1  -25.104715 -5.372481e+01 -1.675
  869 1  -27.590996 -5.654140e+01 -1.675
  870 1  -28.813977 -5.581979e+01 -1.675
  871 1  -28.800538 -5.439986e+01 -1.675
  872 1  -27.564117 -5.370153e+01 -1.675
  873 1  -30.050398 -5.651812e+01 -1.675
  874 1  -31.273379 -5.579652e+01 -1.675
  875 1  -31.259940 -5.437658e+01 -1.675
  876 1  -30.023519 -5.367825e+01 -1.675
  877 1  -32.509800 -5.649485e+01 -1.675
  878 1  -33.732781 -5.577324e+01 -1.675
  879 1  -33.719342 -5.435330e+01 -1.675
  880 1  -32.482921 -5.365497e+01 -1.675
  881 1  -34.969202 -5.647157e+01 -1.675
  882 1  -36.192183 -5.574996e+01 -1.675
  883 1  -36.178744 -5.433003e+01 -1.675
  884 1  -34.942323 -5.363170e+01 -1.675
  885 1  -37.428604 -5.644829e+01 -1.675
  886 1  -38.651585 -5.572668e+01 -1.675
  887 1  -38.638146 -5.430675e+01 -1.675
  888 1  -37.401725 -5.360842e+01 -1.675
  889 1  -39.888006 -5.642501e+01 -1.675
  890 1  -41.110987 -5.570341e+01 -1.675
  891 1  -41.097548 -5.428347e+01 -1.675
  892 1  -39.861127 -5.358514e+01 -1.675
  893 1  -42.347408 -5.640174e+01 -1.675
  894 1  -43.570389 -5.568013e+01 -1.675
  895 1  -43.556950 -5.426019e+01 -1.675
  896 1  -42.320529 -5.356186e+01 -1.675
  897 1  -44.806810 -5.637846e+01 -1.675
  898 1  -46.029791 -5.565685e+01 -1.675
  899 1  -46.016352 -5.423692e+01 -1.675
  900 1  -44.779931 -5.353859e+01 -1.675
  901 1  -47.266212 -5.635518e+01 -1.675
  902 1  -48.489193 -5.563357e+01 -1.675
  903 1  -48.475754 -5.421364e+01 -1.675
  904 1  -47.239333 -5.351531e+01 -1.675
  905 1  -49.725614 -5.633190e+01 -1.675
  906 1  -50.948595 -5.561030e+01 -1.675
  907 1  -50.935156 -5.419036e+01 -1.675
  908 1  -49.698735 -5.349203e+01 -1.675
  909 1  -52.185016 -5.630863e+01 -1.675
  910 1  -53.407997 -5.558702e+01 -1.675
  911 1  -53.394558 -5.416708e+01 -1.675
  912 1  -52.158137 -5.346875e+01 -1.675
  913 1  -54.644418 -5.628535e+01 -1.675
  914 1  -55.867399 -5.556374e+01 -1.675
  915 1  -55.853960 -5.414380e+01 -1.675
  916 1  -54.617539 -5.344548e+01 -1.675
  917 1  -57.103820 -5.626207e+01 -1.675
  918 1  -58.326801 -5.554046e+01 -1.675
  919 1  -58.313362 -5.412053e+01 -1.675
  920 1  -57.076941 -5.342220e+01 -1.675
  921 1  -59.563222 -5.623879e+01 -1.675
  922 1  -60.786203 -5.551719e+01 -1.675
  923 1  -60.772764 -5.409725e+01 -1.675
  924 1  -59.536343 -5.339892e+01 -1.675
  925 1  -62.022624 -5.621551e+01 -1.675
  926 1  -63.245605 -5.549391e+01 -1.675
  927 1  -63.232166 -5.407397e+01 -1.675
  928 1  -61.995745 -5.337564e+01 -1.675
  929 1  -64.482026 -5.619224e+01 -1.675
  930 1  -65.705007 -5.547063e+01 -1.675
  931 1  -65.691568 -5.405069e+01 -1.675
  932 1  -64.455147 -5.335236e+01 -1.675
  933 1  -66.941428 -5.616896e+01 -1.675
  934 1  -68.164409 -5.544735e+01 -1.675
  935 1  -68.150970 -5.402742e+01 -1.675
  936 1  -66.914549 -5.332909e+01 -1.675
  937 1  -69.400830 -5.614568e+01 -1.675
  938 1  -70.623811 -5.542407e+01 -1.675
  939 1  -70.610372 -5.400414e+01 -1.675
  940 1  -69.373951 -5.330581e+01 -1.675
  941 1  -71.860232 -5.612240e+01 -1.675
  942 1  -73.083213 -5.540080e+01 -1.675
  943 1  -73.069774 -5.398086e+01 -1.675
  944 1  -71.833353 -5.328253e+01 -1.675
  945 1  -74.319634 -5.609913e+01 -1.675
  946 1  -75.542615 -5.537752e+01 -1.675
  947 1  -75.529176 -5.395758e+01 -1.675
  948 1  -74.292755 -5.325925e+01 -1.675
  949 1  -76.779036 -5.607585e+01 -1.675
  950 1  -78.002017 -5.535424e+01 -1.675
  951 1  -77.988578 -5.393431e+01 -1.675
  952 1  -76.752157 -5.323598e+01 -1.675
  953 1  -79.238438 -5.605257e+01 -1.675
  954 1  -80.461419 -5.533096e+01 -1.675
  955 1  -80.447980 -5.391103e+01 -1.675
  956 1  -79.211559 -5.321270e+01 -1.675
  957 1  -81.697840 -5.602929e+01 -1.675
  958 1  -82.920821 -5.530769e+01 -1.675
  959 1  -82.907382 -5.388775e+01 -1.675
  960 1  -81.670961 -5.318942e+01 -1.675
  961 1  -84.157242 -5.600602e+01 -1.675
  962 1  -85.380223 -5.528441e+01 -1.675
  963 1  -85.366784 -5.386447e+01 -1.675
  964 1  -84.130363 -5.316614e+01 -1.675
  965 1  -86.616644 -5.598274e+01 -1.675
  966 1  -87.839625 -5.526113e+01 -1.675
  967 1  -87.826186 -5.384120e+01 -1.675
  968 1  -86.589765 -5.314287e+01 -1.675
  969 1  -89.076046 -5.595946e+01 -1.675
  970 1  -90.299027 -5.523785e+01 -1.675
  971 1  -90.285588 -5.381792e+01 -1.675
  972 1  -89.049167 -5.311959e+01 -1.675
  973 1  -91.535448 -5.593618e+01 -1.675
  974 1  -92.758429 -5.521458e+01 -1.675
  975 1  -92.744990 -5.379464e+01 -1.675
  976 1  -91.508569 -5.309631e+01 -1.675
  977 1  -93.994850 -5.591291e+01 -1.675
  978 1  -95.217831 -5.519130e+01 -1.675
  979 1  -95.204392 -5.377136e+01 -1.675
  980 1  -93.967971 -5.307303e+01 -1.675
  981 1  -96.454252 -5.588963e+01 -1.675
  982 1  -97.677233 -5.516802e+01 -1.675
  983 1  -97.663794 -5.374808e+01 -1.675
  984 1  -96.427373 -5.304976e+01 -1.675
  985 1  -98.913654 -5.586635e+01 -1.675
  986 1 -100.136635 -5.514474e+01 -1.675
  987 1 -100.123196 -5.372481e+01 -1.675
  988 1  -98.886775 -5.302648e+01 -1.675
  989 1 -101.373056 -5.584307e+01 -1.675
  990 1 -102.596037 -5.512147e+01 -1.675
  991 1 -102.582598 -5.370153e+01 -1.675
  992 1 -101.346177 -5.300320e+01 -1.675
  993 1 -103.832458 -5.581979e+01 -1.675
  994 1 -105.055439 -5.509819e+01 -1.675
  995 1 -105.042000 -5.367825e+01 -1.675
  996 1 -103.805579 -5.297992e+01 -1.675
  997 1 -106.291860 -5.579652e+01 -1.675
  998 1 -107.514841 -5.507491e+01 -1.675
  999 1 -107.501402 -5.365497e+01 -1.675
 1000 1 -106.264981 -5.295664e+01 -1.675
 1001 1 -108.751262 -5.577324e+01 -1.675
 1002 1 -109.974243 -5.505163e+01 -1.675
 1003 1 -109.960804 -5.363170e+01 -1.675
 1004 1 -108.724383 -5.293337e+01 -1.675
 1005 1 -111.210664 -5.574996e+01 -1.675
 1006 1 -112.433645 -5.502835e+01 -1.675
 1007 1 -112.420206 -5.360842e+01 -1.675
 1008 1 -111.183785 -5.291009e+01 -1.675
 1009 1  111.412254 -5.288681e+01 -1.675
 1010 1  111.425693 -5.146688e+01 -1.675
 1011 1  110.175833 -5.358514e+01 -1.675
 1012 1  108.952852 -5.286353e+01 -1.675
 1013 1  108.966291 -5.144360e+01 -1.675
 1014 1  110.202712 -5.074527e+01 -1.675
 1015 1  107.716431 -5.356186e+01 -1.675
 1016 1  106.493450 -5.284026e+01 -1.675
 1017 1  106.506889 -5.142032e+01 -1.675
 1018 1  107.743310 -5.072199e+01 -1.675
 1019 1  105.257029 -5.353859e+01 -1.675
 1020 1  104.034048 -5.281698e+01 -1.675
 1021 1  104.047487 -5.139704e+01 -1.675
 1022 1  105.283908 -5.069871e+01 -1.675
 1023 1  102.797627 -5.351531e+01 -1.675
 1024 1  101.574646 -5.279370e+01 -1.675
 1025 1  101.588086 -5.137376e+01 -1.675
 1026 1  102.824506 -5.067544e+01 -1.675
 1027 1  100.338225 -5.349203e+01 -1.675
 1028 1   99.115244 -5.277042e+01 -1.675
 1029 1   99.128684 -5.135049e+01 -1.675
 1030 1  100.365104 -5.065216e+01 -1.675
 1031 1   97.878823 -5.346875e+01 -1.675
 1032 1   96.655842 -5.274715e+01 -1.675
 1033 1   96.669282 -5.132721e+01 -1.675
 1034 1   97.905702 -5.062888e+01 -1.675
 1035 1   95.419421 -5.344548e+01 -1.675
 1036 1   94.196440 -5.272387e+01 -1.675
 1037 1   94.209880 -5.130393e+01 -1.675
 1038 1   95.446300 -5.060560e+01 -1.675
 1039 1   92.960020 -5.342220e+01 -1.675
 1040 1   91.737038 -5.270059e+01 -1.675
 1041 1   91.750478 -5.128065e+01 -1.675
 1042 1   92.986898 -5.058232e+01 -1.675
 1043 1   90.500618 -5.339892e+01 -1.675
 1044 1   89.277636 -5.267731e+01 -1.675
 1045 1   89.291076 -5.125738e+01 -1.675
 1046 1   90.527496 -5.055905e+01 -1.675
 1047 1   88.041216 -5.337564e+01 -1.675
 1048 1   86.818234 -5.265404e+01 -1.675
 1049 1   86.831674 -5.123410e+01 -1.675
 1050 1   88.068094 -5.053577e+01 -1.675
 1051 1   85.581814 -5.335236e+01 -1.675
 1052 1   84.358832 -5.263076e+01 -1.675
 1053 1   84.372272 -5.121082e+01 -1.675
 1054 1   85.608692 -5.051249e+01 -1.675
 1055 1   83.122412 -5.332909e+01 -1.675
 1056 1   81.899430 -5.260748e+01 -1.675
 1057 1   81.912870 -5.118754e+01 -1.675
 1058 1   83.149290 -5.048921e+01 -1.675
 1059 1   80.663010 -5.330581e+01 -1.675
 1060 1   79.440028 -5.258420e+01 -1.675
 1061 1   79.453468 -5.116427e+01 -1.675
 1062 1   80.689888 -5.046594e+01 -1.675
 1063 1   78.203608 -5.328253e+01 -1.675
 1064 1   76.980626 -5.256092e+01 -1.675
 1065 1   76.994066 -5.114099e+01 -1.675
 1066 1   78.230486 -5.044266e+01 -1.675
 1067 1   75.744206 -5.325925e+01 -1.675
 1068 1   74.521224 -5.253765e+01 -1.675
 1069 1   74.534664 -5.111771e+01 -1.675
 1070 1   75.771084 -5.041938e+01 -1.675
 1071 1   73.284804 -5.323598e+01 -1.675
 1072 1   72.061822 -5.251437e+01 -1.675
 1073 1   72.075262 -5.109443e+01 -1.675
 1074 1   73.311682 -5.039610e+01 -1.675
 1075 1   70.825402 -5.321270e+01 -1.675
 1076 1   69.602420 -5.249109e+01 -1.675
 1077 1   69.615860 -5.107116e+01 -1.675
 1078 1   70.852280 -5.037283e+01 -1.675
 1079 1   68.366000 -5.318942e+01 -1.675
 1080 1   67.143018 -5.246781e+01 -1.675
 1081 1   67.156458 -5.104788e+01 -1.675
 1082 1   68.392878 -5.034955e+01 -1.675
 1083 1   65.906598 -5.316614e+01 -1.675
 1084 1   64.683616 -5.244454e+01 -1.675
 1085 1   64.697056 -5.102460e+01 -1.675
 1086 1   65.933476 -5.032627e+01 -1.675
 1087 1   63.447196 -5.314287e+01 -1.675
 1088 1   62.224214 -5.242126e+01 -1.675
 1089 1   62.237654 -5.100132e+01 -1.675
 1090 1   63.474074 -5.030299e+01 -1.675
 1091 1   60.987794 -5.311959e+01 -1.675
 1092 1   59.764812 -5.239798e+01 -1.675
 1093 1   59.778252 -5.097804e+01 -1.675
 1094 1   61.014672 -5.027972e+01 -1.675
 1095 1   58.528392 -5.309631e+01 -1.675
 1096 1   57.305410 -5.237470e+01 -1.675
 1097 1   57.318850 -5.095477e+01 -1.675
 1098 1   58.555270 -5.025644e+01 -1.675
 1099 1   56.068990 -5.307303e+01 -1.675
 1100 1   54.846008 -5.235143e+01 -1.675
 1101 1   54.859448 -5.093149e+01 -1.675
 1102 1   56.095868 -5.023316e+01 -1.675
 1103 1   53.609588 -5.304976e+01 -1.675
 1104 1   52.386606 -5.232815e+01 -1.675
 1105 1   52.400046 -5.090821e+01 -1.675
 1106 1   53.636466 -5.020988e+01 -1.675
 1107 1   51.150186 -5.302648e+01 -1.675
 1108 1   49.927204 -5.230487e+01 -1.675
 1109 1   49.940644 -5.088493e+01 -1.675
 1110 1   51.177064 -5.018660e+01 -1.675
 1111 1   48.690784 -5.300320e+01 -1.675
 1112 1   47.467802 -5.228159e+01 -1.675
 1113 1   47.481242 -5.086166e+01 -1.675
 1114 1   48.717662 -5.016333e+01 -1.675
 1115 1   46.231382 -5.297992e+01 -1.675
 1116 1   45.008400 -5.225832e+01 -1.675
 1117 1   45.021840 -5.083838e+01 -1.675
 1118 1   46.258260 -5.014005e+01 -1.675
 1119 1   43.771980 -5.295664e+01 -1.675
 1120 1   42.548998 -5.223504e+01 -1.675
 1121 1   42.562438 -5.081510e+01 -1.675
 1122 1   43.798858 -5.011677e+01 -1.675
 1123 1   41.312578 -5.293337e+01 -1.675
 1124 1   40.089596 -5.221176e+01 -1.675
 1125 1   40.103036 -5.079182e+01 -1.675
 1126 1   41.339456 -5.009349e+01 -1.675
 1127 1   38.853176 -5.291009e+01 -1.675
 1128 1   37.630194 -5.218848e+01 -1.675
 1129 1   37.643634 -5.076855e+01 -1.675
 1130 1   38.880054 -5.007022e+01 -1.675
 1131 1   36.393774 -5.288681e+01 -1.675
 1132 1   35.170792 -5.216520e+01 -1.675
 1133 1   35.184232 -5.074527e+01 -1.675
 1134 1   36.420652 -5.004694e+01 -1.675
 1135 1   33.934372 -5.286353e+01 -1.675
 1136 1   32.711390 -5.214193e+01 -1.675
 1137 1   32.724830 -5.072199e+01 -1.675
 1138 1   33.961250 -5.002366e+01 -1.675
 1139 1   31.474970 -5.284026e+01 -1.675
 1140 1   30.251988 -5.211865e+01 -1.675
 1141 1   30.265428 -5.069871e+01 -1.675
 1142 1   31.501848 -5.000038e+01 -1.675
 1143 1   29.015568 -5.281698e+01 -1.675
 1144 1   27.792586 -5.209537e+01 -1.675
 1145 1   27.806026 -5.067544e+01 -1.675
 1146 1   29.042446 -4.997711e+01 -1.675
 1147 1   26.556166 -5.279370e+01 -1.675
 1148 1   25.333184 -5.207209e+01 -1.675
 1149 1   25.346624 -5.065216e+01 -1.675
 1150 1   26.583044 -4.995383e+01 -1.675
 1151 1   24.096764 -5.277042e+01 -1.675
 1152 1   22.873782 -5.204882e+01 -1.675
 1153 1   22.887222 -5.062888e+01 -1.675
 1154 1   24.123642 -4.993055e+01 -1.675
 1155 1   21.637362 -5.274715e+01 -1.675
 1156 1   20.414380 -5.202554e+01 -1.675
 1157 1   20.427820 -5.060560e+01 -1.675
 1158 1   21.664240 -4.990727e+01 -1.675
 1159 1   19.177960 -5.272387e+01 -1.675
 1160 1   17.954978 -5.200226e+01 -1.675
 1161 1   17.968418 -5.058232e+01 -1.675
 1162 1   19.204838 -4.988400e+01 -1.675
 1163 1   16.718558 -5.270059e+01 -1.675
 1164 1   15.495576 -5.197898e+01 -1.675
 1165 1   15.509016 -5.055905e+01 -1.675
 1166 1   16.745437 -4.986072e+01 -1.675
 1167 1   14.259156 -5.267731e+01 -1.675
 1168 1   13.036174 -5.195571e+01 -1.675
 1169 1   13.049614 -5.053577e+01 -1.675
 1170 1   14.286035 -4.983744e+01 -1.675
 1171 1   11.799754 -5.265404e+01 -1.675
 1172 1   10.576772 -5.193243e+01 -1.675
 1173 1   10.590212 -5.051249e+01 -1.675
 1174 1   11.826633 -4.981416e+01 -1.675
 1175 1    9.340352 -5.263076e+01 -1.675
 1176 1    8.117371 -5.190915e+01 -1.675
 1177 1    8.130810 -5.048921e+01 -1.675
 1178 1    9.367231 -4.979088e+01 -1.675
 1179 1    6.880950 -5.260748e+01 -1.675
 1180 1    5.657969 -5.188587e+01 -1.675
 1181 1    5.671408 -5.046594e+01 -1.675
 1182 1    6.907829 -4.976761e+01 -1.675
 1183 1    4.421548 -5.258420e+01 -1.675
 1184 1    3.198567 -5.186260e+01 -1.675
 1185 1    3.212006 -5.044266e+01 -1.675
 1186 1    4.448427 -4.974433e+01 -1.675
 1187 1    1.962146 -5.256092e+01 -1.675
 1188 1    0.739165 -5.183932e+01 -1.675
 1189 1    0.752604 -5.041938e+01 -1.675
 1190 1    1.989025 -4.972105e+01 -1.675
 1191 1   -0.497256 -5.253765e+01 -1.675
 1192 1   -1.720237 -5.181604e+01 -1.675
 1193 1   -1.706798 -5.039610e+01 -1.675
 1194 1   -0.470377 -4.969777e+01 -1.675
 1195 1   -2.956658 -5.251437e+01 -1.675
 1196 1   -4.179639 -5.179276e+01 -1.675
 1197 1   -4.166200 -5.037283e+01 -1.675
 1198 1   -2.929779 -4.967450e+01 -1.675
 1199 1   -5.416060 -5.249109e+01 -1.675
 1200 1   -6.639041 -5.176948e+01 -1.675
 1201 1   -6.625602 -5.034955e+01 -1.675
 1202 1   -5.389181 -4.965122e+01 -1.675
 1203 1   -7.875462 -5.246781e+01 -1.675
 1204 1   -9.098443 -5.174621e+01 -1.675
 1205 1   -9.085004 -5.032627e+01 -1.675
 1206 1   -7.848583 -4.962794e+01 -1.675
 1207 1  -10.334864 -5.244454e+01 -1.675
 1208 1  -11.557845 -5.172293e+01 -1.675
 1209 1  -11.544406 -5.030299e+01 -1.675
 1210 1  -10.307985 -4.960466e+01 -1.675
 1211 1  -12.794266 -5.242126e+01 -1.675
 1212 1  -14.017247 -5.169965e+01 -1.675
 1213 1  -14.003808 -5.027972e+01 -1.675
 1214 1  -12.767387 -4.958139e+01 -1.675
 1215 1  -15.253668 -5.239798e+01 -1.675
 1216 1  -16.476649 -5.167637e+01 -1.675
 1217 1  -16.463210 -5.025644e+01 -1.675
 1218 1  -15.226789 -4.955811e+01 -1.675
 1219 1  -17.713070 -5.237470e+01 -1.675
 1220 1  -18.936051 -5.165310e+01 -1.675
 1221 1  -18.922612 -5.023316e+01 -1.675
 1222 1  -17.686191 -4.953483e+01 -1.675
 1223 1  -20.172472 -5.235143e+01 -1.675
 1224 1  -21.395453 -5.162982e+01 -1.675
 1225 1  -21.382014 -5.020988e+01 -1.675
 1226 1  -20.145593 -4.951155e+01 -1.675
 1227 1  -22.631874 -5.232815e+01 -1.675
 1228 1  -23.854855 -5.160654e+01 -1.675
 1229 1  -23.841416 -5.018660e+01 -1.675
 1230 1  -22.604995 -4.948828e+01 -1.675
 1231 1  -25.091276 -5.230487e+01 -1.675
 1232 1  -26.314257 -5.158326e+01 -1.675
 1233 1  -26.300818 -5.016333e+01 -1.675
 1234 1  -25.064397 -4.946500e+01 -1.675
 1235 1  -27.550678 -5.228159e+01 -1.675
 1236 1  -28.773659 -5.155999e+01 -1.675
 1237 1  -28.760220 -5.014005e+01 -1.675
 1238 1  -27.523799 -4.944172e+01 -1.675
 1239 1  -30.010080 -5.225832e+01 -1.675
 1240 1  -31.233061 -5.153671e+01 -1.675
 1241 1  -31.219622 -5.011677e+01 -1.675
 1242 1  -29.983201 -4.941844e+01 -1.675
 1243 1  -32.469482 -5.223504e+01 -1.675
 1244 1  -33.692463 -5.151343e+01 -1.675
 1245 1  -33.679024 -5.009349e+01 -1.675
 1246 1  -32.442603 -4.939516e+01 -1.675
 1247 1  -34.928884 -5.221176e+01 -1.675
 1248 1  -36.151865 -5.149015e+01 -1.675
 1249 1  -36.138426 -5.007022e+01 -1.675
 1250 1  -34.902005 -4.937189e+01 -1.675
 1251 1  -37.388286 -5.218848e+01 -1.675
 1252 1  -38.611267 -5.146688e+01 -1.675
 1253 1  -38.597828 -5.004694e+01 -1.675
 1254 1  -37.361407 -4.934861e+01 -1.675
 1255 1  -39.847688 -5.216520e+01 -1.675
 1256 1  -41.070669 -5.144360e+01 -1.675
 1257 1  -41.057230 -5.002366e+01 -1.675
 1258 1  -39.820809 -4.932533e+01 -1.675
 1259 1  -42.307090 -5.214193e+01 -1.675
 1260 1  -43.530071 -5.142032e+01 -1.675
 1261 1  -43.516632 -5.000038e+01 -1.675
 1262 1  -42.280211 -4.930205e+01 -1.675
 1263 1  -44.766492 -5.211865e+01 -1.675
 1264 1  -45.989473 -5.139704e+01 -1.675
 1265 1  -45.976034 -4.997711e+01 -1.675
 1266 1  -44.739613 -4.927878e+01 -1.675
 1267 1  -47.225894 -5.209537e+01 -1.675
 1268 1  -48.448875 -5.137376e+01 -1.675
 1269 1  -48.435436 -4.995383e+01 -1.675
 1270 1  -47.199015 -4.925550e+01 -1.675
 1271 1  -49.685296 -5.207209e+01 -1.675
 1272 1  -50.908277 -5.135049e+01 -1.675
 1273 1  -50.894838 -4.993055e+01 -1.675
 1274 1  -49.658417 -4.923222e+01 -1.675
 1275 1  -52.144698 -5.204882e+01 -1.675
 1276 1  -53.367679 -5.132721e+01 -1.675
 1277 1  -53.354240 -4.990727e+01 -1.675
 1278 1  -52.117819 -4.920894e+01 -1.675
 1279 1  -54.604100 -5.202554e+01 -1.675
 1280 1  -55.827081 -5.130393e+01 -1.675
 1281 1  -55.813642 -4.988400e+01 -1.675
 1282 1  -54.577221 -4.918567e+01 -1.675
 1283 1  -57.063502 -5.200226e+01 -1.675
 1284 1  -58.286483 -5.128065e+01 -1.675
 1285 1  -58.273044 -4.986072e+01 -1.675
 1286 1  -57.036623 -4.916239e+01 -1.675
 1287 1  -59.522904 -5.197898e+01 -1.675
 1288 1  -60.745885 -5.125738e+01 -1.675
 1289 1  -60.732446 -4.983744e+01 -1.675
 1290 1  -59.496025 -4.913911e+01 -1.675
 1291 1  -61.982306 -5.195571e+01 -1.675
 1292 1  -63.205287 -5.123410e+01 -1.675
 1293 1  -63.191848 -4.981416e+01 -1.675
 1294 1  -61.955427 -4.911583e+01 -1.675
 1295 1  -64.441708 -5.193243e+01 -1.675
 1296 1  -65.664689 -5.121082e+01 -1.675
 1297 1  -65.651250 -4.979088e+01 -1.675
 1298 1  -64.414829 -4.909256e+01 -1.675
 1299 1  -66.901110 -5.190915e+01 -1.675
 1300 1  -68.124091 -5.118754e+01 -1.675
 1301 1  -68.110652 -4.976761e+01 -1.675
 1302 1  -66.874231 -4.906928e+01 -1.675
 1303 1  -69.360512 -5.188587e+01 -1.675
 1304 1  -70.583493 -5.116427e+01 -1.675
 1305 1  -70.570054 -4.974433e+01 -1.675
 1306 1  -69.333633 -4.904600e+01 -1.675
 1307 1  -71.819914 -5.186260e+01 -1.675
 1308 1  -73.042895 -5.114099e+01 -1.675
 1309 1  -73.029456 -4.972105e+01 -1.675
 1310 1  -71.793035 -4.902272e+01 -1.675
 1311 1  -74.279316 -5.183932e+01 -1.675
 1312 1  -75.502297 -5.111771e+01 -1.675
 1313 1  -75.488858 -4.969777e+01 -1.675
 1314 1  -74.252437 -4.899944e+01 -1.675
 1315 1  -76.738718 -5.181604e+01 -1.675
 1316 1  -77.961699 -5.109443e+01 -1.675
 1317 1  -77.948260 -4.967450e+01 -1.675
 1318 1  -76.711839 -4.897617e+01 -1.675
 1319 1  -79.198120 -5.179276e+01 -1.675
 1320 1  -80.421101 -5.107116e+01 -1.675
 1321 1  -80.407662 -4.965122e+01 -1.675
 1322 1  -79.171241 -4.895289e+01 -1.675
 1323 1  -81.657522 -5.176948e+01 -1.675
 1324 1  -82.880503 -5.104788e+01 -1.675
 1325 1  -82.867064 -4.962794e+01 -1.675
 1326 1  -81.630643 -4.892961e+01 -1.675
 1327 1  -84.116924 -5.174621e+01 -1.675
 1328 1  -85.339905 -5.102460e+01 -1.675
 1329 1  -85.326466 -4.960466e+01 -1.675
 1330 1  -84.090045 -4.890633e+01 -1.675
 1331 1  -86.576326 -5.172293e+01 -1.675
 1332 1  -87.799307 -5.100132e+01 -1.675
 1333 1  -87.785868 -4.958139e+01 -1.675
 1334 1  -86.549447 -4.888306e+01 -1.675
 1335 1  -89.035728 -5.169965e+01 -1.675
 1336 1  -90.258709 -5.097804e+01 -1.675
 1337 1  -90.245270 -4.955811e+01 -1.675
 1338 1  -89.008849 -4.885978e+01 -1.675
 1339 1  -91.495130 -5.167637e+01 -1.675
 1340 1  -92.718111 -5.095477e+01 -1.675
 1341 1  -92.704672 -4.953483e+01 -1.675
 1342 1  -91.468251 -4.883650e+01 -1.675
 1343 1  -93.954532 -5.165310e+01 -1.675
 1344 1  -95.177513 -5.093149e+01 -1.675
 1345 1  -95.164074 -4.951155e+01 -1.675
 1346 1  -93.927653 -4.881322e+01 -1.675
 1347 1  -96.413934 -5.162982e+01 -1.675
 1348 1  -97.636915 -5.090821e+01 -1.675
 1349 1  -97.623476 -4.948828e+01 -1.675
 1350 1  -96.387055 -4.878995e+01 -1.675
 1351 1  -98.873336 -5.160654e+01 -1.675
 1352 1 -100.096317 -5.088493e+01 -1.675
 1353 1 -100.082878 -4.946500e+01 -1.675
 1354 1  -98.846457 -4.876667e+01 -1.675
 1355 1 -101.332738 -5.158326e+01 -1.675
 1356 1 -102.555719 -5.086166e+01 -1.675
 1357 1 -102.542280 -4.944172e+01 -1.675
 1358 1 -101.305859 -4.874339e+01 -1.675
 1359 1 -103.792140 -5.155999e+01 -1.675
 1360 1 -105.015121 -5.083838e+01 -1.675
 1361 1 -105.001682 -4.941844e+01 -1.675
 1362 1 -103.765261 -4.872011e+01 -1.675
 1363 1 -106.251542 -5.153671e+01 -1.675
 1364 1 -107.474523 -5.081510e+01 -1.675
 1365 1 -107.461084 -4.939516e+01 -1.675
 1366 1 -106.224663 -4.869684e+01 -1.675
 1367 1 -108.710944 -5.151343e+01 -1.675
 1368 1 -109.933925 -5.079182e+01 -1.675
 1369 1 -109.920486 -4.937189e+01 -1.675
 1370 1 -108.684065 -4.867356e+01 -1.675
 1371 1 -111.170346 -5.149015e+01 -1.675
 1372 1 -112.393327 -5.076855e+01 -1.675
 1373 1 -112.379888 -4.934861e+01 -1.675
 1374 1 -111.143467 -4.865028e+01 -1.675
 1375 1  111.452572 -4.862700e+01 -1.675
 1376 1  111.466012 -4.720707e+01 -1.675
 1377 1  110.216152 -4.932533e+01 -1.675
 1378 1  108.993170 -4.860372e+01 -1.675
 1379 1  109.006610 -4.718379e+01 -1.675
 1380 1  110.243030 -4.648546e+01 -1.675
 1381 1  107.756750 -4.930205e+01 -1.675
 1382 1  106.533768 -4.858045e+01 -1.675
 1383 1  106.547208 -4.716051e+01 -1.675
 1384 1  107.783628 -4.646218e+01 -1.675
 1385 1  105.297348 -4.927878e+01 -1.675
 1386 1  104.074366 -4.855717e+01 -1.675
 1387 1  104.087806 -4.713723e+01 -1.675
 1388 1  105.324226 -4.643890e+01 -1.675
 1389 1  102.837946 -4.925550e+01 -1.675
 1390 1  101.614964 -4.853389e+01 -1.675
 1391 1  101.628404 -4.711396e+01 -1.675
 1392 1  102.864824 -4.641563e+01 -1.675
 1393 1  100.378544 -4.923222e+01 -1.675
 1394 1   99.155562 -4.851061e+01 -1.675
 1395 1   99.169002 -4.709068e+01 -1.675
 1396 1  100.405422 -4.639235e+01 -1.675
 1397 1   97.919142 -4.920894e+01 -1.675
 1398 1   96.696160 -4.848734e+01 -1.675
 1399 1   96.709600 -4.706740e+01 -1.675
 1400 1   97.946020 -4.636907e+01 -1.675
 1401 1   95.459740 -4.918567e+01 -1.675
 1402 1   94.236758 -4.846406e+01 -1.675
 1403 1   94.250198 -4.704412e+01 -1.675
 1404 1   95.486618 -4.634579e+01 -1.675
 1405 1   93.000338 -4.916239e+01 -1.675
 1406 1   91.777356 -4.844078e+01 -1.675
 1407 1   91.790796 -4.702084e+01 -1.675
 1408 1   93.027216 -4.632252e+01 -1.675
 1409 1   90.540936 -4.913911e+01 -1.675
 1410 1   89.317954 -4.841750e+01 -1.675
 1411 1   89.331394 -4.699757e+01 -1.675
 1412 1   90.567814 -4.629924e+01 -1.675
 1413 1   88.081534 -4.911583e+01 -1.675
 1414 1   86.858552 -4.839423e+01 -1.675
 1415 1   86.871992 -4.697429e+01 -1.675
 1416 1   88.108412 -4.627596e+01 -1.675
 1417 1   85.622132 -4.909256e+01 -1.675
 1418 1   84.399150 -4.837095e+01 -1.675
 1419 1   84.412590 -4.695101e+01 -1.675
 1420 1   85.649010 -4.625268e+01 -1.675
 1421 1   83.162730 -4.906928e+01 -1.675
 1422 1   81.939748 -4.834767e+01 -1.675
 1423 1   81.953188 -4.692773e+01 -1.675
 1424 1   83.189608 -4.622940e+01 -1.675
 1425 1   80.703328 -4.904600e+01 -1.675
 1426 1   79.480346 -4.832439e+01 -1.675
 1427 1   79.493786 -4.690446e+01 -1.675
 1428 1   80.730206 -4.620613e+01 -1.675
 1429 1   78.243926 -4.902272e+01 -1.675
 1430 1   77.020944 -4.830112e+01 -1.675
 1431 1   77.034384 -4.688118e+01 -1.675
 1432 1   78.270804 -4.618285e+01 -1.675
 1433 1   75.784524 -4.899944e+01 -1.675
 1434 1   74.561542 -4.827784e+01 -1.675
 1435 1   74.574982 -4.685790e+01 -1.675
 1436 1   75.811402 -4.615957e+01 -1.675
 1437 1   73.325122 -4.897617e+01 -1.675
 1438 1   72.102140 -4.825456e+01 -1.675
 1439 1   72.115580 -4.683462e+01 -1.675
 1440 1   73.352000 -4.613629e+01 -1.675
 1441 1   70.865720 -4.895289e+01 -1.675
 1442 1   69.642738 -4.823128e+01 -1.675
 1443 1   69.656178 -4.681135e+01 -1.675
 1444 1   70.892598 -4.611302e+01 -1.675
 1445 1   68.406318 -4.892961e+01 -1.675
 1446 1   67.183336 -4.820800e+01 -1.675
 1447 1   67.196776 -4.678807e+01 -1.675
 1448 1   68.433196 -4.608974e+01 -1.675
 1449 1   65.946916 -4.890633e+01 -1.675
 1450 1   64.723934 -4.818473e+01 -1.675
 1451 1   64.737374 -4.676479e+01 -1.675
 1452 1   65.973794 -4.606646e+01 -1.675
 1453 1   63.487514 -4.888306e+01 -1.675
 1454 1   62.264532 -4.816145e+01 -1.675
 1455 1   62.277972 -4.674151e+01 -1.675
 1456 1   63.514392 -4.604318e+01 -1.675
 1457 1   61.028112 -4.885978e+01 -1.675
 1458 1   59.805130 -4.813817e+01 -1.675
 1459 1   59.818570 -4.671824e+01 -1.675
 1460 1   61.054990 -4.601991e+01 -1.675
 1461 1   58.568710 -4.883650e+01 -1.675
 1462 1   57.345728 -4.811489e+01 -1.675
 1463 1   57.359168 -4.669496e+01 -1.675
 1464 1   58.595588 -4.599663e+01 -1.675
 1465 1   56.109308 -4.881322e+01 -1.675
 1466 1   54.886326 -4.809162e+01 -1.675
 1467 1   54.899766 -4.667168e+01 -1.675
 1468 1   56.136186 -4.597335e+01 -1.675
 1469 1   53.649906 -4.878995e+01 -1.675
 1470 1   52.426924 -4.806834e+01 -1.675
 1471 1   52.440364 -4.664840e+01 -1.675
 1472 1   53.676784 -4.595007e+01 -1.675
 1473 1   51.190504 -4.876667e+01 -1.675
 1474 1   49.967522 -4.804506e+01 -1.675
 1475 1   49.980962 -4.662512e+01 -1.675
 1476 1   51.217382 -4.592680e+01 -1.675
 1477 1   48.731102 -4.874339e+01 -1.675
 1478 1   47.508120 -4.802178e+01 -1.675
 1479 1   47.521560 -4.660185e+01 -1.675
 1480 1   48.757980 -4.590352e+01 -1.675
 1481 1   46.271700 -4.872011e+01 -1.675
 1482 1   45.048718 -4.799851e+01 -1.675
 1483 1   45.062158 -4.657857e+01 -1.675
 1484 1   46.298578 -4.588024e+01 -1.675
 1485 1   43.812298 -4.869684e+01 -1.675
 1486 1   42.589316 -4.797523e+01 -1.675
 1487 1   42.602756 -4.655529e+01 -1.675
 1488 1   43.839176 -4.585696e+01 -1.675
 1489 1   41.352896 -4.867356e+01 -1.675
 1490 1   40.129914 -4.795195e+01 -1.675
 1491 1   40.143354 -4.653201e+01 -1.675
 1492 1   41.379774 -4.583368e+01 -1.675
 1493 1   38.893494 -4.865028e+01 -1.675
 1494 1   37.670512 -4.792867e+01 -1.675
 1495 1   37.683952 -4.650874e+01 -1.675
 1496 1   38.920372 -4.581041e+01 -1.675
 1497 1   36.434092 -4.862700e+01 -1.675
 1498 1   35.211110 -4.790540e+01 -1.675
 1499 1   35.224550 -4.648546e+01 -1.675
 1500 1   36.460970 -4.578713e+01 -1.675
 1501 1   33.974690 -4.860372e+01 -1.675
 1502 1   32.751708 -4.788212e+01 -1.675
 1503 1   32.765148 -4.646218e+01 -1.675
 1504 1   34.001569 -4.576385e+01 -1.675
 1505 1   31.515288 -4.858045e+01 -1.675
 1506 1   30.292306 -4.785884e+01 -1.675
 1507 1   30.305746 -4.643890e+01 -1.675
 1508 1   31.542167 -4.574057e+01 -1.675
 1509 1   29.055886 -4.855717e+01 -1.675
 1510 1   27.832904 -4.783556e+01 -1.675
 1511 1   27.846344 -4.641563e+01 -1.675
 1512 1   29.082765 -4.571730e+01 -1.675
 1513 1   26.596484 -4.853389e+01 -1.675
 1514 1   25.373503 -4.781228e+01 -1.675
 1515 1   25.386942 -4.639235e+01 -1.675
 1516 1   26.623363 -4.569402e+01 -1.675
 1517 1   24.137082 -4.851061e+01 -1.675
 1518 1   22.914101 -4.778901e+01 -1.675
 1519 1   22.927540 -4.636907e+01 -1.675
 1520 1   24.163961 -4.567074e+01 -1.675
 1521 1   21.677680 -4.848734e+01 -1.675
 1522 1   20.454699 -4.776573e+01 -1.675
 1523 1   20.468138 -4.634579e+01 -1.675
 1524 1   21.704559 -4.564746e+01 -1.675
 1525 1   19.218278 -4.846406e+01 -1.675
 1526 1   17.995297 -4.774245e+01 -1.675
 1527 1   18.008736 -4.632252e+01 -1.675
 1528 1   19.245157 -4.562419e+01 -1.675
 1529 1   16.758876 -4.844078e+01 -1.675
 1530 1   15.535895 -4.771917e+01 -1.675
 1531 1   15.549334 -4.629924e+01 -1.675
 1532 1   16.785755 -4.560091e+01 -1.675
 1533 1   14.299474 -4.841750e+01 -1.675
 1534 1   13.076493 -4.769590e+01 -1.675
 1535 1   13.089932 -4.627596e+01 -1.675
 1536 1   14.326353 -4.557763e+01 -1.675
 1537 1   11.840072 -4.839423e+01 -1.675
 1538 1   10.617091 -4.767262e+01 -1.675
 1539 1   10.630530 -4.625268e+01 -1.675
 1540 1   11.866951 -4.555435e+01 -1.675
 1541 1    9.380670 -4.837095e+01 -1.675
 1542 1    8.157689 -4.764934e+01 -1.675
 1543 1    8.171128 -4.622940e+01 -1.675
 1544 1    9.407549 -4.553108e+01 -1.675
 1545 1    6.921268 -4.834767e+01 -1.675
 1546 1    5.698287 -4.762606e+01 -1.675
 1547 1    5.711726 -4.620613e+01 -1.675
 1548 1    6.948147 -4.550780e+01 -1.675
 1549 1    4.461866 -4.832439e+01 -1.675
 1550 1    3.238885 -4.760279e+01 -1.675
 1551 1    3.252324 -4.618285e+01 -1.675
 1552 1    4.488745 -4.548452e+01 -1.675
 1553 1    2.002464 -4.830112e+01 -1.675
 1554 1    0.779483 -4.757951e+01 -1.675
 1555 1    0.792922 -4.615957e+01 -1.675
 1556 1    2.029343 -4.546124e+01 -1.675
 1557 1   -0.456938 -4.827784e+01 -1.675
 1558 1   -1.679919 -4.755623e+01 -1.675
 1559 1   -1.666480 -4.613629e+01 -1.675
 1560 1   -0.430059 -4.543796e+01 -1.675
 1561 1   -2.916340 -4.825456e+01 -1.675
 1562 1   -4.139321 -4.753295e+01 -1.675
 1563 1   -4.125882 -4.611302e+01 -1.675
 1564 1   -2.889461 -4.541469e+01 -1.675
 1565 1   -5.375742 -4.823128e+01 -1.675
 1566 1   -6.598723 -4.750968e+01 -1.675
 1567 1   -6.585284 -4.608974e+01 -1.675
 1568 1   -5.348863 -4.539141e+01 -1.675
 1569 1   -7.835144 -4.820800e+01 -1.675
 1570 1   -9.058125 -4.748640e+01 -1.675
 1571 1   -9.044686 -4.606646e+01 -1.675
 1572 1   -7.808265 -4.536813e+01 -1.675
 1573 1  -10.294546 -4.818473e+01 -1.675
 1574 1  -11.517527 -4.746312e+01 -1.675
 1575 1  -11.504088 -4.604318e+01 -1.675
 1576 1  -10.267667 -4.534485e+01 -1.675
 1577 1  -12.753948 -4.816145e+01 -1.675
 1578 1  -13.976929 -4.743984e+01 -1.675
 1579 1  -13.963490 -4.601991e+01 -1.675
 1580 1  -12.727069 -4.532158e+01 -1.675
 1581 1  -15.213350 -4.813817e+01 -1.675
 1582 1  -16.436331 -4.741656e+01 -1.675
 1583 1  -16.422892 -4.599663e+01 -1.675
 1584 1  -15.186471 -4.529830e+01 -1.675
 1585 1  -17.672752 -4.811489e+01 -1.675
 1586 1  -18.895733 -4.739329e+01 -1.675
 1587 1  -18.882294 -4.597335e+01 -1.675
 1588 1  -17.645873 -4.527502e+01 -1.675
 1589 1  -20.132154 -4.809162e+01 -1.675
 1590 1  -21.355135 -4.737001e+01 -1.675
 1591 1  -21.341696 -4.595007e+01 -1.675
 1592 1  -20.105275 -4.525174e+01 -1.675
 1593 1  -22.591556 -4.806834e+01 -1.675
 1594 1  -23.814537 -4.734673e+01 -1.675
 1595 1  -23.801098 -4.592680e+01 -1.675
 1596 1  -22.564677 -4.522847e+01 -1.675
 1597 1  -25.050958 -4.804506e+01 -1.675
 1598 1  -26.273939 -4.732345e+01 -1.675
 1599 1  -26.260500 -4.590352e+01 -1.675
 1600 1  -25.024079 -4.520519e+01 -1.675
 1601 1  -27.510360 -4.802178e+01 -1.675
 1602 1  -28.733341 -4.730018e+01 -1.675
 1603 1  -28.719902 -4.588024e+01 -1.675
 1604 1  -27.483481 -4.518191e+01 -1.675
 1605 1  -29.969762 -4.799851e+01 -1.675
 1606 1  -31.192743 -4.727690e+01 -1.675
 1607 1  -31.179304 -4.585696e+01 -1.675
 1608 1  -29.942883 -4.515863e+01 -1.675
 1609 1  -32.429164 -4.797523e+01 -1.675
 1610 1  -33.652145 -4.725362e+01 -1.675
 1611 1  -33.638706 -4.583368e+01 -1.675
 1612 1  -32.402285 -4.513536e+01 -1.675
 1613 1  -34.888566 -4.795195e+01 -1.675
 1614 1  -36.111547 -4.723034e+01 -1.675
 1615 1  -36.098108 -4.581041e+01 -1.675
 1616 1  -34.861687 -4.511208e+01 -1.675
 1617 1  -37.347968 -4.792867e+01 -1.675
 1618 1  -38.570949 -4.720707e+01 -1.675
 1619 1  -38.557510 -4.578713e+01 -1.675
 1620 1  -37.321089 -4.508880e+01 -1.675
 1621 1  -39.807370 -4.790540e+01 -1.675
 1622 1  -41.030351 -4.718379e+01 -1.675
 1623 1  -41.016912 -4.576385e+01 -1.675
 1624 1  -39.780491 -4.506552e+01 -1.675
 1625 1  -42.266772 -4.788212e+01 -1.675
 1626 1  -43.489753 -4.716051e+01 -1.675
 1627 1  -43.476314 -4.574057e+01 -1.675
 1628 1  -42.239893 -4.504224e+01 -1.675
 1629 1  -44.726174 -4.785884e+01 -1.675
 1630 1  -45.949155 -4.713723e+01 -1.675
 1631 1  -45.935716 -4.571730e+01 -1.675
 1632 1  -44.699295 -4.501897e+01 -1.675
 1633 1  -47.185576 -4.783556e+01 -1.675
 1634 1  -48.408557 -4.711396e+01 -1.675
 1635 1  -48.395118 -4.569402e+01 -1.675
 1636 1  -47.158697 -4.499569e+01 -1.675
 1637 1  -49.644978 -4.781228e+01 -1.675
 1638 1  -50.867959 -4.709068e+01 -1.675
 1639 1  -50.854520 -4.567074e+01 -1.675
 1640 1  -49.618099 -4.497241e+01 -1.675
 1641 1  -52.104380 -4.778901e+01 -1.675
 1642 1  -53.327361 -4.706740e+01 -1.675
 1643 1  -53.313922 -4.564746e+01 -1.675
 1644 1  -52.077501 -4.494913e+01 -1.675
 1645 1  -54.563782 -4.776573e+01 -1.675
 1646 1  -55.786763 -4.704412e+01 -1.675
 1647 1  -55.773324 -4.562419e+01 -1.675
 1648 1  -54.536903 -4.492586e+01 -1.675
 1649 1  -57.023184 -4.774245e+01 -1.675
 1650 1  -58.246165 -4.702084e+01 -1.675
 1651 1  -58.232726 -4.560091e+01 -1.675
 1652 1  -56.996305 -4.490258e+01 -1.675
 1653 1  -59.482586 -4.771917e+01 -1.675
 1654 1  -60.705567 -4.699757e+01 -1.675
 1655 1  -60.692128 -4.557763e+01 -1.675
 1656 1  -59.455707 -4.487930e+01 -1.675
 1657 1  -61.941988 -4.769590e+01 -1.675
 1658 1  -63.164969 -4.697429e+01 -1.675
 1659 1  -63.151530 -4.555435e+01 -1.675
 1660 1  -61.915109 -4.485602e+01 -1.675
 1661 1  -64.401390 -4.767262e+01 -1.675
 1662 1  -65.624371 -4.695101e+01 -1.675
 1663 1  -65.610932 -4.553108e+01 -1.675
 1664 1  -64.374511 -4.483275e+01 -1.675
 1665 1  -66.860792 -4.764934e+01 -1.675
 1666 1  -68.083773 -4.692773e+01 -1.675
 1667 1  -68.070334 -4.550780e+01 -1.675
 1668 1  -66.833913 -4.480947e+01 -1.675
 1669 1  -69.320194 -4.762606e+01 -1.675
 1670 1  -70.543175 -4.690446e+01 -1.675
 1671 1  -70.529736 -4.548452e+01 -1.675
 1672 1  -69.293315 -4.478619e+01 -1.675
 1673 1  -71.779596 -4.760279e+01 -1.675
 1674 1  -73.002577 -4.688118e+01 -1.675
 1675 1  -72.989138 -4.546124e+01 -1.675
 1676 1  -71.752717 -4.476291e+01 -1.675
 1677 1  -74.238998 -4.757951e+01 -1.675
 1678 1  -75.461979 -4.685790e+01 -1.675
 1679 1  -75.448540 -4.543796e+01 -1.675
 1680 1  -74.212119 -4.473964e+01 -1.675
 1681 1  -76.698400 -4.755623e+01 -1.675
 1682 1  -77.921381 -4.683462e+01 -1.675
 1683 1  -77.907942 -4.541469e+01 -1.675
 1684 1  -76.671521 -4.471636e+01 -1.675
 1685 1  -79.157802 -4.753295e+01 -1.675
 1686 1  -80.380783 -4.681135e+01 -1.675
 1687 1  -80.367344 -4.539141e+01 -1.675
 1688 1  -79.130923 -4.469308e+01 -1.675
 1689 1  -81.617204 -4.750968e+01 -1.675
 1690 1  -82.840185 -4.678807e+01 -1.675
 1691 1  -82.826746 -4.536813e+01 -1.675
 1692 1  -81.590325 -4.466980e+01 -1.675
 1693 1  -84.076606 -4.748640e+01 -1.675
 1694 1  -85.299587 -4.676479e+01 -1.675
 1695 1  -85.286148 -4.534485e+01 -1.675
 1696 1  -84.049727 -4.464652e+01 -1.675
 1697 1  -86.536008 -4.746312e+01 -1.675
 1698 1  -87.758989 -4.674151e+01 -1.675
 1699 1  -87.745550 -4.532158e+01 -1.675
 1700 1  -86.509129 -4.462325e+01 -1.675
 1701 1  -88.995410 -4.743984e+01 -1.675
 1702 1  -90.218391 -4.671824e+01 -1.675
 1703 1  -90.204952 -4.529830e+01 -1.675
 1704 1  -88.968531 -4.459997e+01 -1.675
 1705 1  -91.454812 -4.741656e+01 -1.675
 1706 1  -92.677793 -4.669496e+01 -1.675
 1707 1  -92.664354 -4.527502e+01 -1.675
 1708 1  -91.427933 -4.457669e+01 -1.675
 1709 1  -93.914214 -4.739329e+01 -1.675
 1710 1  -95.137195 -4.667168e+01 -1.675
 1711 1  -95.123756 -4.525174e+01 -1.675
 1712 1  -93.887335 -4.455341e+01 -1.675
 1713 1  -96.373616 -4.737001e+01 -1.675
 1714 1  -97.596597 -4.664840e+01 -1.675
 1715 1  -97.583158 -4.522847e+01 -1.675
 1716 1  -96.346737 -4.453014e+01 -1.675
 1717 1  -98.833018 -4.734673e+01 -1.675
 1718 1 -100.055999 -4.662512e+01 -1.675
 1719 1 -100.042560 -4.520519e+01 -1.675
 1720 1  -98.806139 -4.450686e+01 -1.675
 1721 1 -101.292420 -4.732345e+01 -1.675
 1722 1 -102.515401 -4.660185e+01 -1.675
 1723 1 -102.501962 -4.518191e+01 -1.675
 1724 1 -101.265541 -4.448358e+01 -1.675
 1725 1 -103.751822 -4.730018e+01 -1.675
 1726 1 -104.974803 -4.657857e+01 -1.675
 1727 1 -104.961364 -4.515863e+01 -1.675
 1728 1 -103.724943 -4.446030e+01 -1.675
 1729 1 -106.211224 -4.727690e+01 -1.675
 1730 1 -107.434205 -4.655529e+01 -1.675
 1731 1 -107.420766 -4.513536e+01 -1.675
 1732 1 -106.184345 -4.443703e+01 -1.675
 1733 1 -108.670626 -4.725362e+01 -1.675
 1734 1 -109.893607 -4.653201e+01 -1.675
 1735 1 -109.880168 -4.511208e+01 -1.675
 1736 1 -108.643747 -4.441375e+01 -1.675
 1737 1 -111.130028 -4.723034e+01 -1.675
 1738 1 -112.353009 -4.650874e+01 -1.675
 1739 1 -112.339570 -4.508880e+01 -1.675
 1740 1 -111.103149 -4.439047e+01 -1.675
 1741 1  111.492890 -4.436719e+01 -1.675
 1742 1  111.506330 -4.294726e+01 -1.675
 1743 1  110.256470 -4.506552e+01 -1.675
 1744 1  109.033488 -4.434392e+01 -1.675
 1745 1  109.046928 -4.292398e+01 -1.675
 1746 1  110.283348 -4.222565e+01 -1.675
 1747 1  107.797068 -4.504224e+01 -1.675
 1748 1  106.574086 -4.432064e+01 -1.675
 1749 1  106.587526 -4.290070e+01 -1.675
 1750 1  107.823946 -4.220237e+01 -1.675
 1751 1  105.337666 -4.501897e+01 -1.675
 1752 1  104.114684 -4.429736e+01 -1.675
 1753 1  104.128124 -4.287742e+01 -1.675
 1754 1  105.364544 -4.217909e+01 -1.675
 1755 1  102.878264 -4.499569e+01 -1.675
 1756 1  101.655282 -4.427408e+01 -1.675
 1757 1  101.668722 -4.285415e+01 -1.675
 1758 1  102.905142 -4.215582e+01 -1.675
 1759 1  100.418862 -4.497241e+01 -1.675
 1760 1   99.195880 -4.425080e+01 -1.675
 1761 1   99.209320 -4.283087e+01 -1.675
 1762 1  100.445740 -4.213254e+01 -1.675
 1763 1   97.959460 -4.494913e+01 -1.675
 1764 1   96.736478 -4.422753e+01 -1.675
 1765 1   96.749918 -4.280759e+01 -1.675
 1766 1   97.986338 -4.210926e+01 -1.675
 1767 1   95.500058 -4.492586e+01 -1.675
 1768 1   94.277076 -4.420425e+01 -1.675
 1769 1   94.290516 -4.278431e+01 -1.675
 1770 1   95.526936 -4.208598e+01 -1.675
 1771 1   93.040656 -4.490258e+01 -1.675
 1772 1   91.817674 -4.418097e+01 -1.675
 1773 1   91.831114 -4.276104e+01 -1.675
 1774 1   93.067534 -4.206271e+01 -1.675
 1775 1   90.581254 -4.487930e+01 -1.675
 1776 1   89.358272 -4.415769e+01 -1.675
 1777 1   89.371712 -4.273776e+01 -1.675
 1778 1   90.608132 -4.203943e+01 -1.675
 1779 1   88.121852 -4.485602e+01 -1.675
 1780 1   86.898870 -4.413442e+01 -1.675
 1781 1   86.912310 -4.271448e+01 -1.675
 1782 1   88.148730 -4.201615e+01 -1.675
 1783 1   85.662450 -4.483275e+01 -1.675
 1784 1   84.439468 -4.411114e+01 -1.675
 1785 1   84.452908 -4.269120e+01 -1.675
 1786 1   85.689328 -4.199287e+01 -1.675
 1787 1   83.203048 -4.480947e+01 -1.675
 1788 1   81.980066 -4.408786e+01 -1.675
 1789 1   81.993506 -4.266792e+01 -1.675
 1790 1   83.229926 -4.196960e+01 -1.675
 1791 1   80.743646 -4.478619e+01 -1.675
 1792 1   79.520664 -4.406458e+01 -1.675
 1793 1   79.534104 -4.264465e+01 -1.675
 1794 1   80.770524 -4.194632e+01 -1.675
 1795 1   78.284244 -4.476291e+01 -1.675
 1796 1   77.061262 -4.404131e+01 -1.675
 1797 1   77.074702 -4.262137e+01 -1.675
 1798 1   78.311122 -4.192304e+01 -1.675
 1799 1   75.824842 -4.473964e+01 -1.675
 1800 1   74.601860 -4.401803e+01 -1.675
 1801 1   74.615300 -4.259809e+01 -1.675
 1802 1   75.851720 -4.189976e+01 -1.675
 1803 1   73.365440 -4.471636e+01 -1.675
 1804 1   72.142458 -4.399475e+01 -1.675
 1805 1   72.155898 -4.257481e+01 -1.675
 1806 1   73.392318 -4.187649e+01 -1.675
 1807 1   70.906038 -4.469308e+01 -1.675
 1808 1   69.683056 -4.397147e+01 -1.675
 1809 1   69.696496 -4.255154e+01 -1.675
 1810 1   70.932916 -4.185321e+01 -1.675
 1811 1   68.446636 -4.466980e+01 -1.675
 1812 1   67.223654 -4.394820e+01 -1.675
 1813 1   67.237094 -4.252826e+01 -1.675
 1814 1   68.473514 -4.182993e+01 -1.675
 1815 1   65.987234 -4.464652e+01 -1.675
 1816 1   64.764252 -4.392492e+01 -1.675
 1817 1   64.777692 -4.250498e+01 -1.675
 1818 1   66.014112 -4.180665e+01 -1.675
 1819 1   63.527832 -4.462325e+01 -1.675
 1820 1   62.304850 -4.390164e+01 -1.675
 1821 1   62.318290 -4.248170e+01 -1.675
 1822 1   63.554710 -4.178337e+01 -1.675
 1823 1   61.068430 -4.459997e+01 -1.675
 1824 1   59.845448 -4.387836e+01 -1.675
 1825 1   59.858888 -4.245843e+01 -1.675
 1826 1   61.095308 -4.176010e+01 -1.675
 1827 1   58.609028 -4.457669e+01 -1.675
 1828 1   57.386046 -4.385508e+01 -1.675
 1829 1   57.399486 -4.243515e+01 -1.675
 1830 1   58.635906 -4.173682e+01 -1.675
 1831 1   56.149626 -4.455341e+01 -1.675
 1832 1   54.926644 -4.383181e+01 -1.675
 1833 1   54.940084 -4.241187e+01 -1.675
 1834 1   56.176504 -4.171354e+01 -1.675
 1835 1   53.690224 -4.453014e+01 -1.675
 1836 1   52.467242 -4.380853e+01 -1.675
 1837 1   52.480682 -4.238859e+01 -1.675
 1838 1   53.717102 -4.169026e+01 -1.675
 1839 1   51.230822 -4.450686e+01 -1.675
 1840 1   50.007840 -4.378525e+01 -1.675
 1841 1   50.021280 -4.236532e+01 -1.675
 1842 1   51.257701 -4.166699e+01 -1.675
 1843 1   48.771420 -4.448358e+01 -1.675
 1844 1   47.548438 -4.376197e+01 -1.675
 1845 1   47.561878 -4.234204e+01 -1.675
 1846 1   48.798299 -4.164371e+01 -1.675
 1847 1   46.312018 -4.446030e+01 -1.675
 1848 1   45.089036 -4.373870e+01 -1.675
 1849 1   45.102476 -4.231876e+01 -1.675
 1850 1   46.338897 -4.162043e+01 -1.675
 1851 1   43.852616 -4.443703e+01 -1.675
 1852 1   42.629635 -4.371542e+01 -1.675
 1853 1   42.643074 -4.229548e+01 -1.675
 1854 1   43.879495 -4.159715e+01 -1.675
 1855 1   41.393214 -4.441375e+01 -1.675
 1856 1   40.170233 -4.369214e+01 -1.675
 1857 1   40.183672 -4.227220e+01 -1.675
 1858 1   41.420093 -4.157388e+01 -1.675
 1859 1   38.933812 -4.439047e+01 -1.675
 1860 1   37.710831 -4.366886e+01 -1.675
 1861 1   37.724270 -4.224893e+01 -1.675
 1862 1   38.960691 -4.155060e+01 -1.675
 1863 1   36.474410 -4.436719e+01 -1.675
 1864 1   35.251429 -4.364559e+01 -1.675
 1865 1   35.264868 -4.222565e+01 -1.675
 1866 1   36.501289 -4.152732e+01 -1.675
 1867 1   34.015008 -4.434392e+01 -1.675
 1868 1   32.792027 -4.362231e+01 -1.675
 1869 1   32.805466 -4.220237e+01 -1.675
 1870 1   34.041887 -4.150404e+01 -1.675
 1871 1   31.555606 -4.432064e+01 -1.675
 1872 1   30.332625 -4.359903e+01 -1.675
 1873 1   30.346064 -4.217909e+01 -1.675
 1874 1   31.582485 -4.148077e+01 -1.675
 1875 1   29.096204 -4.429736e+01 -1.675
 1876 1   27.873223 -4.357575e+01 -1.675
 1877 1   27.886662 -4.215582e+01 -1.675
 1878 1   29.123083 -4.145749e+01 -1.675
 1879 1   26.636802 -4.427408e+01 -1.675
 1880 1   25.413821 -4.355248e+01 -1.675
 1881 1   25.427260 -4.213254e+01 -1.675
 1882 1   26.663681 -4.143421e+01 -1.675
 1883 1   24.177400 -4.425080e+01 -1.675
 1884 1   22.954419 -4.352920e+01 -1.675
 1885 1   22.967858 -4.210926e+01 -1.675
 1886 1   24.204279 -4.141093e+01 -1.675
 1887 1   21.717998 -4.422753e+01 -1.675
 1888 1   20.495017 -4.350592e+01 -1.675
 1889 1   20.508456 -4.208598e+01 -1.675
 1890 1   21.744877 -4.138765e+01 -1.675
 1891 1   19.258596 -4.420425e+01 -1.675
 1892 1   18.035615 -4.348264e+01 -1.675
 1893 1   18.049054 -4.206271e+01 -1.675
 1894 1   19.285475 -4.136438e+01 -1.675
 1895 1   16.799194 -4.418097e+01 -1.675
 1896 1   15.576213 -4.345936e+01 -1.675
 1897 1   15.589652 -4.203943e+01 -1.675
 1898 1   16.826073 -4.134110e+01 -1.675
 1899 1   14.339792 -4.415769e+01 -1.675
 1900 1   13.116811 -4.343609e+01 -1.675
 1901 1   13.130250 -4.201615e+01 -1.675
 1902 1   14.366671 -4.131782e+01 -1.675
 1903 1   11.880390 -4.413442e+01 -1.675
 1904 1   10.657409 -4.341281e+01 -1.675
 1905 1   10.670848 -4.199287e+01 -1.675
 1906 1   11.907269 -4.129454e+01 -1.675
 1907 1    9.420988 -4.411114e+01 -1.675
 1908 1    8.198007 -4.338953e+01 -1.675
 1909 1    8.211446 -4.196960e+01 -1.675
 1910 1    9.447867 -4.127127e+01 -1.675
 1911 1    6.961586 -4.408786e+01 -1.675
 1912 1    5.738605 -4.336625e+01 -1.675
 1913 1    5.752044 -4.194632e+01 -1.675
 1914 1    6.988465 -4.124799e+01 -1.675
 1915 1    4.502184 -4.406458e+01 -1.675
 1916 1    3.279203 -4.334298e+01 -1.675
 1917 1    3.292642 -4.192304e+01 -1.675
 1918 1    4.529063 -4.122471e+01 -1.675
 1919 1    2.042782 -4.404131e+01 -1.675
 1920 1    0.819801 -4.331970e+01 -1.675
 1921 1    0.833240 -4.189976e+01 -1.675
 1922 1    2.069661 -4.120143e+01 -1.675
 1923 1   -0.416620 -4.401803e+01 -1.675
 1924 1   -1.639601 -4.329642e+01 -1.675
 1925 1   -1.626162 -4.187649e+01 -1.675
 1926 1   -0.389741 -4.117816e+01 -1.675
 1927 1   -2.876022 -4.399475e+01 -1.675
 1928 1   -4.099003 -4.327314e+01 -1.675
 1929 1   -4.085564 -4.185321e+01 -1.675
 1930 1   -2.849143 -4.115488e+01 -1.675
 1931 1   -5.335424 -4.397147e+01 -1.675
 1932 1   -6.558405 -4.324987e+01 -1.675
 1933 1   -6.544966 -4.182993e+01 -1.675
 1934 1   -5.308545 -4.113160e+01 -1.675
 1935 1   -7.794826 -4.394820e+01 -1.675
 1936 1   -9.017807 -4.322659e+01 -1.675
 1937 1   -9.004368 -4.180665e+01 -1.675
 1938 1   -7.767947 -4.110832e+01 -1.675
 1939 1  -10.254228 -4.392492e+01 -1.675
 1940 1  -11.477209 -4.320331e+01 -1.675
 1941 1  -11.463770 -4.178337e+01 -1.675
 1942 1  -10.227349 -4.108505e+01 -1.675
 1943 1  -12.713630 -4.390164e+01 -1.675
 1944 1  -13.936611 -4.318003e+01 -1.675
 1945 1  -13.923172 -4.176010e+01 -1.675
 1946 1  -12.686751 -4.106177e+01 -1.675
 1947 1  -15.173032 -4.387836e+01 -1.675
 1948 1  -16.396013 -4.315676e+01 -1.675
 1949 1  -16.382574 -4.173682e+01 -1.675
 1950 1  -15.146153 -4.103849e+01 -1.675
 1951 1  -17.632434 -4.385508e+01 -1.675
 1952 1  -18.855415 -4.313348e+01 -1.675
 1953 1  -18.841976 -4.171354e+01 -1.675
 1954 1  -17.605555 -4.101521e+01 -1.675
 1955 1  -20.091836 -4.383181e+01 -1.675
 1956 1  -21.314817 -4.311020e+01 -1.675
 1957 1  -21.301378 -4.169026e+01 -1.675
 1958 1  -20.064957 -4.099193e+01 -1.675
 1959 1  -22.551238 -4.380853e+01 -1.675
 1960 1  -23.774219 -4.308692e+01 -1.675
 1961 1  -23.760780 -4.166699e+01 -1.675
 1962 1  -22.524359 -4.096866e+01 -1.675
 1963 1  -25.010640 -4.378525e+01 -1.675
 1964 1  -26.233621 -4.306364e+01 -1.675
 1965 1  -26.220182 -4.164371e+01 -1.675
 1966 1  -24.983761 -4.094538e+01 -1.675
 1967 1  -27.470042 -4.376197e+01 -1.675
 1968 1  -28.693023 -4.304037e+01 -1.675
 1969 1  -28.679584 -4.162043e+01 -1.675
 1970 1  -27.443163 -4.092210e+01 -1.675
 1971 1  -29.929444 -4.373870e+01 -1.675
 1972 1  -31.152425 -4.301709e+01 -1.675
 1973 1  -31.138986 -4.159715e+01 -1.675
 1974 1  -29.902565 -4.089882e+01 -1.675
 1975 1  -32.388846 -4.371542e+01 -1.675
 1976 1  -33.611827 -4.299381e+01 -1.675
 1977 1  -33.598388 -4.157388e+01 -1.675
 1978 1  -32.361967 -4.087555e+01 -1.675
 1979 1  -34.848248 -4.369214e+01 -1.675
 1980 1  -36.071229 -4.297053e+01 -1.675
 1981 1  -36.057790 -4.155060e+01 -1.675
 1982 1  -34.821369 -4.085227e+01 -1.675
 1983 1  -37.307650 -4.366886e+01 -1.675
 1984 1  -38.530631 -4.294726e+01 -1.675
 1985 1  -38.517192 -4.152732e+01 -1.675
 1986 1  -37.280771 -4.082899e+01 -1.675
 1987 1  -39.767052 -4.364559e+01 -1.675
 1988 1  -40.990033 -4.292398e+01 -1.675
 1989 1  -40.976594 -4.150404e+01 -1.675
 1990 1  -39.740173 -4.080571e+01 -1.675
 1991 1  -42.226454 -4.362231e+01 -1.675
 1992 1  -43.449435 -4.290070e+01 -1.675
 1993 1  -43.435996 -4.148077e+01 -1.675
 1994 1  -42.199575 -4.078244e+01 -1.675
 1995 1  -44.685856 -4.359903e+01 -1.675
 1996 1  -45.908837 -4.287742e+01 -1.675
 1997 1  -45.895398 -4.145749e+01 -1.675
 1998 1  -44.658977 -4.075916e+01 -1.675
 1999 1  -47.145258 -4.357575e+01 -1.675
 2000 1  -48.368239 -4.285415e+01 -1.675
 2001 1  -48.354800 -4.143421e+01 -1.675
 2002 1  -47.118379 -4.073588e+01 -1.675
 2003 1  -49.604660 -4.355248e+01 -1.675
 2004 1  -50.827641 -4.283087e+01 -1.675
 2005 1  -50.814202 -4.141093e+01 -1.675
 2006 1  -49.577781 -4.071260e+01 -1.675
 2007 1  -52.064062 -4.352920e+01 -1.675
 2008 1  -53.287043 -4.280759e+01 -1.675
 2009 1  -53.273604 -4.138765e+01 -1.675
 2010 1  -52.037183 -4.068933e+01 -1.675
 2011 1  -54.523464 -4.350592e+01 -1.675
 2012 1  -55.746445 -4.278431e+01 -1.675
 2013 1  -55.733006 -4.136438e+01 -1.675
 2014 1  -54.496585 -4.066605e+01 -1.675
 2015 1  -56.982866 -4.348264e+01 -1.675
 2016 1  -58.205847 -4.276104e+01 -1.675
 2017 1  -58.192408 -4.134110e+01 -1.675
 2018 1  -56.955987 -4.064277e+01 -1.675
 2019 1  -59.442268 -4.345936e+01 -1.675
 2020 1  -60.665249 -4.273776e+01 -1.675
 2021 1  -60.651810 -4.131782e+01 -1.675
 2022 1  -59.415389 -4.061949e+01 -1.675
 2023 1  -61.901670 -4.343609e+01 -1.675
 2024 1  -63.124651 -4.271448e+01 -1.675
 2025 1  -63.111212 -4.129454e+01 -1.675
 2026 1  -61.874791 -4.059621e+01 -1.675
 2027 1  -64.361072 -4.341281e+01 -1.675
 2028 1  -65.584053 -4.269120e+01 -1.675
 2029 1  -65.570614 -4.127127e+01 -1.675
 2030 1  -64.334193 -4.057294e+01 -1.675
 2031 1  -66.820474 -4.338953e+01 -1.675
 2032 1  -68.043455 -4.266792e+01 -1.675
 2033 1  -68.030016 -4.124799e+01 -1.675
 2034 1  -66.793595 -4.054966e+01 -1.675
 2035 1  -69.279876 -4.336625e+01 -1.675
 2036 1  -70.502857 -4.264465e+01 -1.675
 2037 1  -70.489418 -4.122471e+01 -1.675
 2038 1  -69.252997 -4.052638e+01 -1.675
 2039 1  -71.739278 -4.334298e+01 -1.675
 2040 1  -72.962259 -4.262137e+01 -1.675
 2041 1  -72.948820 -4.120143e+01 -1.675
 2042 1  -71.712399 -4.050310e+01 -1.675
 2043 1  -74.198680 -4.331970e+01 -1.675
 2044 1  -75.421661 -4.259809e+01 -1.675
 2045 1  -75.408222 -4.117816e+01 -1.675
 2046 1  -74.171801 -4.047983e+01 -1.675
 2047 1  -76.658082 -4.329642e+01 -1.675
 2048 1  -77.881063 -4.257481e+01 -1.675
 2049 1  -77.867624 -4.115488e+01 -1.675
 2050 1  -76.631203 -4.045655e+01 -1.675
 2051 1  -79.117484 -4.327314e+01 -1.675
 2052 1  -80.340465 -4.255154e+01 -1.675
 2053 1  -80.327026 -4.113160e+01 -1.675
 2054 1  -79.090605 -4.043327e+01 -1.675
 2055 1  -81.576886 -4.324987e+01 -1.675
 2056 1  -82.799867 -4.252826e+01 -1.675
 2057 1  -82.786428 -4.110832e+01 -1.675
 2058 1  -81.550007 -4.040999e+01 -1.675
 2059 1  -84.036288 -4.322659e+01 -1.675
 2060 1  -85.259269 -4.250498e+01 -1.675
 2061 1  -85.245830 -4.108505e+01 -1.675
 2062 1  -84.009409 -4.038672e+01 -1.675
 2063 1  -86.495690 -4.320331e+01 -1.675
 2064 1  -87.718671 -4.248170e+01 -1.675
 2065 1  -87.705232 -4.106177e+01 -1.675
 2066 1  -86.468811 -4.036344e+01 -1.675
 2067 1  -88.955092 -4.318003e+01 -1.675
 2068 1  -90.178073 -4.245843e+01 -1.675
 2069 1  -90.164634 -4.103849e+01 -1.675
 2070 1  -88.928213 -4.034016e+01 -1.675
 2071 1  -91.414494 -4.315676e+01 -1.675
 2072 1  -92.637475 -4.243515e+01 -1.675
 2073 1  -92.624036 -4.101521e+01 -1.675
 2074 1  -91.387615 -4.031688e+01 -1.675
 2075 1  -93.873896 -4.313348e+01 -1.675
 2076 1  -95.096877 -4.241187e+01 -1.675
 2077 1  -95.083438 -4.099193e+01 -1.675
 2078 1  -93.847017 -4.029361e+01 -1.675
 2079 1  -96.333298 -4.311020e+01 -1.675
 2080 1  -97.556279 -4.238859e+01 -1.675
 2081 1  -97.542840 -4.096866e+01 -1.675
 2082 1  -96.306419 -4.027033e+01 -1.675
 2083 1  -98.792700 -4.308692e+01 -1.675
 2084 1 -100.015681 -4.236532e+01 -1.675
 2085 1 -100.002242 -4.094538e+01 -1.675
 2086 1  -98.765821 -4.024705e+01 -1.675
 2087 1 -101.252102 -4.306364e+01 -1.675
 2088 1 -102.475083 -4.234204e+01 -1.675
 2089 1 -102.461644 -4.092210e+01 -1.675
 2090 1 -101.225223 -4.022377e+01 -1.675
 2091 1 -103.711504 -4.304037e+01 -1.675
 2092 1 -104.934485 -4.231876e+01 -1.675
 2093 1 -104.921046 -4.089882e+01 -1.675
 2094 1 -103.684625 -4.020049e+01 -1.675
 2095 1 -106.170906 -4.301709e+01 -1.675
 2096 1 -107.393887 -4.229548e+01 -1.675
 2097 1 -107.380448 -4.087555e+01 -1.675
 2098 1 -106.144027 -4.017722e+01 -1.675
 2099 1 -108.630308 -4.299381e+01 -1.675
 2100 1 -109.853289 -4.227220e+01 -1.675
 2101 1 -109.839850 -4.085227e+01 -1.675
 2102 1 -108.603429 -4.015394e+01 -1.675
 2103 1 -111.089710 -4.297053e+01 -1.675
 2104 1 -112.312691 -4.224893e+01 -1.675
 2105 1 -112.299252 -4.082899e+01 -1.675
 2106 1 -111.062831 -4.013066e+01 -1.675
 2107 1  111.533208 -4.010738e+01 -1.675
 2108 1  111.546648 -3.868745e+01 -1.675
 2109 1  110.296788 -4.080571e+01 -1.675
 2110 1  109.073806 -4.008411e+01 -1.675
 2111 1  109.087246 -3.866417e+01 -1.675
 2112 1  110.323666 -3.796584e+01 -1.675
 2113 1  107.837386 -4.078244e+01 -1.675
 2114 1  106.614404 -4.006083e+01 -1.675
 2115 1  106.627844 -3.864089e+01 -1.675
 2116 1  107.864264 -3.794256e+01 -1.675
 2117 1  105.377984 -4.075916e+01 -1.675
 2118 1  104.155002 -4.003755e+01 -1.675
 2119 1  104.168442 -3.861761e+01 -1.675
 2120 1  105.404862 -3.791929e+01 -1.675
 2121 1  102.918582 -4.073588e+01 -1.675
 2122 1  101.695600 -4.001427e+01 -1.675
 2123 1  101.709040 -3.859434e+01 -1.675
 2124 1  102.945460 -3.789601e+01 -1.675
 2125 1  100.459180 -4.071260e+01 -1.675
 2126 1   99.236198 -3.999100e+01 -1.675
 2127 1   99.249638 -3.857106e+01 -1.675
 2128 1  100.486058 -3.787273e+01 -1.675
 2129 1   97.999778 -4.068933e+01 -1.675
 2130 1   96.776796 -3.996772e+01 -1.675
 2131 1   96.790236 -3.854778e+01 -1.675
 2132 1   98.026656 -3.784945e+01 -1.675
 2133 1   95.540376 -4.066605e+01 -1.675
 2134 1   94.317394 -3.994444e+01 -1.675
 2135 1   94.330834 -3.852450e+01 -1.675
 2136 1   95.567254 -3.782617e+01 -1.675
 2137 1   93.080974 -4.064277e+01 -1.675
 2138 1   91.857992 -3.992116e+01 -1.675
 2139 1   91.871432 -3.850123e+01 -1.675
 2140 1   93.107852 -3.780290e+01 -1.675
 2141 1   90.621572 -4.061949e+01 -1.675
 2142 1   89.398590 -3.989789e+01 -1.675
 2143 1   89.412030 -3.847795e+01 -1.675
 2144 1   90.648450 -3.777962e+01 -1.675
 2145 1   88.162170 -4.059621e+01 -1.675
 2146 1   86.939188 -3.987461e+01 -1.675
 2147 1   86.952628 -3.845467e+01 -1.675
 2148 1   88.189048 -3.775634e+01 -1.675
 2149 1   85.702768 -4.057294e+01 -1.675
 2150 1   84.479786 -3.985133e+01 -1.675
 2151 1   84.493226 -3.843139e+01 -1.675
 2152 1   85.729646 -3.773306e+01 -1.675
 2153 1   83.243366 -4.054966e+01 -1.675
 2154 1   82.020384 -3.982805e+01 -1.675
 2155 1   82.033824 -3.840812e+01 -1.675
 2156 1   83.270244 -3.770979e+01 -1.675
 2157 1   80.783964 -4.052638e+01 -1.675
 2158 1   79.560982 -3.980477e+01 -1.675
 2159 1   79.574422 -3.838484e+01 -1.675
 2160 1   80.810842 -3.768651e+01 -1.675
 2161 1   78.324562 -4.050310e+01 -1.675
 2162 1   77.101580 -3.978150e+01 -1.675
 2163 1   77.115020 -3.836156e+01 -1.675
 2164 1   78.351440 -3.766323e+01 -1.675
 2165 1   75.865160 -4.047983e+01 -1.675
 2166 1   74.642178 -3.975822e+01 -1.675
 2167 1   74.655618 -3.833828e+01 -1.675
 2168 1   75.892038 -3.763995e+01 -1.675
 2169 1   73.405758 -4.045655e+01 -1.675
 2170 1   72.182776 -3.973494e+01 -1.675
 2171 1   72.196216 -3.831501e+01 -1.675
 2172 1   73.432636 -3.761668e+01 -1.675
 2173 1   70.946356 -4.043327e+01 -1.675
 2174 1   69.723374 -3.971166e+01 -1.675
 2175 1   69.736814 -3.829173e+01 -1.675
 2176 1   70.973234 -3.759340e+01 -1.675
 2177 1   68.486954 -4.040999e+01 -1.675
 2178 1   67.263972 -3.968839e+01 -1.675
 2179 1   67.277412 -3.826845e+01 -1.675
 2180 1   68.513833 -3.757012e+01 -1.675
 2181 1   66.027552 -4.038672e+01 -1.675
 2182 1   64.804570 -3.966511e+01 -1.675
 2183 1   64.818010 -3.824517e+01 -1.675
 2184 1   66.054431 -3.754684e+01 -1.675
 2185 1   63.568150 -4.036344e+01 -1.675
 2186 1   62.345168 -3.964183e+01 -1.675
 2187 1   62.358608 -3.822189e+01 -1.675
 2188 1   63.595029 -3.752357e+01 -1.675
 2189 1   61.108748 -4.034016e+01 -1.675
 2190 1   59.885767 -3.961855e+01 -1.675
 2191 1   59.899206 -3.819862e+01 -1.675
 2192 1   61.135627 -3.750029e+01 -1.675
 2193 1   58.649346 -4.031688e+01 -1.675
 2194 1   57.426365 -3.959528e+01 -1.675
 2195 1   57.439804 -3.817534e+01 -1.675
 2196 1   58.676225 -3.747701e+01 -1.675
 2197 1   56.189944 -4.029361e+01 -1.675
 2198 1   54.966963 -3.957200e+01 -1.675
 2199 1   54.980402 -3.815206e+01 -1.675
 2200 1   56.216823 -3.745373e+01 -1.675
 2201 1   53.730542 -4.027033e+01 -1.675
 2202 1   52.507561 -3.954872e+01 -1.675
 2203 1   52.521000 -3.812878e+01 -1.675
 2204 1   53.757421 -3.743045e+01 -1.675
 2205 1   51.271140 -4.024705e+01 -1.675
 2206 1   50.048159 -3.952544e+01 -1.675
 2207 1   50.061598 -3.810551e+01 -1.675
 2208 1   51.298019 -3.740718e+01 -1.675
 2209 1   48.811738 -4.022377e+01 -1.675
 2210 1   47.588757 -3.950217e+01 -1.675
 2211 1   47.602196 -3.808223e+01 -1.675
 2212 1   48.838617 -3.738390e+01 -1.675
 2213 1   46.352336 -4.020049e+01 -1.675
 2214 1   45.129355 -3.947889e+01 -1.675
 2215 1   45.142794 -3.805895e+01 -1.675
 2216 1   46.379215 -3.736062e+01 -1.675
 2217 1   43.892934 -4.017722e+01 -1.675
 2218 1   42.669953 -3.945561e+01 -1.675
 2219 1   42.683392 -3.803567e+01 -1.675
 2220 1   43.919813 -3.733734e+01 -1.675
 2221 1   41.433532 -4.015394e+01 -1.675
 2222 1   40.210551 -3.943233e+01 -1.675
 2223 1   40.223990 -3.801240e+01 -1.675
 2224 1   41.460411 -3.731407e+01 -1.675
 2225 1   38.974130 -4.013066e+01 -1.675
 2226 1   37.751149 -3.940905e+01 -1.675
 2227 1   37.764588 -3.798912e+01 -1.675
 2228 1   39.001009 -3.729079e+01 -1.675
 2229 1   36.514728 -4.010738e+01 -1.675
 2230 1   35.291747 -3.938578e+01 -1.675
 2231 1   35.305186 -3.796584e+01 -1.675
 2232 1   36.541607 -3.726751e+01 -1.675
 2233 1   34.055326 -4.008411e+01 -1.675
 2234 1   32.832345 -3.936250e+01 -1.675
 2235 1   32.845784 -3.794256e+01 -1.675
 2236 1   34.082205 -3.724423e+01 -1.675
 2237 1   31.595924 -4.006083e+01 -1.675
 2238 1   30.372943 -3.933922e+01 -1.675
 2239 1   30.386382 -3.791929e+01 -1.675
 2240 1   31.622803 -3.722096e+01 -1.675
 2241 1   29.136522 -4.003755e+01 -1.675
 2242 1   27.913541 -3.931594e+01 -1.675
 2243 1   27.926980 -3.789601e+01 -1.675
 2244 1   29.163401 -3.719768e+01 -1.675
 2245 1   26.677120 -4.001427e+01 -1.675
 2246 1   25.454139 -3.929267e+01 -1.675
 2247 1   25.467578 -3.787273e+01 -1.675
 2248 1   26.703999 -3.717440e+01 -1.675
 2249 1   24.217718 -3.999100e+01 -1.675
 2250 1   22.994737 -3.926939e+01 -1.675
 2251 1   23.008176 -3.784945e+01 -1.675
 2252 1   24.244597 -3.715112e+01 -1.675
 2253 1   21.758316 -3.996772e+01 -1.675
 2254 1   20.535335 -3.924611e+01 -1.675
 2255 1   20.548774 -3.782617e+01 -1.675
 2256 1   21.785195 -3.712785e+01 -1.675
 2257 1   19.298914 -3.994444e+01 -1.675
 2258 1   18.075933 -3.922283e+01 -1.675
 2259 1   18.089372 -3.780290e+01 -1.675
 2260 1   19.325793 -3.710457e+01 -1.675
 2261 1   16.839512 -3.992116e+01 -1.675
 2262 1   15.616531 -3.919956e+01 -1.675
 2263 1   15.629970 -3.777962e+01 -1.675
 2264 1   16.866391 -3.708129e+01 -1.675
 2265 1   14.380110 -3.989789e+01 -1.675
 2266 1   13.157129 -3.917628e+01 -1.675
 2267 1   13.170568 -3.775634e+01 -1.675
 2268 1   14.406989 -3.705801e+01 -1.675
 2269 1   11.920708 -3.987461e+01 -1.675
 2270 1   10.697727 -3.915300e+01 -1.675
 2271 1   10.711166 -3.773306e+01 -1.675
 2272 1   11.947587 -3.703473e+01 -1.675
 2273 1    9.461306 -3.985133e+01 -1.675
 2274 1    8.238325 -3.912972e+01 -1.675
 2275 1    8.251764 -3.770979e+01 -1.675
 2276 1    9.488185 -3.701146e+01 -1.675
 2277 1    7.001904 -3.982805e+01 -1.675
 2278 1    5.778923 -3.910645e+01 -1.675
 2279 1    5.792362 -3.768651e+01 -1.675
 2280 1    7.028783 -3.698818e+01 -1.675
 2281 1    4.542502 -3.980477e+01 -1.675
 2282 1    3.319521 -3.908317e+01 -1.675
 2283 1    3.332960 -3.766323e+01 -1.675
 2284 1    4.569381 -3.696490e+01 -1.675
 2285 1    2.083100 -3.978150e+01 -1.675
 2286 1    0.860119 -3.905989e+01 -1.675
 2287 1    0.873558 -3.763995e+01 -1.675
 2288 1    2.109979 -3.694162e+01 -1.675
 2289 1   -0.376302 -3.975822e+01 -1.675
 2290 1   -1.599283 -3.903661e+01 -1.675
 2291 1   -1.585844 -3.761668e+01 -1.675
 2292 1   -0.349423 -3.691835e+01 -1.675
 2293 1   -2.835704 -3.973494e+01 -1.675
 2294 1   -4.058685 -3.901333e+01 -1.675
 2295 1   -4.045246 -3.759340e+01 -1.675
 2296 1   -2.808825 -3.689507e+01 -1.675
 2297 1   -5.295106 -3.971166e+01 -1.675
 2298 1   -6.518087 -3.899006e+01 -1.675
 2299 1   -6.504648 -3.757012e+01 -1.675
 2300 1   -5.268227 -3.687179e+01 -1.675
 2301 1   -7.754508 -3.968839e+01 -1.675
 2302 1   -8.977489 -3.896678e+01 -1.675
 2303 1   -8.964050 -3.754684e+01 -1.675
 2304 1   -7.727629 -3.684851e+01 -1.675
 2305 1  -10.213910 -3.966511e+01 -1.675
 2306 1  -11.436891 -3.894350e+01 -1.675
 2307 1  -11.423452 -3.752357e+01 -1.675
 2308 1  -10.187031 -3.682524e+01 -1.675
 2309 1  -12.673312 -3.964183e+01 -1.675
 2310 1  -13.896293 -3.892022e+01 -1.675
 2311 1  -13.882854 -3.750029e+01 -1.675
 2312 1  -12.646433 -3.680196e+01 -1.675
 2313 1  -15.132714 -3.961855e+01 -1.675
 2314 1  -16.355695 -3.889695e+01 -1.675
 2315 1  -16.342256 -3.747701e+01 -1.675
 2316 1  -15.105835 -3.677868e+01 -1.675
 2317 1  -17.592116 -3.959528e+01 -1.675
 2318 1  -18.815097 -3.887367e+01 -1.675
 2319 1  -18.801658 -3.745373e+01 -1.675
 2320 1  -17.565237 -3.675540e+01 -1.675
 2321 1  -20.051518 -3.957200e+01 -1.675
 2322 1  -21.274499 -3.885039e+01 -1.675
 2323 1  -21.261060 -3.743045e+01 -1.675
 2324 1  -20.024639 -3.673213e+01 -1.675
 2325 1  -22.510920 -3.954872e+01 -1.675
 2326 1  -23.733901 -3.882711e+01 -1.675
 2327 1  -23.720462 -3.740718e+01 -1.675
 2328 1  -22.484041 -3.670885e+01 -1.675
 2329 1  -24.970322 -3.952544e+01 -1.675
 2330 1  -26.193303 -3.880384e+01 -1.675
 2331 1  -26.179864 -3.738390e+01 -1.675
 2332 1  -24.943443 -3.668557e+01 -1.675
 2333 1  -27.429724 -3.950217e+01 -1.675
 2334 1  -28.652705 -3.878056e+01 -1.675
 2335 1  -28.639266 -3.736062e+01 -1.675
 2336 1  -27.402845 -3.666229e+01 -1.675
 2337 1  -29.889126 -3.947889e+01 -1.675
 2338 1  -31.112107 -3.875728e+01 -1.675
 2339 1  -31.098668 -3.733734e+01 -1.675
 2340 1  -29.862247 -3.663901e+01 -1.675
 2341 1  -32.348528 -3.945561e+01 -1.675
 2342 1  -33.571509 -3.873400e+01 -1.675
 2343 1  -33.558070 -3.731407e+01 -1.675
 2344 1  -32.321649 -3.661574e+01 -1.675
 2345 1  -34.807930 -3.943233e+01 -1.675
 2346 1  -36.030911 -3.871073e+01 -1.675
 2347 1  -36.017472 -3.729079e+01 -1.675
 2348 1  -34.781051 -3.659246e+01 -1.675
 2349 1  -37.267332 -3.940905e+01 -1.675
 2350 1  -38.490313 -3.868745e+01 -1.675
 2351 1  -38.476874 -3.726751e+01 -1.675
 2352 1  -37.240453 -3.656918e+01 -1.675
 2353 1  -39.726734 -3.938578e+01 -1.675
 2354 1  -40.949715 -3.866417e+01 -1.675
 2355 1  -40.936276 -3.724423e+01 -1.675
 2356 1  -39.699855 -3.654590e+01 -1.675
 2357 1  -42.186136 -3.936250e+01 -1.675
 2358 1  -43.409117 -3.864089e+01 -1.675
 2359 1  -43.395678 -3.722096e+01 -1.675
 2360 1  -42.159257 -3.652263e+01 -1.675
 2361 1  -44.645538 -3.933922e+01 -1.675
 2362 1  -45.868519 -3.861761e+01 -1.675
 2363 1  -45.855080 -3.719768e+01 -1.675
 2364 1  -44.618659 -3.649935e+01 -1.675
 2365 1  -47.104940 -3.931594e+01 -1.675
 2366 1  -48.327921 -3.859434e+01 -1.675
 2367 1  -48.314482 -3.717440e+01 -1.675
 2368 1  -47.078061 -3.647607e+01 -1.675
 2369 1  -49.564342 -3.929267e+01 -1.675
 2370 1  -50.787323 -3.857106e+01 -1.675
 2371 1  -50.773884 -3.715112e+01 -1.675
 2372 1  -49.537463 -3.645279e+01 -1.675
 2373 1  -52.023744 -3.926939e+01 -1.675
 2374 1  -53.246725 -3.854778e+01 -1.675
 2375 1  -53.233286 -3.712785e+01 -1.675
 2376 1  -51.996865 -3.642952e+01 -1.675
 2377 1  -54.483146 -3.924611e+01 -1.675
 2378 1  -55.706127 -3.852450e+01 -1.675
 2379 1  -55.692688 -3.710457e+01 -1.675
 2380 1  -54.456267 -3.640624e+01 -1.675
 2381 1  -56.942548 -3.922283e+01 -1.675
 2382 1  -58.165529 -3.850123e+01 -1.675
 2383 1  -58.152090 -3.708129e+01 -1.675
 2384 1  -56.915669 -3.638296e+01 -1.675
 2385 1  -59.401950 -3.919956e+01 -1.675
 2386 1  -60.624931 -3.847795e+01 -1.675
 2387 1  -60.611492 -3.705801e+01 -1.675
 2388 1  -59.375071 -3.635968e+01 -1.675
 2389 1  -61.861352 -3.917628e+01 -1.675
 2390 1  -63.084333 -3.845467e+01 -1.675
 2391 1  -63.070894 -3.703473e+01 -1.675
 2392 1  -61.834473 -3.633641e+01 -1.675
 2393 1  -64.320754 -3.915300e+01 -1.675
 2394 1  -65.543735 -3.843139e+01 -1.675
 2395 1  -65.530296 -3.701146e+01 -1.675
 2396 1  -64.293875 -3.631313e+01 -1.675
 2397 1  -66.780156 -3.912972e+01 -1.675
 2398 1  -68.003137 -3.840812e+01 -1.675
 2399 1  -67.989698 -3.698818e+01 -1.675
 2400 1  -66.753277 -3.628985e+01 -1.675
 2401 1  -69.239558 -3.910645e+01 -1.675
 2402 1  -70.462539 -3.838484e+01 -1.675
 2403 1  -70.449100 -3.696490e+01 -1.675
 2404 1  -69.212679 -3.626657e+01 -1.675
 2405 1  -71.698960 -3.908317e+01 -1.675
 2406 1  -72.921941 -3.836156e+01 -1.675
 2407 1  -72.908502 -3.694162e+01 -1.675
 2408 1  -71.672081 -3.624329e+01 -1.675
 2409 1  -74.158362 -3.905989e+01 -1.675
 2410 1  -75.381343 -3.833828e+01 -1.675
 2411 1  -75.367904 -3.691835e+01 -1.675
 2412 1  -74.131483 -3.622002e+01 -1.675
 2413 1  -76.617764 -3.903661e+01 -1.675
 2414 1  -77.840745 -3.831501e+01 -1.675
 2415 1  -77.827306 -3.689507e+01 -1.675
 2416 1  -76.590885 -3.619674e+01 -1.675
 2417 1  -79.077166 -3.901333e+01 -1.675
 2418 1  -80.300147 -3.829173e+01 -1.675
 2419 1  -80.286708 -3.687179e+01 -1.675
 2420 1  -79.050287 -3.617346e+01 -1.675
 2421 1  -81.536568 -3.899006e+01 -1.675
 2422 1  -82.759549 -3.826845e+01 -1.675
 2423 1  -82.746110 -3.684851e+01 -1.675
 2424 1  -81.509689 -3.615018e+01 -1.675
 2425 1  -83.995970 -3.896678e+01 -1.675
 2426 1  -85.218951 -3.824517e+01 -1.675
 2427 1  -85.205512 -3.682524e+01 -1.675
 2428 1  -83.969091 -3.612691e+01 -1.675
 2429 1  -86.455372 -3.894350e+01 -1.675
 2430 1  -87.678353 -3.822189e+01 -1.675
 2431 1  -87.664914 -3.680196e+01 -1.675
 2432 1  -86.428493 -3.610363e+01 -1.675
 2433 1  -88.914774 -3.892022e+01 -1.675
 2434 1  -90.137755 -3.819862e+01 -1.675
 2435 1  -90.124316 -3.677868e+01 -1.675
 2436 1  -88.887895 -3.608035e+01 -1.675
 2437 1  -91.374176 -3.889695e+01 -1.675
 2438 1  -92.597157 -3.817534e+01 -1.675
 2439 1  -92.583718 -3.675540e+01 -1.675
 2440 1  -91.347297 -3.605707e+01 -1.675
 2441 1  -93.833578 -3.887367e+01 -1.675
 2442 1  -95.056559 -3.815206e+01 -1.675
 2443 1  -95.043120 -3.673213e+01 -1.675
 2444 1  -93.806699 -3.603380e+01 -1.675
 2445 1  -96.292980 -3.885039e+01 -1.675
 2446 1  -97.515961 -3.812878e+01 -1.675
 2447 1  -97.502522 -3.670885e+01 -1.675
 2448 1  -96.266101 -3.601052e+01 -1.675
 2449 1  -98.752382 -3.882711e+01 -1.675
 2450 1  -99.975363 -3.810551e+01 -1.675
 2451 1  -99.961924 -3.668557e+01 -1.675
 2452 1  -98.725503 -3.598724e+01 -1.675
 2453 1 -101.211784 -3.880384e+01 -1.675
 2454 1 -102.434765 -3.808223e+01 -1.675
 2455 1 -102.421326 -3.666229e+01 -1.675
 2456 1 -101.184905 -3.596396e+01 -1.675
 2457 1 -103.671186 -3.878056e+01 -1.675
 2458 1 -104.894167 -3.805895e+01 -1.675
 2459 1 -104.880728 -3.663901e+01 -1.675
 2460 1 -103.644307 -3.594069e+01 -1.675
 2461 1 -106.130588 -3.875728e+01 -1.675
 2462 1 -107.353569 -3.803567e+01 -1.675
 2463 1 -107.340130 -3.661574e+01 -1.675
 2464 1 -106.103709 -3.591741e+01 -1.675
 2465 1 -108.589990 -3.873400e+01 -1.675
 2466 1 -109.812971 -3.801240e+01 -1.675
 2467 1 -109.799531 -3.659246e+01 -1.675
 2468 1 -108.563111 -3.589413e+01 -1.675
 2469 1 -111.049392 -3.871073e+01 -1.675
 2470 1 -112.272373 -3.798912e+01 -1.675
 2471 1 -112.258933 -3.656918e+01 -1.675
 2472 1 -111.022513 -3.587085e+01 -1.675
 2473 1  111.573526 -3.584757e+01 -1.675
 2474 1  111.586966 -3.442764e+01 -1.675
 2475 1  110.337106 -3.654590e+01 -1.675
 2476 1  109.114124 -3.582430e+01 -1.675
 2477 1  109.127564 -3.440436e+01 -1.675
 2478 1  110.363984 -3.370603e+01 -1.675
 2479 1  107.877704 -3.652263e+01 -1.675
 2480 1  106.654722 -3.580102e+01 -1.675
 2481 1  106.668162 -3.438108e+01 -1.675
 2482 1  107.904582 -3.368275e+01 -1.675
 2483 1  105.418302 -3.649935e+01 -1.675
 2484 1  104.195320 -3.577774e+01 -1.675
 2485 1  104.208760 -3.435781e+01 -1.675
 2486 1  105.445180 -3.365948e+01 -1.675
 2487 1  102.958900 -3.647607e+01 -1.675
 2488 1  101.735918 -3.575446e+01 -1.675
 2489 1  101.749358 -3.433453e+01 -1.675
 2490 1  102.985778 -3.363620e+01 -1.675
 2491 1  100.499498 -3.645279e+01 -1.675
 2492 1   99.276516 -3.573119e+01 -1.675
 2493 1   99.289956 -3.431125e+01 -1.675
 2494 1  100.526376 -3.361292e+01 -1.675
 2495 1   98.040096 -3.642952e+01 -1.675
 2496 1   96.817114 -3.570791e+01 -1.675
 2497 1   96.830554 -3.428797e+01 -1.675
 2498 1   98.066974 -3.358964e+01 -1.675
 2499 1   95.580694 -3.640624e+01 -1.675
 2500 1   94.357712 -3.568463e+01 -1.675
 2501 1   94.371152 -3.426469e+01 -1.675
 2502 1   95.607572 -3.356637e+01 -1.675
 2503 1   93.121292 -3.638296e+01 -1.675
 2504 1   91.898310 -3.566135e+01 -1.675
 2505 1   91.911750 -3.424142e+01 -1.675
 2506 1   93.148170 -3.354309e+01 -1.675
 2507 1   90.661890 -3.635968e+01 -1.675
 2508 1   89.438908 -3.563808e+01 -1.675
 2509 1   89.452348 -3.421814e+01 -1.675
 2510 1   90.688768 -3.351981e+01 -1.675
 2511 1   88.202488 -3.633641e+01 -1.675
 2512 1   86.979506 -3.561480e+01 -1.675
 2513 1   86.992946 -3.419486e+01 -1.675
 2514 1   88.229366 -3.349653e+01 -1.675
 2515 1   85.743086 -3.631313e+01 -1.675
 2516 1   84.520104 -3.559152e+01 -1.675
 2517 1   84.533544 -3.417158e+01 -1.675
 2518 1   85.769965 -3.347325e+01 -1.675
 2519 1   83.283684 -3.628985e+01 -1.675
 2520 1   82.060702 -3.556824e+01 -1.675
 2521 1   82.074142 -3.414831e+01 -1.675
 2522 1   83.310563 -3.344998e+01 -1.675
 2523 1   80.824282 -3.626657e+01 -1.675
 2524 1   79.601300 -3.554497e+01 -1.675
 2525 1   79.614740 -3.412503e+01 -1.675
 2526 1   80.851161 -3.342670e+01 -1.675
 2527 1   78.364880 -3.624329e+01 -1.675
 2528 1   77.141899 -3.552169e+01 -1.675
 2529 1   77.155338 -3.410175e+01 -1.675
 2530 1   78.391759 -3.340342e+01 -1.675
 2531 1   75.905478 -3.622002e+01 -1.675
 2532 1   74.682497 -3.549841e+01 -1.675
 2533 1   74.695936 -3.407847e+01 -1.675
 2534 1   75.932357 -3.338014e+01 -1.675
 2535 1   73.446076 -3.619674e+01 -1.675
 2536 1   72.223095 -3.547513e+01 -1.675
 2537 1   72.236534 -3.405520e+01 -1.675
 2538 1   73.472955 -3.335687e+01 -1.675
 2539 1   70.986674 -3.617346e+01 -1.675
 2540 1   69.763693 -3.545185e+01 -1.675
 2541 1   69.777132 -3.403192e+01 -1.675
 2542 1   71.013553 -3.333359e+01 -1.675
 2543 1   68.527272 -3.615018e+01 -1.675
 2544 1   67.304291 -3.542858e+01 -1.675
 2545 1   67.317730 -3.400864e+01 -1.675
 2546 1   68.554151 -3.331031e+01 -1.675
 2547 1   66.067870 -3.612691e+01 -1.675
 2548 1   64.844889 -3.540530e+01 -1.675
 2549 1   64.858328 -3.398536e+01 -1.675
 2550 1   66.094749 -3.328703e+01 -1.675
 2551 1   63.608468 -3.610363e+01 -1.675
 2552 1   62.385487 -3.538202e+01 -1.675
 2553 1   62.398926 -3.396209e+01 -1.675
 2554 1   63.635347 -3.326376e+01 -1.675
 2555 1   61.149066 -3.608035e+01 -1.675
 2556 1   59.926085 -3.535874e+01 -1.675
 2557 1   59.939524 -3.393881e+01 -1.675
 2558 1   61.175945 -3.324048e+01 -1.675
 2559 1   58.689664 -3.605707e+01 -1.675
 2560 1   57.466683 -3.533547e+01 -1.675
 2561 1   57.480122 -3.391553e+01 -1.675
 2562 1   58.716543 -3.321720e+01 -1.675
 2563 1   56.230262 -3.603380e+01 -1.675
 2564 1   55.007281 -3.531219e+01 -1.675
 2565 1   55.020720 -3.389225e+01 -1.675
 2566 1   56.257141 -3.319392e+01 -1.675
 2567 1   53.770860 -3.601052e+01 -1.675
 2568 1   52.547879 -3.528891e+01 -1.675
 2569 1   52.561318 -3.386897e+01 -1.675
 2570 1   53.797739 -3.317065e+01 -1.675
 2571 1   51.311458 -3.598724e+01 -1.675
 2572 1   50.088477 -3.526563e+01 -1.675
 2573 1   50.101916 -3.384570e+01 -1.675
 2574 1   51.338337 -3.314737e+01 -1.675
 2575 1   48.852056 -3.596396e+01 -1.675
 2576 1   47.629075 -3.524236e+01 -1.675
 2577 1   47.642514 -3.382242e+01 -1.675
 2578 1   48.878935 -3.312409e+01 -1.675
 2579 1   46.392654 -3.594069e+01 -1.675
 2580 1   45.169673 -3.521908e+01 -1.675
 2581 1   45.183112 -3.379914e+01 -1.675
 2582 1   46.419533 -3.310081e+01 -1.675
 2583 1   43.933252 -3.591741e+01 -1.675
 2584 1   42.710271 -3.519580e+01 -1.675
 2585 1   42.723710 -3.377586e+01 -1.675
 2586 1   43.960131 -3.307753e+01 -1.675
 2587 1   41.473850 -3.589413e+01 -1.675
 2588 1   40.250869 -3.517252e+01 -1.675
 2589 1   40.264308 -3.375259e+01 -1.675
 2590 1   41.500729 -3.305426e+01 -1.675
 2591 1   39.014448 -3.587085e+01 -1.675
 2592 1   37.791467 -3.514925e+01 -1.675
 2593 1   37.804906 -3.372931e+01 -1.675
 2594 1   39.041327 -3.303098e+01 -1.675
 2595 1   36.555046 -3.584757e+01 -1.675
 2596 1   35.332065 -3.512597e+01 -1.675
 2597 1   35.345504 -3.370603e+01 -1.675
 2598 1   36.581925 -3.300770e+01 -1.675
 2599 1   34.095644 -3.582430e+01 -1.675
 2600 1   32.872663 -3.510269e+01 -1.675
 2601 1   32.886102 -3.368275e+01 -1.675
 2602 1   34.122523 -3.298442e+01 -1.675
 2603 1   31.636242 -3.580102e+01 -1.675
 2604 1   30.413261 -3.507941e+01 -1.675
 2605 1   30.426700 -3.365948e+01 -1.675
 2606 1   31.663121 -3.296115e+01 -1.675
 2607 1   29.176840 -3.577774e+01 -1.675
 2608 1   27.953859 -3.505613e+01 -1.675
 2609 1   27.967298 -3.363620e+01 -1.675
 2610 1   29.203719 -3.293787e+01 -1.675
 2611 1   26.717438 -3.575446e+01 -1.675
 2612 1   25.494457 -3.503286e+01 -1.675
 2613 1   25.507896 -3.361292e+01 -1.675
 2614 1   26.744317 -3.291459e+01 -1.675
 2615 1   24.258036 -3.573119e+01 -1.675
 2616 1   23.035055 -3.500958e+01 -1.675
 2617 1   23.048494 -3.358964e+01 -1.675
 2618 1   24.284915 -3.289131e+01 -1.675
 2619 1   21.798634 -3.570791e+01 -1.675
 2620 1   20.575653 -3.498630e+01 -1.675
 2621 1   20.589092 -3.356637e+01 -1.675
 2622 1   21.825513 -3.286804e+01 -1.675
 2623 1   19.339232 -3.568463e+01 -1.675
 2624 1   18.116251 -3.496302e+01 -1.675
 2625 1   18.129690 -3.354309e+01 -1.675
 2626 1   19.366111 -3.284476e+01 -1.675
 2627 1   16.879830 -3.566135e+01 -1.675
 2628 1   15.656849 -3.493975e+01 -1.675
 2629 1   15.670288 -3.351981e+01 -1.675
 2630 1   16.906709 -3.282148e+01 -1.675
 2631 1   14.420428 -3.563808e+01 -1.675
 2632 1   13.197447 -3.491647e+01 -1.675
 2633 1   13.210886 -3.349653e+01 -1.675
 2634 1   14.447307 -3.279820e+01 -1.675
 2635 1   11.961026 -3.561480e+01 -1.675
 2636 1   10.738045 -3.489319e+01 -1.675
 2637 1   10.751484 -3.347325e+01 -1.675
 2638 1   11.987905 -3.277493e+01 -1.675
 2639 1    9.501624 -3.559152e+01 -1.675
 2640 1    8.278643 -3.486991e+01 -1.675
 2641 1    8.292082 -3.344998e+01 -1.675
 2642 1    9.528503 -3.275165e+01 -1.675
 2643 1    7.042222 -3.556824e+01 -1.675
 2644 1    5.819241 -3.484664e+01 -1.675
 2645 1    5.832680 -3.342670e+01 -1.675
 2646 1    7.069101 -3.272837e+01 -1.675
 2647 1    4.582820 -3.554497e+01 -1.675
 2648 1    3.359839 -3.482336e+01 -1.675
 2649 1    3.373278 -3.340342e+01 -1.675
 2650 1    4.609699 -3.270509e+01 -1.675
 2651 1    2.123418 -3.552169e+01 -1.675
 2652 1    0.900437 -3.480008e+01 -1.675
 2653 1    0.913876 -3.338014e+01 -1.675
 2654 1    2.150297 -3.268181e+01 -1.675
 2655 1   -0.335984 -3.549841e+01 -1.675
 2656 1   -1.558965 -3.477680e+01 -1.675
 2657 1   -1.545526 -3.335687e+01 -1.675
 2658 1   -0.309105 -3.265854e+01 -1.675
 2659 1   -2.795386 -3.547513e+01 -1.675
 2660 1   -4.018367 -3.475353e+01 -1.675
 2661 1   -4.004928 -3.333359e+01 -1.675
 2662 1   -2.768507 -3.263526e+01 -1.675
 2663 1   -5.254788 -3.545185e+01 -1.675
 2664 1   -6.477769 -3.473025e+01 -1.675
 2665 1   -6.464330 -3.331031e+01 -1.675
 2666 1   -5.227909 -3.261198e+01 -1.675
 2667 1   -7.714190 -3.542858e+01 -1.675
 2668 1   -8.937171 -3.470697e+01 -1.675
 2669 1   -8.923732 -3.328703e+01 -1.675
 2670 1   -7.687311 -3.258870e+01 -1.675
 2671 1  -10.173592 -3.540530e+01 -1.675
 2672 1  -11.396573 -3.468369e+01 -1.675
 2673 1  -11.383134 -3.326376e+01 -1.675
 2674 1  -10.146713 -3.256543e+01 -1.675
 2675 1  -12.632994 -3.538202e+01 -1.675
 2676 1  -13.855975 -3.466041e+01 -1.675
 2677 1  -13.842536 -3.324048e+01 -1.675
 2678 1  -12.606115 -3.254215e+01 -1.675
 2679 1  -15.092396 -3.535874e+01 -1.675
 2680 1  -16.315377 -3.463714e+01 -1.675
 2681 1  -16.301938 -3.321720e+01 -1.675
 2682 1  -15.065517 -3.251887e+01 -1.675
 2683 1  -17.551798 -3.533547e+01 -1.675
 2684 1  -18.774779 -3.461386e+01 -1.675
 2685 1  -18.761340 -3.319392e+01 -1.675
 2686 1  -17.524919 -3.249559e+01 -1.675
 2687 1  -20.011200 -3.531219e+01 -1.675
 2688 1  -21.234181 -3.459058e+01 -1.675
 2689 1  -21.220742 -3.317065e+01 -1.675
 2690 1  -19.984321 -3.247232e+01 -1.675
 2691 1  -22.470602 -3.528891e+01 -1.675
 2692 1  -23.693583 -3.456730e+01 -1.675
 2693 1  -23.680144 -3.314737e+01 -1.675
 2694 1  -22.443723 -3.244904e+01 -1.675
 2695 1  -24.930004 -3.526563e+01 -1.675
 2696 1  -26.152985 -3.454403e+01 -1.675
 2697 1  -26.139546 -3.312409e+01 -1.675
 2698 1  -24.903125 -3.242576e+01 -1.675
 2699 1  -27.389406 -3.524236e+01 -1.675
 2700 1  -28.612387 -3.452075e+01 -1.675
 2701 1  -28.598948 -3.310081e+01 -1.675
 2702 1  -27.362527 -3.240248e+01 -1.675
 2703 1  -29.848808 -3.521908e+01 -1.675
 2704 1  -31.071789 -3.449747e+01 -1.675
 2705 1  -31.058350 -3.307753e+01 -1.675
 2706 1  -29.821929 -3.237921e+01 -1.675
 2707 1  -32.308210 -3.519580e+01 -1.675
 2708 1  -33.531191 -3.447419e+01 -1.675
 2709 1  -33.517752 -3.305426e+01 -1.675
 2710 1  -32.281331 -3.235593e+01 -1.675
 2711 1  -34.767612 -3.517252e+01 -1.675
 2712 1  -35.990593 -3.445092e+01 -1.675
 2713 1  -35.977154 -3.303098e+01 -1.675
 2714 1  -34.740733 -3.233265e+01 -1.675
 2715 1  -37.227014 -3.514925e+01 -1.675
 2716 1  -38.449995 -3.442764e+01 -1.675
 2717 1  -38.436556 -3.300770e+01 -1.675
 2718 1  -37.200135 -3.230937e+01 -1.675
 2719 1  -39.686416 -3.512597e+01 -1.675
 2720 1  -40.909397 -3.440436e+01 -1.675
 2721 1  -40.895958 -3.298442e+01 -1.675
 2722 1  -39.659537 -3.228609e+01 -1.675
 2723 1  -42.145818 -3.510269e+01 -1.675
 2724 1  -43.368799 -3.438108e+01 -1.675
 2725 1  -43.355360 -3.296115e+01 -1.675
 2726 1  -42.118939 -3.226282e+01 -1.675
 2727 1  -44.605220 -3.507941e+01 -1.675
 2728 1  -45.828201 -3.435781e+01 -1.675
 2729 1  -45.814762 -3.293787e+01 -1.675
 2730 1  -44.578341 -3.223954e+01 -1.675
 2731 1  -47.064622 -3.505613e+01 -1.675
 2732 1  -48.287603 -3.433453e+01 -1.675
 2733 1  -48.274164 -3.291459e+01 -1.675
 2734 1  -47.037743 -3.221626e+01 -1.675
 2735 1  -49.524024 -3.503286e+01 -1.675
 2736 1  -50.747005 -3.431125e+01 -1.675
 2737 1  -50.733566 -3.289131e+01 -1.675
 2738 1  -49.497145 -3.219298e+01 -1.675
 2739 1  -51.983426 -3.500958e+01 -1.675
 2740 1  -53.206407 -3.428797e+01 -1.675
 2741 1  -53.192968 -3.286804e+01 -1.675
 2742 1  -51.956547 -3.216971e+01 -1.675
 2743 1  -54.442828 -3.498630e+01 -1.675
 2744 1  -55.665809 -3.426469e+01 -1.675
 2745 1  -55.652370 -3.284476e+01 -1.675
 2746 1  -54.415949 -3.214643e+01 -1.675
 2747 1  -56.902230 -3.496302e+01 -1.675
 2748 1  -58.125211 -3.424142e+01 -1.675
 2749 1  -58.111772 -3.282148e+01 -1.675
 2750 1  -56.875351 -3.212315e+01 -1.675
 2751 1  -59.361632 -3.493975e+01 -1.675
 2752 1  -60.584613 -3.421814e+01 -1.675
 2753 1  -60.571174 -3.279820e+01 -1.675
 2754 1  -59.334753 -3.209987e+01 -1.675
 2755 1  -61.821034 -3.491647e+01 -1.675
 2756 1  -63.044015 -3.419486e+01 -1.675
 2757 1  -63.030576 -3.277493e+01 -1.675
 2758 1  -61.794155 -3.207660e+01 -1.675
 2759 1  -64.280436 -3.489319e+01 -1.675
 2760 1  -65.503417 -3.417158e+01 -1.675
 2761 1  -65.489978 -3.275165e+01 -1.675
 2762 1  -64.253557 -3.205332e+01 -1.675
 2763 1  -66.739838 -3.486991e+01 -1.675
 2764 1  -67.962819 -3.414831e+01 -1.675
 2765 1  -67.949380 -3.272837e+01 -1.675
 2766 1  -66.712959 -3.203004e+01 -1.675
 2767 1  -69.199240 -3.484664e+01 -1.675
 2768 1  -70.422221 -3.412503e+01 -1.675
 2769 1  -70.408782 -3.270509e+01 -1.675
 2770 1  -69.172361 -3.200676e+01 -1.675
 2771 1  -71.658642 -3.482336e+01 -1.675
 2772 1  -72.881623 -3.410175e+01 -1.675
 2773 1  -72.868184 -3.268181e+01 -1.675
 2774 1  -71.631763 -3.198349e+01 -1.675
 2775 1  -74.118044 -3.480008e+01 -1.675
 2776 1  -75.341025 -3.407847e+01 -1.675
 2777 1  -75.327586 -3.265854e+01 -1.675
 2778 1  -74.091165 -3.196021e+01 -1.675
 2779 1  -76.577446 -3.477680e+01 -1.675
 2780 1  -77.800427 -3.405520e+01 -1.675
 2781 1  -77.786988 -3.263526e+01 -1.675
 2782 1  -76.550567 -3.193693e+01 -1.675
 2783 1  -79.036848 -3.475353e+01 -1.675
 2784 1  -80.259829 -3.403192e+01 -1.675
 2785 1  -80.246390 -3.261198e+01 -1.675
 2786 1  -79.009969 -3.191365e+01 -1.675
 2787 1  -81.496250 -3.473025e+01 -1.675
 2788 1  -82.719231 -3.400864e+01 -1.675
 2789 1  -82.705792 -3.258870e+01 -1.675
 2790 1  -81.469371 -3.189037e+01 -1.675
 2791 1  -83.955652 -3.470697e+01 -1.675
 2792 1  -85.178633 -3.398536e+01 -1.675
 2793 1  -85.165194 -3.256543e+01 -1.675
 2794 1  -83.928773 -3.186710e+01 -1.675
 2795 1  -86.415054 -3.468369e+01 -1.675
 2796 1  -87.638035 -3.396209e+01 -1.675
 2797 1  -87.624596 -3.254215e+01 -1.675
 2798 1  -86.388175 -3.184382e+01 -1.675
 2799 1  -88.874456 -3.466041e+01 -1.675
 2800 1  -90.097437 -3.393881e+01 -1.675
 2801 1  -90.083998 -3.251887e+01 -1.675
 2802 1  -88.847577 -3.182054e+01 -1.675
 2803 1  -91.333858 -3.463714e+01 -1.675
 2804 1  -92.556839 -3.391553e+01 -1.675
 2805 1  -92.543399 -3.249559e+01 -1.675
 2806 1  -91.306979 -3.179726e+01 -1.675
 2807 1  -93.793260 -3.461386e+01 -1.675
 2808 1  -95.016241 -3.389225e+01 -1.675
 2809 1  -95.002801 -3.247232e+01 -1.675
 2810 1  -93.766381 -3.177399e+01 -1.675
 2811 1  -96.252662 -3.459058e+01 -1.675
 2812 1  -97.475643 -3.386897e+01 -1.675
 2813 1  -97.462203 -3.244904e+01 -1.675
 2814 1  -96.225783 -3.175071e+01 -1.675
 2815 1  -98.712064 -3.456730e+01 -1.675
 2816 1  -99.935045 -3.384570e+01 -1.675
 2817 1  -99.921605 -3.242576e+01 -1.675
 2818 1  -98.685185 -3.172743e+01 -1.675
 2819 1 -101.171465 -3.454403e+01 -1.675
 2820 1 -102.394447 -3.382242e+01 -1.675
 2821 1 -102.381007 -3.240248e+01 -1.675
 2822 1 -101.144587 -3.170415e+01 -1.675
 2823 1 -103.630867 -3.452075e+01 -1.675
 2824 1 -104.853849 -3.379914e+01 -1.675
 2825 1 -104.840409 -3.237921e+01 -1.675
 2826 1 -103.603989 -3.168088e+01 -1.675
 2827 1 -106.090269 -3.449747e+01 -1.675
 2828 1 -107.313251 -3.377586e+01 -1.675
 2829 1 -107.299811 -3.235593e+01 -1.675
 2830 1 -106.063391 -3.165760e+01 -1.675
 2831 1 -108.549671 -3.447419e+01 -1.675
 2832 1 -109.772653 -3.375259e+01 -1.675
 2833 1 -109.759213 -3.233265e+01 -1.675
 2834 1 -108.522793 -3.163432e+01 -1.675
 2835 1 -111.009073 -3.445092e+01 -1.675
 2836 1 -112.232055 -3.372931e+01 -1.675
 2837 1 -112.218615 -3.230937e+01 -1.675
 2838 1 -110.982195 -3.161104e+01 -1.675
 2839 1  111.613844 -3.158777e+01 -1.675
 2840 1  111.627284 -3.016783e+01 -1.675
 2841 1  110.377424 -3.228609e+01 -1.675
 2842 1  109.154442 -3.156449e+01 -1.675
 2843 1  109.167882 -3.014455e+01 -1.675
 2844 1  110.404302 -2.944622e+01 -1.675
 2845 1  107.918022 -3.226282e+01 -1.675
 2846 1  106.695040 -3.154121e+01 -1.675
 2847 1  106.708480 -3.012127e+01 -1.675
 2848 1  107.944900 -2.942294e+01 -1.675
 2849 1  105.458620 -3.223954e+01 -1.675
 2850 1  104.235638 -3.151793e+01 -1.675
 2851 1  104.249078 -3.009800e+01 -1.675
 2852 1  105.485498 -2.939967e+01 -1.675
 2853 1  102.999218 -3.221626e+01 -1.675
 2854 1  101.776236 -3.149465e+01 -1.675
 2855 1  101.789676 -3.007472e+01 -1.675
 2856 1  103.026097 -2.937639e+01 -1.675
 2857 1  100.539816 -3.219298e+01 -1.675
 2858 1   99.316834 -3.147138e+01 -1.675
 2859 1   99.330274 -3.005144e+01 -1.675
 2860 1  100.566695 -2.935311e+01 -1.675
 2861 1   98.080414 -3.216971e+01 -1.675
 2862 1   96.857432 -3.144810e+01 -1.675
 2863 1   96.870872 -3.002816e+01 -1.675
 2864 1   98.107293 -2.932983e+01 -1.675
 2865 1   95.621012 -3.214643e+01 -1.675
 2866 1   94.398031 -3.142482e+01 -1.675
 2867 1   94.411470 -3.000489e+01 -1.675
 2868 1   95.647891 -2.930656e+01 -1.675
 2869 1   93.161610 -3.212315e+01 -1.675
 2870 1   91.938629 -3.140154e+01 -1.675
 2871 1   91.952068 -2.998161e+01 -1.675
 2872 1   93.188489 -2.928328e+01 -1.675
 2873 1   90.702208 -3.209987e+01 -1.675
 2874 1   89.479227 -3.137827e+01 -1.675
 2875 1   89.492666 -2.995833e+01 -1.675
 2876 1   90.729087 -2.926000e+01 -1.675
 2877 1   88.242806 -3.207660e+01 -1.675
 2878 1   87.019825 -3.135499e+01 -1.675
 2879 1   87.033264 -2.993505e+01 -1.675
 2880 1   88.269685 -2.923672e+01 -1.675
 2881 1   85.783404 -3.205332e+01 -1.675
 2882 1   84.560423 -3.133171e+01 -1.675
 2883 1   84.573862 -2.991178e+01 -1.675
 2884 1   85.810283 -2.921345e+01 -1.675
 2885 1   83.324002 -3.203004e+01 -1.675
 2886 1   82.101021 -3.130843e+01 -1.675
 2887 1   82.114460 -2.988850e+01 -1.675
 2888 1   83.350881 -2.919017e+01 -1.675
 2889 1   80.864600 -3.200676e+01 -1.675
 2890 1   79.641619 -3.128516e+01 -1.675
 2891 1   79.655058 -2.986522e+01 -1.675
 2892 1   80.891479 -2.916689e+01 -1.675
 2893 1   78.405198 -3.198349e+01 -1.675
 2894 1   77.182217 -3.126188e+01 -1.675
 2895 1   77.195656 -2.984194e+01 -1.675
 2896 1   78.432077 -2.914361e+01 -1.675
 2897 1   75.945796 -3.196021e+01 -1.675
 2898 1   74.722815 -3.123860e+01 -1.675
 2899 1   74.736254 -2.981866e+01 -1.675
 2900 1   75.972675 -2.912034e+01 -1.675
 2901 1   73.486394 -3.193693e+01 -1.675
 2902 1   72.263413 -3.121532e+01 -1.675
 2903 1   72.276852 -2.979539e+01 -1.675
 2904 1   73.513273 -2.909706e+01 -1.675
 2905 1   71.026992 -3.191365e+01 -1.675
 2906 1   69.804011 -3.119205e+01 -1.675
 2907 1   69.817450 -2.977211e+01 -1.675
 2908 1   71.053871 -2.907378e+01 -1.675
 2909 1   68.567590 -3.189037e+01 -1.675
 2910 1   67.344609 -3.116877e+01 -1.675
 2911 1   67.358048 -2.974883e+01 -1.675
 2912 1   68.594469 -2.905050e+01 -1.675
 2913 1   66.108188 -3.186710e+01 -1.675
 2914 1   64.885207 -3.114549e+01 -1.675
 2915 1   64.898646 -2.972555e+01 -1.675
 2916 1   66.135067 -2.902722e+01 -1.675
 2917 1   63.648786 -3.184382e+01 -1.675
 2918 1   62.425805 -3.112221e+01 -1.675
 2919 1   62.439244 -2.970228e+01 -1.675
 2920 1   63.675665 -2.900395e+01 -1.675
 2921 1   61.189384 -3.182054e+01 -1.675
 2922 1   59.966403 -3.109893e+01 -1.675
 2923 1   59.979842 -2.967900e+01 -1.675
 2924 1   61.216263 -2.898067e+01 -1.675
 2925 1   58.729982 -3.179726e+01 -1.675
 2926 1   57.507001 -3.107566e+01 -1.675
 2927 1   57.520440 -2.965572e+01 -1.675
 2928 1   58.756861 -2.895739e+01 -1.675
 2929 1   56.270580 -3.177399e+01 -1.675
 2930 1   55.047599 -3.105238e+01 -1.675
 2931 1   55.061038 -2.963244e+01 -1.675
 2932 1   56.297459 -2.893411e+01 -1.675
 2933 1   53.811178 -3.175071e+01 -1.675
 2934 1   52.588197 -3.102910e+01 -1.675
 2935 1   52.601636 -2.960917e+01 -1.675
 2936 1   53.838057 -2.891084e+01 -1.675
 2937 1   51.351776 -3.172743e+01 -1.675
 2938 1   50.128795 -3.100582e+01 -1.675
 2939 1   50.142234 -2.958589e+01 -1.675
 2940 1   51.378655 -2.888756e+01 -1.675
 2941 1   48.892374 -3.170415e+01 -1.675
 2942 1   47.669393 -3.098255e+01 -1.675
 2943 1   47.682832 -2.956261e+01 -1.675
 2944 1   48.919253 -2.886428e+01 -1.675
 2945 1   46.432972 -3.168088e+01 -1.675
 2946 1   45.209991 -3.095927e+01 -1.675
 2947 1   45.223430 -2.953933e+01 -1.675
 2948 1   46.459851 -2.884100e+01 -1.675
 2949 1   43.973570 -3.165760e+01 -1.675
 2950 1   42.750589 -3.093599e+01 -1.675
 2951 1   42.764028 -2.951606e+01 -1.675
 2952 1   44.000449 -2.881773e+01 -1.675
 2953 1   41.514168 -3.163432e+01 -1.675
 2954 1   40.291187 -3.091271e+01 -1.675
 2955 1   40.304626 -2.949278e+01 -1.675
 2956 1   41.541047 -2.879445e+01 -1.675
 2957 1   39.054766 -3.161104e+01 -1.675
 2958 1   37.831785 -3.088944e+01 -1.675
 2959 1   37.845224 -2.946950e+01 -1.675
 2960 1   39.081645 -2.877117e+01 -1.675
 2961 1   36.595364 -3.158777e+01 -1.675
 2962 1   35.372383 -3.086616e+01 -1.675
 2963 1   35.385822 -2.944622e+01 -1.675
 2964 1   36.622243 -2.874789e+01 -1.675
 2965 1   34.135962 -3.156449e+01 -1.675
 2966 1   32.912981 -3.084288e+01 -1.675
 2967 1   32.926420 -2.942294e+01 -1.675
 2968 1   34.162841 -2.872462e+01 -1.675
 2969 1   31.676560 -3.154121e+01 -1.675
 2970 1   30.453579 -3.081960e+01 -1.675
 2971 1   30.467018 -2.939967e+01 -1.675
 2972 1   31.703439 -2.870134e+01 -1.675
 2973 1   29.217158 -3.151793e+01 -1.675
 2974 1   27.994177 -3.079633e+01 -1.675
 2975 1   28.007616 -2.937639e+01 -1.675
 2976 1   29.244037 -2.867806e+01 -1.675
 2977 1   26.757756 -3.149465e+01 -1.675
 2978 1   25.534775 -3.077305e+01 -1.675
 2979 1   25.548214 -2.935311e+01 -1.675
 2980 1   26.784635 -2.865478e+01 -1.675
 2981 1   24.298354 -3.147138e+01 -1.675
 2982 1   23.075373 -3.074977e+01 -1.675
 2983 1   23.088812 -2.932983e+01 -1.675
 2984 1   24.325233 -2.863150e+01 -1.675
 2985 1   21.838952 -3.144810e+01 -1.675
 2986 1   20.615971 -3.072649e+01 -1.675
 2987 1   20.629410 -2.930656e+01 -1.675
 2988 1   21.865831 -2.860823e+01 -1.675
 2989 1   19.379550 -3.142482e+01 -1.675
 2990 1   18.156569 -3.070321e+01 -1.675
 2991 1   18.170008 -2.928328e+01 -1.675
 2992 1   19.406429 -2.858495e+01 -1.675
 2993 1   16.920148 -3.140154e+01 -1.675
 2994 1   15.697167 -3.067994e+01 -1.675
 2995 1   15.710606 -2.926000e+01 -1.675
 2996 1   16.947027 -2.856167e+01 -1.675
 2997 1   14.460746 -3.137827e+01 -1.675
 2998 1   13.237765 -3.065666e+01 -1.675
 2999 1   13.251204 -2.923672e+01 -1.675
 3000 1   14.487625 -2.853839e+01 -1.675
 3001 1   12.001344 -3.135499e+01 -1.675
 3002 1   10.778363 -3.063338e+01 -1.675
 3003 1   10.791802 -2.921345e+01 -1.675
 3004 1   12.028223 -2.851512e+01 -1.675
 3005 1    9.541942 -3.133171e+01 -1.675
 3006 1    8.318961 -3.061010e+01 -1.675
 3007 1    8.332400 -2.919017e+01 -1.675
 3008 1    9.568821 -2.849184e+01 -1.675
 3009 1    7.082540 -3.130843e+01 -1.675
 3010 1    5.859559 -3.058683e+01 -1.675
 3011 1    5.872998 -2.916689e+01 -1.675
 3012 1    7.109419 -2.846856e+01 -1.675
 3013 1    4.623138 -3.128516e+01 -1.675
 3014 1    3.400157 -3.056355e+01 -1.675
 3015 1    3.413596 -2.914361e+01 -1.675
 3016 1    4.650017 -2.844528e+01 -1.675
 3017 1    2.163736 -3.126188e+01 -1.675
 3018 1    0.940755 -3.054027e+01 -1.675
 3019 1    0.954194 -2.912034e+01 -1.675
 3020 1    2.190615 -2.842201e+01 -1.675
 3021 1   -0.295666 -3.123860e+01 -1.675
 3022 1   -1.518647 -3.051699e+01 -1.675
 3023 1   -1.505208 -2.909706e+01 -1.675
 3024 1   -0.268787 -2.839873e+01 -1.675
 3025 1   -2.755068 -3.121532e+01 -1.675
 3026 1   -3.978049 -3.049372e+01 -1.675
 3027 1   -3.964610 -2.907378e+01 -1.675
 3028 1   -2.728189 -2.837545e+01 -1.675
 3029 1   -5.214470 -3.119205e+01 -1.675
 3030 1   -6.437451 -3.047044e+01 -1.675
 3031 1   -6.424012 -2.905050e+01 -1.675
 3032 1   -5.187591 -2.835217e+01 -1.675
 3033 1   -7.673872 -3.116877e+01 -1.675
 3034 1   -8.896853 -3.044716e+01 -1.675
 3035 1   -8.883414 -2.902722e+01 -1.675
 3036 1   -7.646993 -2.832890e+01 -1.675
 3037 1  -10.133274 -3.114549e+01 -1.675
 3038 1  -11.356255 -3.042388e+01 -1.675
 3039 1  -11.342816 -2.900395e+01 -1.675
 3040 1  -10.106395 -2.830562e+01 -1.675
 3041 1  -12.592676 -3.112221e+01 -1.675
 3042 1  -13.815657 -3.040061e+01 -1.675
 3043 1  -13.802218 -2.898067e+01 -1.675
 3044 1  -12.565797 -2.828234e+01 -1.675
 3045 1  -15.052078 -3.109893e+01 -1.675
 3046 1  -16.275059 -3.037733e+01 -1.675
 3047 1  -16.261620 -2.895739e+01 -1.675
 3048 1  -15.025199 -2.825906e+01 -1.675
 3049 1  -17.511480 -3.107566e+01 -1.675
 3050 1  -18.734461 -3.035405e+01 -1.675
 3051 1  -18.721022 -2.893411e+01 -1.675
 3052 1  -17.484601 -2.823578e+01 -1.675
 3053 1  -19.970882 -3.105238e+01 -1.675
 3054 1  -21.193863 -3.033077e+01 -1.675
 3055 1  -21.180424 -2.891084e+01 -1.675
 3056 1  -19.944003 -2.821251e+01 -1.675
 3057 1  -22.430284 -3.102910e+01 -1.675
 3058 1  -23.653265 -3.030749e+01 -1.675
 3059 1  -23.639826 -2.888756e+01 -1.675
 3060 1  -22.403405 -2.818923e+01 -1.675
 3061 1  -24.889686 -3.100582e+01 -1.675
 3062 1  -26.112667 -3.028422e+01 -1.675
 3063 1  -26.099228 -2.886428e+01 -1.675
 3064 1  -24.862807 -2.816595e+01 -1.675
 3065 1  -27.349088 -3.098255e+01 -1.675
 3066 1  -28.572069 -3.026094e+01 -1.675
 3067 1  -28.558630 -2.884100e+01 -1.675
 3068 1  -27.322209 -2.814267e+01 -1.675
 3069 1  -29.808490 -3.095927e+01 -1.675
 3070 1  -31.031471 -3.023766e+01 -1.675
 3071 1  -31.018032 -2.881773e+01 -1.675
 3072 1  -29.781611 -2.811940e+01 -1.675
 3073 1  -32.267892 -3.093599e+01 -1.675
 3074 1  -33.490873 -3.021438e+01 -1.675
 3075 1  -33.477434 -2.879445e+01 -1.675
 3076 1  -32.241013 -2.809612e+01 -1.675
 3077 1  -34.727294 -3.091271e+01 -1.675
 3078 1  -35.950275 -3.019111e+01 -1.675
 3079 1  -35.936836 -2.877117e+01 -1.675
 3080 1  -34.700415 -2.807284e+01 -1.675
 3081 1  -37.186696 -3.088944e+01 -1.675
 3082 1  -38.409677 -3.016783e+01 -1.675
 3083 1  -38.396238 -2.874789e+01 -1.675
 3084 1  -37.159817 -2.804956e+01 -1.675
 3085 1  -39.646098 -3.086616e+01 -1.675
 3086 1  -40.869079 -3.014455e+01 -1.675
 3087 1  -40.855640 -2.872462e+01 -1.675
 3088 1  -39.619219 -2.802629e+01 -1.675
 3089 1  -42.105500 -3.084288e+01 -1.675
 3090 1  -43.328481 -3.012127e+01 -1.675
 3091 1  -43.315042 -2.870134e+01 -1.675
 3092 1  -42.078621 -2.800301e+01 -1.675
 3093 1  -44.564902 -3.081960e+01 -1.675
 3094 1  -45.787883 -3.009800e+01 -1.675
 3095 1  -45.774444 -2.867806e+01 -1.675
 3096 1  -44.538023 -2.797973e+01 -1.675
 3097 1  -47.024304 -3.079633e+01 -1.675
 3098 1  -48.247285 -3.007472e+01 -1.675
 3099 1  -48.233846 -2.865478e+01 -1.675
 3100 1  -46.997425 -2.795645e+01 -1.675
 3101 1  -49.483706 -3.077305e+01 -1.675
 3102 1  -50.706687 -3.005144e+01 -1.675
 3103 1  -50.693248 -2.863150e+01 -1.675
 3104 1  -49.456827 -2.793318e+01 -1.675
 3105 1  -51.943108 -3.074977e+01 -1.675
 3106 1  -53.166089 -3.002816e+01 -1.675
 3107 1  -53.152650 -2.860823e+01 -1.675
 3108 1  -51.916229 -2.790990e+01 -1.675
 3109 1  -54.402510 -3.072649e+01 -1.675
 3110 1  -55.625491 -3.000489e+01 -1.675
 3111 1  -55.612052 -2.858495e+01 -1.675
 3112 1  -54.375631 -2.788662e+01 -1.675
 3113 1  -56.861912 -3.070321e+01 -1.675
 3114 1  -58.084893 -2.998161e+01 -1.675
 3115 1  -58.071454 -2.856167e+01 -1.675
 3116 1  -56.835033 -2.786334e+01 -1.675
 3117 1  -59.321314 -3.067994e+01 -1.675
 3118 1  -60.544295 -2.995833e+01 -1.675
 3119 1  -60.530856 -2.853839e+01 -1.675
 3120 1  -59.294435 -2.784006e+01 -1.675
 3121 1  -61.780716 -3.065666e+01 -1.675
 3122 1  -63.003697 -2.993505e+01 -1.675
 3123 1  -62.990258 -2.851512e+01 -1.675
 3124 1  -61.753837 -2.781679e+01 -1.675
 3125 1  -64.240118 -3.063338e+01 -1.675
 3126 1  -65.463099 -2.991178e+01 -1.675
 3127 1  -65.449660 -2.849184e+01 -1.675
 3128 1  -64.213239 -2.779351e+01 -1.675
 3129 1  -66.699520 -3.061010e+01 -1.675
 3130 1  -67.922501 -2.988850e+01 -1.675
 3131 1  -67.909062 -2.846856e+01 -1.675
 3132 1  -66.672641 -2.777023e+01 -1.675
 3133 1  -69.158922 -3.058683e+01 -1.675
 3134 1  -70.381903 -2.986522e+01 -1.675
 3135 1  -70.368464 -2.844528e+01 -1.675
 3136 1  -69.132043 -2.774695e+01 -1.675
 3137 1  -71.618324 -3.056355e+01 -1.675
 3138 1  -72.841305 -2.984194e+01 -1.675
 3139 1  -72.827866 -2.842201e+01 -1.675
 3140 1  -71.591445 -2.772368e+01 -1.675
 3141 1  -74.077726 -3.054027e+01 -1.675
 3142 1  -75.300707 -2.981866e+01 -1.675
 3143 1  -75.287267 -2.839873e+01 -1.675
 3144 1  -74.050847 -2.770040e+01 -1.675
 3145 1  -76.537128 -3.051699e+01 -1.675
 3146 1  -77.760109 -2.979539e+01 -1.675
 3147 1  -77.746669 -2.837545e+01 -1.675
 3148 1  -76.510249 -2.767712e+01 -1.675
 3149 1  -78.996530 -3.049372e+01 -1.675
 3150 1  -80.219511 -2.977211e+01 -1.675
 3151 1  -80.206071 -2.835217e+01 -1.675
 3152 1  -78.969651 -2.765384e+01 -1.675
 3153 1  -81.455932 -3.047044e+01 -1.675
 3154 1  -82.678913 -2.974883e+01 -1.675
 3155 1  -82.665473 -2.832890e+01 -1.675
 3156 1  -81.429053 -2.763057e+01 -1.675
 3157 1  -83.915333 -3.044716e+01 -1.675
 3158 1  -85.138315 -2.972555e+01 -1.675
 3159 1  -85.124875 -2.830562e+01 -1.675
 3160 1  -83.888455 -2.760729e+01 -1.675
 3161 1  -86.374735 -3.042388e+01 -1.675
 3162 1  -87.597717 -2.970228e+01 -1.675
 3163 1  -87.584277 -2.828234e+01 -1.675
 3164 1  -86.347857 -2.758401e+01 -1.675
 3165 1  -88.834137 -3.040061e+01 -1.675
 3166 1  -90.057119 -2.967900e+01 -1.675
 3167 1  -90.043679 -2.825906e+01 -1.675
 3168 1  -88.807259 -2.756073e+01 -1.675
 3169 1  -91.293539 -3.037733e+01 -1.675
 3170 1  -92.516521 -2.965572e+01 -1.675
 3171 1  -92.503081 -2.823578e+01 -1.675
 3172 1  -91.266661 -2.753746e+01 -1.675
 3173 1  -93.752941 -3.035405e+01 -1.675
 3174 1  -94.975923 -2.963244e+01 -1.675
 3175 1  -94.962483 -2.821251e+01 -1.675
 3176 1  -93.726063 -2.751418e+01 -1.675
 3177 1  -96.212343 -3.033077e+01 -1.675
 3178 1  -97.435325 -2.960917e+01 -1.675
 3179 1  -97.421885 -2.818923e+01 -1.675
 3180 1  -96.185465 -2.749090e+01 -1.675
 3181 1  -98.671745 -3.030749e+01 -1.675
 3182 1  -99.894727 -2.958589e+01 -1.675
 3183 1  -99.881287 -2.816595e+01 -1.675
 3184 1  -98.644867 -2.746762e+01 -1.675
 3185 1 -101.131147 -3.028422e+01 -1.675
 3186 1 -102.354129 -2.956261e+01 -1.675
 3187 1 -102.340689 -2.814267e+01 -1.675
 3188 1 -101.104269 -2.744434e+01 -1.675
 3189 1 -103.590549 -3.026094e+01 -1.675
 3190 1 -104.813531 -2.953933e+01 -1.675
 3191 1 -104.800091 -2.811940e+01 -1.675
 3192 1 -103.563671 -2.742107e+01 -1.675
 3193 1 -106.049951 -3.023766e+01 -1.675
 3194 1 -107.272933 -2.951606e+01 -1.675
 3195 1 -107.259493 -2.809612e+01 -1.675
 3196 1 -106.023073 -2.739779e+01 -1.675
 3197 1 -108.509353 -3.021438e+01 -1.675
 3198 1 -109.732335 -2.949278e+01 -1.675
 3199 1 -109.718895 -2.807284e+01 -1.675
 3200 1 -108.482475 -2.737451e+01 -1.675
 3201 1 -110.968755 -3.019111e+01 -1.675
 3202 1 -112.191737 -2.946950e+01 -1.675
 3203 1 -112.178297 -2.804956e+01 -1.675
 3204 1 -110.941877 -2.735123e+01 -1.675
 3205 1  111.654163 -2.732796e+01 -1.675
 3206 1  111.667602 -2.590802e+01 -1.675
 3207 1  110.417742 -2.802629e+01 -1.675
 3208 1  109.194761 -2.730468e+01 -1.675
 3209 1  109.208200 -2.588474e+01 -1.675
 3210 1  110.444621 -2.518641e+01 -1.675
 3211 1  107.958340 -2.800301e+01 -1.675
 3212 1  106.735359 -2.728140e+01 -1.675
 3213 1  106.748798 -2.586146e+01 -1.675
 3214 1  107.985219 -2.516314e+01 -1.675
 3215 1  105.498938 -2.797973e+01 -1.675
 3216 1  104.275957 -2.725812e+01 -1.675
 3217 1  104.289396 -2.583819e+01 -1.675
 3218 1  105.525817 -2.513986e+01 -1.675
 3219 1  103.039536 -2.795645e+01 -1.675
 3220 1  101.816555 -2.723485e+01 -1.675
 3221 1  101.829994 -2.581491e+01 -1.675
 3222 1  103.066415 -2.511658e+01 -1.675
 3223 1  100.580134 -2.793318e+01 -1.675
 3224 1   99.357153 -2.721157e+01 -1.675
 3225 1   99.370592 -2.579163e+01 -1.675
 3226 1  100.607013 -2.509330e+01 -1.675
 3227 1   98.120732 -2.790990e+01 -1.675
 3228 1   96.897751 -2.718829e+01 -1.675
 3229 1   96.911190 -2.576835e+01 -1.675
 3230 1   98.147611 -2.507002e+01 -1.675
 3231 1   95.661330 -2.788662e+01 -1.675
 3232 1   94.438349 -2.716501e+01 -1.675
 3233 1   94.451788 -2.574508e+01 -1.675
 3234 1   95.688209 -2.504675e+01 -1.675
 3235 1   93.201928 -2.786334e+01 -1.675
 3236 1   91.978947 -2.714174e+01 -1.675
 3237 1   91.992386 -2.572180e+01 -1.675
 3238 1   93.228807 -2.502347e+01 -1.675
 3239 1   90.742526 -2.784006e+01 -1.675
 3240 1   89.519545 -2.711846e+01 -1.675
 3241 1   89.532984 -2.569852e+01 -1.675
 3242 1   90.769405 -2.500019e+01 -1.675
 3243 1   88.283124 -2.781679e+01 -1.675
 3244 1   87.060143 -2.709518e+01 -1.675
 3245 1   87.073582 -2.567524e+01 -1.675
 3246 1   88.310003 -2.497691e+01 -1.675
 3247 1   85.823722 -2.779351e+01 -1.675
 3248 1   84.600741 -2.707190e+01 -1.675
 3249 1   84.614180 -2.565197e+01 -1.675
 3250 1   85.850601 -2.495364e+01 -1.675
 3251 1   83.364320 -2.777023e+01 -1.675
 3252 1   82.141339 -2.704862e+01 -1.675
 3253 1   82.154778 -2.562869e+01 -1.675
 3254 1   83.391199 -2.493036e+01 -1.675
 3255 1   80.904918 -2.774695e+01 -1.675
 3256 1   79.681937 -2.702535e+01 -1.675
 3257 1   79.695376 -2.560541e+01 -1.675
 3258 1   80.931797 -2.490708e+01 -1.675
 3259 1   78.445516 -2.772368e+01 -1.675
 3260 1   77.222535 -2.700207e+01 -1.675
 3261 1   77.235974 -2.558213e+01 -1.675
 3262 1   78.472395 -2.488380e+01 -1.675
 3263 1   75.986114 -2.770040e+01 -1.675
 3264 1   74.763133 -2.697879e+01 -1.675
 3265 1   74.776572 -2.555886e+01 -1.675
 3266 1   76.012993 -2.486053e+01 -1.675
 3267 1   73.526712 -2.767712e+01 -1.675
 3268 1   72.303731 -2.695551e+01 -1.675
 3269 1   72.317170 -2.553558e+01 -1.675
 3270 1   73.553591 -2.483725e+01 -1.675
 3271 1   71.067310 -2.765384e+01 -1.675
 3272 1   69.844329 -2.693224e+01 -1.675
 3273 1   69.857768 -2.551230e+01 -1.675
 3274 1   71.094189 -2.481397e+01 -1.675
 3275 1   68.607908 -2.763057e+01 -1.675
 3276 1   67.384927 -2.690896e+01 -1.675
 3277 1   67.398366 -2.548902e+01 -1.675
 3278 1   68.634787 -2.479069e+01 -1.675
 3279 1   66.148506 -2.760729e+01 -1.675
 3280 1   64.925525 -2.688568e+01 -1.675
 3281 1   64.938964 -2.546574e+01 -1.675
 3282 1   66.175385 -2.476742e+01 -1.675
 3283 1   63.689104 -2.758401e+01 -1.675
 3284 1   62.466123 -2.686240e+01 -1.675
 3285 1   62.479562 -2.544247e+01 -1.675
 3286 1   63.715983 -2.474414e+01 -1.675
 3287 1   61.229702 -2.756073e+01 -1.675
 3288 1   60.006721 -2.683913e+01 -1.675
 3289 1   60.020160 -2.541919e+01 -1.675
 3290 1   61.256581 -2.472086e+01 -1.675
 3291 1   58.770300 -2.753746e+01 -1.675
 3292 1   57.547319 -2.681585e+01 -1.675
 3293 1   57.560758 -2.539591e+01 -1.675
 3294 1   58.797179 -2.469758e+01 -1.675
 3295 1   56.310898 -2.751418e+01 -1.675
 3296 1   55.087917 -2.679257e+01 -1.675
 3297 1   55.101356 -2.537263e+01 -1.675
 3298 1   56.337777 -2.467430e+01 -1.675
 3299 1   53.851496 -2.749090e+01 -1.675
 3300 1   52.628515 -2.676929e+01 -1.675
 3301 1   52.641954 -2.534936e+01 -1.675
 3302 1   53.878375 -2.465103e+01 -1.675
 3303 1   51.392094 -2.746762e+01 -1.675
 3304 1   50.169113 -2.674602e+01 -1.675
 3305 1   50.182552 -2.532608e+01 -1.675
 3306 1   51.418973 -2.462775e+01 -1.675
 3307 1   48.932692 -2.744434e+01 -1.675
 3308 1   47.709711 -2.672274e+01 -1.675
 3309 1   47.723150 -2.530280e+01 -1.675
 3310 1   48.959571 -2.460447e+01 -1.675
 3311 1   46.473290 -2.742107e+01 -1.675
 3312 1   45.250309 -2.669946e+01 -1.675
 3313 1   45.263748 -2.527952e+01 -1.675
 3314 1   46.500169 -2.458119e+01 -1.675
 3315 1   44.013888 -2.739779e+01 -1.675
 3316 1   42.790907 -2.667618e+01 -1.675
 3317 1   42.804346 -2.525625e+01 -1.675
 3318 1   44.040767 -2.455792e+01 -1.675
 3319 1   41.554486 -2.737451e+01 -1.675
 3320 1   40.331505 -2.665290e+01 -1.675
 3321 1   40.344944 -2.523297e+01 -1.675
 3322 1   41.581365 -2.453464e+01 -1.675
 3323 1   39.095084 -2.735123e+01 -1.675
 3324 1   37.872103 -2.662963e+01 -1.675
 3325 1   37.885542 -2.520969e+01 -1.675
 3326 1   39.121963 -2.451136e+01 -1.675
 3327 1   36.635682 -2.732796e+01 -1.675
 3328 1   35.412701 -2.660635e+01 -1.675
 3329 1   35.426140 -2.518641e+01 -1.675
 3330 1   36.662561 -2.448808e+01 -1.675
 3331 1   34.176280 -2.730468e+01 -1.675
 3332 1   32.953299 -2.658307e+01 -1.675
 3333 1   32.966738 -2.516314e+01 -1.675
 3334 1   34.203159 -2.446481e+01 -1.675
 3335 1   31.716878 -2.728140e+01 -1.675
 3336 1   30.493897 -2.655979e+01 -1.675
 3337 1   30.507336 -2.513986e+01 -1.675
 3338 1   31.743757 -2.444153e+01 -1.675
 3339 1   29.257476 -2.725812e+01 -1.675
 3340 1   28.034495 -2.653652e+01 -1.675
 3341 1   28.047934 -2.511658e+01 -1.675
 3342 1   29.284355 -2.441825e+01 -1.675
 3343 1   26.798074 -2.723485e+01 -1.675
 3344 1   25.575093 -2.651324e+01 -1.675
 3345 1   25.588532 -2.509330e+01 -1.675
 3346 1   26.824953 -2.439497e+01 -1.675
 3347 1   24.338672 -2.721157e+01 -1.675
 3348 1   23.115691 -2.648996e+01 -1.675
 3349 1   23.129130 -2.507002e+01 -1.675
 3350 1   24.365551 -2.437170e+01 -1.675
 3351 1   21.879270 -2.718829e+01 -1.675
 3352 1   20.656289 -2.646668e+01 -1.675
 3353 1   20.669728 -2.504675e+01 -1.675
 3354 1   21.906149 -2.434842e+01 -1.675
 3355 1   19.419868 -2.716501e+01 -1.675
 3356 1   18.196887 -2.644341e+01 -1.675
 3357 1   18.210326 -2.502347e+01 -1.675
 3358 1   19.446747 -2.432514e+01 -1.675
 3359 1   16.960466 -2.714174e+01 -1.675
 3360 1   15.737485 -2.642013e+01 -1.675
 3361 1   15.750924 -2.500019e+01 -1.675
 3362 1   16.987345 -2.430186e+01 -1.675
 3363 1   14.501064 -2.711846e+01 -1.675
 3364 1   13.278083 -2.639685e+01 -1.675
 3365 1   13.291522 -2.497691e+01 -1.675
 3366 1   14.527943 -2.427858e+01 -1.675
 3367 1   12.041662 -2.709518e+01 -1.675
 3368 1   10.818681 -2.637357e+01 -1.675
 3369 1   10.832120 -2.495364e+01 -1.675
 3370 1   12.068541 -2.425531e+01 -1.675
 3371 1    9.582260 -2.707190e+01 -1.675
 3372 1    8.359279 -2.635030e+01 -1.675
 3373 1    8.372718 -2.493036e+01 -1.675
 3374 1    9.609139 -2.423203e+01 -1.675
 3375 1    7.122858 -2.704862e+01 -1.675
 3376 1    5.899877 -2.632702e+01 -1.675
 3377 1    5.913316 -2.490708e+01 -1.675
 3378 1    7.149737 -2.420875e+01 -1.675
 3379 1    4.663456 -2.702535e+01 -1.675
 3380 1    3.440475 -2.630374e+01 -1.675
 3381 1    3.453914 -2.488380e+01 -1.675
 3382 1    4.690335 -2.418547e+01 -1.675
 3383 1    2.204054 -2.700207e+01 -1.675
 3384 1    0.981073 -2.628046e+01 -1.675
 3385 1    0.994512 -2.486053e+01 -1.675
 3386 1    2.230933 -2.416220e+01 -1.675
 3387 1   -0.255348 -2.697879e+01 -1.675
 3388 1   -1.478329 -2.625718e+01 -1.675
 3389 1   -1.464890 -2.483725e+01 -1.675
 3390 1   -0.228469 -2.413892e+01 -1.675
 3391 1   -2.714750 -2.695551e+01 -1.675
 3392 1   -3.937731 -2.623391e+01 -1.675
 3393 1   -3.924292 -2.481397e+01 -1.675
 3394 1   -2.687871 -2.411564e+01 -1.675
 3395 1   -5.174152 -2.693224e+01 -1.675
 3396 1   -6.397133 -2.621063e+01 -1.675
 3397 1   -6.383694 -2.479069e+01 -1.675
 3398 1   -5.147273 -2.409236e+01 -1.675
 3399 1   -7.633554 -2.690896e+01 -1.675
 3400 1   -8.856535 -2.618735e+01 -1.675
 3401 1   -8.843096 -2.476742e+01 -1.675
 3402 1   -7.606675 -2.406909e+01 -1.675
 3403 1  -10.092956 -2.688568e+01 -1.675
 3404 1  -11.315937 -2.616407e+01 -1.675
 3405 1  -11.302498 -2.474414e+01 -1.675
 3406 1  -10.066077 -2.404581e+01 -1.675
 3407 1  -12.552358 -2.686240e+01 -1.675
 3408 1  -13.775339 -2.614080e+01 -1.675
 3409 1  -13.761900 -2.472086e+01 -1.675
 3410 1  -12.525479 -2.402253e+01 -1.675
 3411 1  -15.011760 -2.683913e+01 -1.675
 3412 1  -16.234741 -2.611752e+01 -1.675
 3413 1  -16.221302 -2.469758e+01 -1.675
 3414 1  -14.984881 -2.399925e+01 -1.675
 3415 1  -17.471162 -2.681585e+01 -1.675
 3416 1  -18.694143 -2.609424e+01 -1.675
 3417 1  -18.680704 -2.467430e+01 -1.675
 3418 1  -17.444283 -2.397598e+01 -1.675
 3419 1  -19.930564 -2.679257e+01 -1.675
 3420 1  -21.153545 -2.607096e+01 -1.675
 3421 1  -21.140106 -2.465103e+01 -1.675
 3422 1  -19.903685 -2.395270e+01 -1.675
 3423 1  -22.389966 -2.676929e+01 -1.675
 3424 1  -23.612947 -2.604769e+01 -1.675
 3425 1  -23.599508 -2.462775e+01 -1.675
 3426 1  -22.363087 -2.392942e+01 -1.675
 3427 1  -24.849368 -2.674602e+01 -1.675
 3428 1  -26.072349 -2.602441e+01 -1.675
 3429 1  -26.058910 -2.460447e+01 -1.675
 3430 1  -24.822489 -2.390614e+01 -1.675
 3431 1  -27.308770 -2.672274e+01 -1.675
 3432 1  -28.531751 -2.600113e+01 -1.675
 3433 1  -28.518312 -2.458119e+01 -1.675
 3434 1  -27.281891 -2.388286e+01 -1.675
 3435 1  -29.768172 -2.669946e+01 -1.675
 3436 1  -30.991153 -2.597785e+01 -1.675
 3437 1  -30.977714 -2.455792e+01 -1.675
 3438 1  -29.741293 -2.385959e+01 -1.675
 3439 1  -32.227574 -2.667618e+01 -1.675
 3440 1  -33.450555 -2.595458e+01 -1.675
 3441 1  -33.437116 -2.453464e+01 -1.675
 3442 1  -32.200695 -2.383631e+01 -1.675
 3443 1  -34.686976 -2.665290e+01 -1.675
 3444 1  -35.909957 -2.593130e+01 -1.675
 3445 1  -35.896518 -2.451136e+01 -1.675
 3446 1  -34.660097 -2.381303e+01 -1.675
 3447 1  -37.146378 -2.662963e+01 -1.675
 3448 1  -38.369359 -2.590802e+01 -1.675
 3449 1  -38.355920 -2.448808e+01 -1.675
 3450 1  -37.119499 -2.378975e+01 -1.675
 3451 1  -39.605780 -2.660635e+01 -1.675
 3452 1  -40.828761 -2.588474e+01 -1.675
 3453 1  -40.815322 -2.446481e+01 -1.675
 3454 1  -39.578901 -2.376648e+01 -1.675
 3455 1  -42.065182 -2.658307e+01 -1.675
 3456 1  -43.288163 -2.586146e+01 -1.675
 3457 1  -43.274724 -2.444153e+01 -1.675
 3458 1  -42.038303 -2.374320e+01 -1.675
 3459 1  -44.524584 -2.655979e+01 -1.675
 3460 1  -45.747565 -2.583819e+01 -1.675
 3461 1  -45.734126 -2.441825e+01 -1.675
 3462 1  -44.497705 -2.371992e+01 -1.675
 3463 1  -46.983986 -2.653652e+01 -1.675
 3464 1  -48.206967 -2.581491e+01 -1.675
 3465 1  -48.193528 -2.439497e+01 -1.675
 3466 1  -46.957107 -2.369664e+01 -1.675
 3467 1  -49.443388 -2.651324e+01 -1.675
 3468 1  -50.666369 -2.579163e+01 -1.675
 3469 1  -50.652930 -2.437170e+01 -1.675
 3470 1  -49.416509 -2.367337e+01 -1.675
 3471 1  -51.902790 -2.648996e+01 -1.675
 3472 1  -53.125771 -2.576835e+01 -1.675
 3473 1  -53.112332 -2.434842e+01 -1.675
 3474 1  -51.875911 -2.365009e+01 -1.675
 3475 1  -54.362192 -2.646668e+01 -1.675
 3476 1  -55.585173 -2.574508e+01 -1.675
 3477 1  -55.571734 -2.432514e+01 -1.675
 3478 1  -54.335313 -2.362681e+01 -1.675
 3479 1  -56.821594 -2.644341e+01 -1.675
 3480 1  -58.044575 -2.572180e+01 -1.675
 3481 1  -58.031135 -2.430186e+01 -1.675
 3482 1  -56.794715 -2.360353e+01 -1.675
 3483 1  -59.280996 -2.642013e+01 -1.675
 3484 1  -60.503977 -2.569852e+01 -1.675
 3485 1  -60.490537 -2.427858e+01 -1.675
 3486 1  -59.254117 -2.358026e+01 -1.675
 3487 1  -61.740398 -2.639685e+01 -1.675
 3488 1  -62.963379 -2.567524e+01 -1.675
 3489 1  -62.949939 -2.425531e+01 -1.675
 3490 1  -61.713519 -2.355698e+01 -1.675
 3491 1  -64.199800 -2.637357e+01 -1.675
 3492 1  -65.422781 -2.565197e+01 -1.675
 3493 1  -65.409341 -2.423203e+01 -1.675
 3494 1  -64.172921 -2.353370e+01 -1.675
 3495 1  -66.659201 -2.635030e+01 -1.675
 3496 1  -67.882183 -2.562869e+01 -1.675
 3497 1  -67.868743 -2.420875e+01 -1.675
 3498 1  -66.632323 -2.351042e+01 -1.675
 3499 1  -69.118603 -2.632702e+01 -1.675
 3500 1  -70.341585 -2.560541e+01 -1.675
 3501 1  -70.328145 -2.418547e+01 -1.675
 3502 1  -69.091725 -2.348714e+01 -1.675
 3503 1  -71.578005 -2.630374e+01 -1.675
 3504 1  -72.800987 -2.558213e+01 -1.675
 3505 1  -72.787547 -2.416220e+01 -1.675
 3506 1  -71.551127 -2.346387e+01 -1.675
 3507 1  -74.037407 -2.628046e+01 -1.675
 3508 1  -75.260389 -2.555886e+01 -1.675
 3509 1  -75.246949 -2.413892e+01 -1.675
 3510 1  -74.010529 -2.344059e+01 -1.675
 3511 1  -76.496809 -2.625718e+01 -1.675
 3512 1  -77.719791 -2.553558e+01 -1.675
 3513 1  -77.706351 -2.411564e+01 -1.675
 3514 1  -76.469931 -2.341731e+01 -1.675
 3515 1  -78.956211 -2.623391e+01 -1.675
 3516 1  -80.179193 -2.551230e+01 -1.675
 3517 1  -80.165753 -2.409236e+01 -1.675
 3518 1  -78.929333 -2.339403e+01 -1.675
 3519 1  -81.415613 -2.621063e+01 -1.675
 3520 1  -82.638595 -2.548902e+01 -1.675
 3521 1  -82.625155 -2.406909e+01 -1.675
 3522 1  -81.388735 -2.337076e+01 -1.675
 3523 1  -83.875015 -2.618735e+01 -1.675
 3524 1  -85.097997 -2.546574e+01 -1.675
 3525 1  -85.084557 -2.404581e+01 -1.675
 3526 1  -83.848137 -2.334748e+01 -1.675
 3527 1  -86.334417 -2.616407e+01 -1.675
 3528 1  -87.557399 -2.544247e+01 -1.675
 3529 1  -87.543959 -2.402253e+01 -1.675
 3530 1  -86.307539 -2.332420e+01 -1.675
 3531 1  -88.793819 -2.614080e+01 -1.675
 3532 1  -90.016801 -2.541919e+01 -1.675
 3533 1  -90.003361 -2.399925e+01 -1.675
 3534 1  -88.766941 -2.330092e+01 -1.675
 3535 1  -91.253221 -2.611752e+01 -1.675
 3536 1  -92.476203 -2.539591e+01 -1.675
 3537 1  -92.462763 -2.397598e+01 -1.675
 3538 1  -91.226343 -2.327765e+01 -1.675
 3539 1  -93.712623 -2.609424e+01 -1.675
 3540 1  -94.935605 -2.537263e+01 -1.675
 3541 1  -94.922165 -2.395270e+01 -1.675
 3542 1  -93.685745 -2.325437e+01 -1.675
 3543 1  -96.172025 -2.607096e+01 -1.675
 3544 1  -97.395007 -2.534936e+01 -1.675
 3545 1  -97.381567 -2.392942e+01 -1.675
 3546 1  -96.145147 -2.323109e+01 -1.675
 3547 1  -98.631427 -2.604769e+01 -1.675
 3548 1  -99.854409 -2.532608e+01 -1.675
 3549 1  -99.840969 -2.390614e+01 -1.675
 3550 1  -98.604549 -2.320781e+01 -1.675
 3551 1 -101.090829 -2.602441e+01 -1.675
 3552 1 -102.313811 -2.530280e+01 -1.675
 3553 1 -102.300371 -2.388286e+01 -1.675
 3554 1 -101.063951 -2.318454e+01 -1.675
 3555 1 -103.550231 -2.600113e+01 -1.675
 3556 1 -104.773213 -2.527952e+01 -1.675
 3557 1 -104.759773 -2.385959e+01 -1.675
 3558 1 -103.523353 -2.316126e+01 -1.675
 3559 1 -106.009633 -2.597785e+01 -1.675
 3560 1 -107.232615 -2.525625e+01 -1.675
 3561 1 -107.219175 -2.383631e+01 -1.675
 3562 1 -105.982755 -2.313798e+01 -1.675
 3563 1 -108.469035 -2.595458e+01 -1.675
 3564 1 -109.692017 -2.523297e+01 -1.675
 3565 1 -109.678577 -2.381303e+01 -1.675
 3566 1 -108.442157 -2.311470e+01 -1.675
 3567 1 -110.928437 -2.593130e+01 -1.675
 3568 1 -112.151419 -2.520969e+01 -1.675
 3569 1 -112.137979 -2.378975e+01 -1.675
 3570 1 -110.901559 -2.309142e+01 -1.675
 3571 1  111.694481 -2.306815e+01 -1.675
 3572 1  111.707920 -2.164821e+01 -1.675
 3573 1  110.458060 -2.376648e+01 -1.675
 3574 1  109.235079 -2.304487e+01 -1.675
 3575 1  109.248518 -2.162493e+01 -1.675
 3576 1  110.484939 -2.092660e+01 -1.675
 3577 1  107.998658 -2.374320e+01 -1.675
 3578 1  106.775677 -2.302159e+01 -1.675
 3579 1  106.789116 -2.160166e+01 -1.675
 3580 1  108.025537 -2.090333e+01 -1.675
 3581 1  105.539256 -2.371992e+01 -1.675
 3582 1  104.316275 -2.299831e+01 -1.675
 3583 1  104.329714 -2.157838e+01 -1.675
 3584 1  105.566135 -2.088005e+01 -1.675
 3585 1  103.079854 -2.369664e+01 -1.675
 3586 1  101.856873 -2.297504e+01 -1.675
 3587 1  101.870312 -2.155510e+01 -1.675
 3588 1  103.106733 -2.085677e+01 -1.675
 3589 1  100.620452 -2.367337e+01 -1.675
 3590 1   99.397471 -2.295176e+01 -1.675
 3591 1   99.410910 -2.153182e+01 -1.675
 3592 1  100.647331 -2.083349e+01 -1.675
 3593 1   98.161050 -2.365009e+01 -1.675
 3594 1   96.938069 -2.292848e+01 -1.675
 3595 1   96.951508 -2.150854e+01 -1.675
 3596 1   98.187929 -2.081022e+01 -1.675
 3597 1   95.701648 -2.362681e+01 -1.675
 3598 1   94.478667 -2.290520e+01 -1.675
 3599 1   94.492106 -2.148527e+01 -1.675
 3600 1   95.728527 -2.078694e+01 -1.675
 3601 1   93.242246 -2.360353e+01 -1.675
 3602 1   92.019265 -2.288193e+01 -1.675
 3603 1   92.032704 -2.146199e+01 -1.675
 3604 1   93.269125 -2.076366e+01 -1.675
 3605 1   90.782844 -2.358026e+01 -1.675
 3606 1   89.559863 -2.285865e+01 -1.675
 3607 1   89.573302 -2.143871e+01 -1.675
 3608 1   90.809723 -2.074038e+01 -1.675
 3609 1   88.323442 -2.355698e+01 -1.675
 3610 1   87.100461 -2.283537e+01 -1.675
 3611 1   87.113900 -2.141543e+01 -1.675
 3612 1   88.350321 -2.071710e+01 -1.675
 3613 1   85.864040 -2.353370e+01 -1.675
 3614 1   84.641059 -2.281209e+01 -1.675
 3615 1   84.654498 -2.139216e+01 -1.675
 3616 1   85.890919 -2.069383e+01 -1.675
 3617 1   83.404638 -2.351042e+01 -1.675
 3618 1   82.181657 -2.278882e+01 -1.675
 3619 1   82.195096 -2.136888e+01 -1.675
 3620 1   83.431517 -2.067055e+01 -1.675
 3621 1   80.945236 -2.348714e+01 -1.675
 3622 1   79.722255 -2.276554e+01 -1.675
 3623 1   79.735694 -2.134560e+01 -1.675
 3624 1   80.972115 -2.064727e+01 -1.675
 3625 1   78.485834 -2.346387e+01 -1.675
 3626 1   77.262853 -2.274226e+01 -1.675
 3627 1   77.276292 -2.132232e+01 -1.675
 3628 1   78.512713 -2.062399e+01 -1.675
 3629 1   76.026432 -2.344059e+01 -1.675
 3630 1   74.803451 -2.271898e+01 -1.675
 3631 1   74.816890 -2.129905e+01 -1.675
 3632 1   76.053311 -2.060072e+01 -1.675
 3633 1   73.567030 -2.341731e+01 -1.675
 3634 1   72.344049 -2.269570e+01 -1.675
 3635 1   72.357488 -2.127577e+01 -1.675
 3636 1   73.593909 -2.057744e+01 -1.675
 3637 1   71.107628 -2.339403e+01 -1.675
 3638 1   69.884647 -2.267243e+01 -1.675
 3639 1   69.898086 -2.125249e+01 -1.675
 3640 1   71.134507 -2.055416e+01 -1.675
 3641 1   68.648226 -2.337076e+01 -1.675
 3642 1   67.425245 -2.264915e+01 -1.675
 3643 1   67.438684 -2.122921e+01 -1.675
 3644 1   68.675105 -2.053088e+01 -1.675
 3645 1   66.188824 -2.334748e+01 -1.675
 3646 1   64.965843 -2.262587e+01 -1.675
 3647 1   64.979282 -2.120594e+01 -1.675
 3648 1   66.215703 -2.050761e+01 -1.675
 3649 1   63.729422 -2.332420e+01 -1.675
 3650 1   62.506441 -2.260259e+01 -1.675
 3651 1   62.519880 -2.118266e+01 -1.675
 3652 1   63.756301 -2.048433e+01 -1.675
 3653 1   61.270020 -2.330092e+01 -1.675
 3654 1   60.047039 -2.257932e+01 -1.675
 3655 1   60.060478 -2.115938e+01 -1.675
 3656 1   61.296899 -2.046105e+01 -1.675
 3657 1   58.810618 -2.327765e+01 -1.675
 3658 1   57.587637 -2.255604e+01 -1.675
 3659 1   57.601076 -2.113610e+01 -1.675
 3660 1   58.837497 -2.043777e+01 -1.675
 3661 1   56.351216 -2.325437e+01 -1.675
 3662 1   55.128235 -2.253276e+01 -1.675
 3663 1   55.141674 -2.111282e+01 -1.675
 3664 1   56.378095 -2.041450e+01 -1.675
 3665 1   53.891814 -2.323109e+01 -1.675
 3666 1   52.668833 -2.250948e+01 -1.675
 3667 1   52.682272 -2.108955e+01 -1.675
 3668 1   53.918693 -2.039122e+01 -1.675
 3669 1   51.432412 -2.320781e+01 -1.675
 3670 1   50.209431 -2.248621e+01 -1.675
 3671 1   50.222870 -2.106627e+01 -1.675
 3672 1   51.459291 -2.036794e+01 -1.675
 3673 1   48.973010 -2.318454e+01 -1.675
 3674 1   47.750029 -2.246293e+01 -1.675
 3675 1   47.763468 -2.104299e+01 -1.675
 3676 1   48.999889 -2.034466e+01 -1.675
 3677 1   46.513608 -2.316126e+01 -1.675
 3678 1   45.290627 -2.243965e+01 -1.675
 3679 1   45.304066 -2.101971e+01 -1.675
 3680 1   46.540487 -2.032138e+01 -1.675
 3681 1   44.054206 -2.313798e+01 -1.675
 3682 1   42.831225 -2.241637e+01 -1.675
 3683 1   42.844664 -2.099644e+01 -1.675
 3684 1   44.081085 -2.029811e+01 -1.675
 3685 1   41.594804 -2.311470e+01 -1.675
 3686 1   40.371823 -2.239310e+01 -1.675
 3687 1   40.385262 -2.097316e+01 -1.675
 3688 1   41.621683 -2.027483e+01 -1.675
 3689 1   39.135402 -2.309142e+01 -1.675
 3690 1   37.912421 -2.236982e+01 -1.675
 3691 1   37.925860 -2.094988e+01 -1.675
 3692 1   39.162281 -2.025155e+01 -1.675
 3693 1   36.676000 -2.306815e+01 -1.675
 3694 1   35.453019 -2.234654e+01 -1.675
 3695 1   35.466458 -2.092660e+01 -1.675
 3696 1   36.702879 -2.022827e+01 -1.675
 3697 1   34.216598 -2.304487e+01 -1.675
 3698 1   32.993617 -2.232326e+01 -1.675
 3699 1   33.007056 -2.090333e+01 -1.675
 3700 1   34.243477 -2.020500e+01 -1.675
 3701 1   31.757196 -2.302159e+01 -1.675
 3702 1   30.534215 -2.229998e+01 -1.675
 3703 1   30.547654 -2.088005e+01 -1.675
 3704 1   31.784075 -2.018172e+01 -1.675
 3705 1   29.297794 -2.299831e+01 -1.675
 3706 1   28.074813 -2.227671e+01 -1.675
 3707 1   28.088252 -2.085677e+01 -1.675
 3708 1   29.324673 -2.015844e+01 -1.675
 3709 1   26.838392 -2.297504e+01 -1.675
 3710 1   25.615411 -2.225343e+01 -1.675
 3711 1   25.628850 -2.083349e+01 -1.675
 3712 1   26.865271 -2.013516e+01 -1.675
 3713 1   24.378990 -2.295176e+01 -1.675
 3714 1   23.156009 -2.223015e+01 -1.675
 3715 1   23.169448 -2.081022e+01 -1.675
 3716 1   24.405869 -2.011189e+01 -1.675
 3717 1   21.919588 -2.292848e+01 -1.675
 3718 1   20.696607 -2.220687e+01 -1.675
 3719 1   20.710046 -2.078694e+01 -1.675
 3720 1   21.946467 -2.008861e+01 -1.675
 3721 1   19.460186 -2.290520e+01 -1.675
 3722 1   18.237205 -2.218360e+01 -1.675
 3723 1   18.250644 -2.076366e+01 -1.675
 3724 1   19.487065 -2.006533e+01 -1.675
 3725 1   17.000784 -2.288193e+01 -1.675
 3726 1   15.777803 -2.216032e+01 -1.675
 3727 1   15.791242 -2.074038e+01 -1.675
 3728 1   17.027663 -2.004205e+01 -1.675
 3729 1   14.541382 -2.285865e+01 -1.675
 3730 1   13.318401 -2.213704e+01 -1.675
 3731 1   13.331840 -2.071710e+01 -1.675
 3732 1   14.568261 -2.001878e+01 -1.675
 3733 1   12.081980 -2.283537e+01 -1.675
 3734 1   10.858999 -2.211376e+01 -1.675
 3735 1   10.872438 -2.069383e+01 -1.675
 3736 1   12.108859 -1.999550e+01 -1.675
 3737 1    9.622578 -2.281209e+01 -1.675
 3738 1    8.399597 -2.209049e+01 -1.675
 3739 1    8.413036 -2.067055e+01 -1.675
 3740 1    9.649457 -1.997222e+01 -1.675
 3741 1    7.163176 -2.278882e+01 -1.675
 3742 1    5.940195 -2.206721e+01 -1.675
 3743 1    5.953634 -2.064727e+01 -1.675
 3744 1    7.190055 -1.994894e+01 -1.675
 3745 1    4.703774 -2.276554e+01 -1.675
 3746 1    3.480793 -2.204393e+01 -1.675
 3747 1    3.494232 -2.062399e+01 -1.675
 3748 1    4.730653 -1.992566e+01 -1.675
 3749 1    2.244372 -2.274226e+01 -1.675
 3750 1    1.021391 -2.202065e+01 -1.675
 3751 1    1.034830 -2.060072e+01 -1.675
 3752 1    2.271251 -1.990239e+01 -1.675
 3753 1   -0.215030 -2.271898e+01 -1.675
 3754 1   -1.438011 -2.199738e+01 -1.675
 3755 1   -1.424572 -2.057744e+01 -1.675
 3756 1   -0.188151 -1.987911e+01 -1.675
 3757 1   -2.674432 -2.269570e+01 -1.675
 3758 1   -3.897413 -2.197410e+01 -1.675
 3759 1   -3.883974 -2.055416e+01 -1.675
 3760 1   -2.647553 -1.985583e+01 -1.675
 3761 1   -5.133834 -2.267243e+01 -1.675
 3762 1   -6.356815 -2.195082e+01 -1.675
 3763 1   -6.343376 -2.053088e+01 -1.675
 3764 1   -5.106955 -1.983255e+01 -1.675
 3765 1   -7.593236 -2.264915e+01 -1.675
 3766 1   -8.816217 -2.192754e+01 -1.675
 3767 1   -8.802778 -2.050761e+01 -1.675
 3768 1   -7.566357 -1.980928e+01 -1.675
 3769 1  -10.052638 -2.262587e+01 -1.675
 3770 1  -11.275619 -2.190426e+01 -1.675
 3771 1  -11.262180 -2.048433e+01 -1.675
 3772 1  -10.025759 -1.978600e+01 -1.675
 3773 1  -12.512040 -2.260259e+01 -1.675
 3774 1  -13.735021 -2.188099e+01 -1.675
 3775 1  -13.721582 -2.046105e+01 -1.675
 3776 1  -12.485161 -1.976272e+01 -1.675
 3777 1  -14.971442 -2.257932e+01 -1.675
 3778 1  -16.194423 -2.185771e+01 -1.675
 3779 1  -16.180984 -2.043777e+01 -1.675
 3780 1  -14.944563 -1.973944e+01 -1.675
 3781 1  -17.430844 -2.255604e+01 -1.675
 3782 1  -18.653825 -2.183443e+01 -1.675
 3783 1  -18.640386 -2.041450e+01 -1.675
 3784 1  -17.403965 -1.971617e+01 -1.675
 3785 1  -19.890246 -2.253276e+01 -1.675
 3786 1  -21.113227 -2.181115e+01 -1.675
 3787 1  -21.099788 -2.039122e+01 -1.675
 3788 1  -19.863367 -1.969289e+01 -1.675
 3789 1  -22.349648 -2.250948e+01 -1.675
 3790 1  -23.572629 -2.178788e+01 -1.675
 3791 1  -23.559190 -2.036794e+01 -1.675
 3792 1  -22.322769 -1.966961e+01 -1.675
 3793 1  -24.809050 -2.248621e+01 -1.675
 3794 1  -26.032031 -2.176460e+01 -1.675
 3795 1  -26.018592 -2.034466e+01 -1.675
 3796 1  -24.782171 -1.964633e+01 -1.675
 3797 1  -27.268452 -2.246293e+01 -1.675
 3798 1  -28.491433 -2.174132e+01 -1.675
 3799 1  -28.477994 -2.032138e+01 -1.675
 3800 1  -27.241573 -1.962306e+01 -1.675
 3801 1  -29.727854 -2.243965e+01 -1.675
 3802 1  -30.950835 -2.171804e+01 -1.675
 3803 1  -30.937396 -2.029811e+01 -1.675
 3804 1  -29.700975 -1.959978e+01 -1.675
 3805 1  -32.187256 -2.241637e+01 -1.675
 3806 1  -33.410237 -2.169477e+01 -1.675
 3807 1  -33.396798 -2.027483e+01 -1.675
 3808 1  -32.160377 -1.957650e+01 -1.675
 3809 1  -34.646658 -2.239310e+01 -1.675
 3810 1  -35.869639 -2.167149e+01 -1.675
 3811 1  -35.856200 -2.025155e+01 -1.675
 3812 1  -34.619779 -1.955322e+01 -1.675
 3813 1  -37.106060 -2.236982e+01 -1.675
 3814 1  -38.329041 -2.164821e+01 -1.675
 3815 1  -38.315602 -2.022827e+01 -1.675
 3816 1  -37.079181 -1.952994e+01 -1.675
 3817 1  -39.565462 -2.234654e+01 -1.675
 3818 1  -40.788443 -2.162493e+01 -1.675
 3819 1  -40.775003 -2.020500e+01 -1.675
 3820 1  -39.538583 -1.950667e+01 -1.675
 3821 1  -42.024864 -2.232326e+01 -1.675
 3822 1  -43.247845 -2.160166e+01 -1.675
 3823 1  -43.234405 -2.018172e+01 -1.675
 3824 1  -41.997985 -1.948339e+01 -1.675
 3825 1  -44.484266 -2.229998e+01 -1.675
 3826 1  -45.707247 -2.157838e+01 -1.675
 3827 1  -45.693807 -2.015844e+01 -1.675
 3828 1  -44.457387 -1.946011e+01 -1.675
 3829 1  -46.943668 -2.227671e+01 -1.675
 3830 1  -48.166649 -2.155510e+01 -1.675
 3831 1  -48.153209 -2.013516e+01 -1.675
 3832 1  -46.916789 -1.943683e+01 -1.675
 3833 1  -49.403069 -2.225343e+01 -1.675
 3834 1  -50.626051 -2.153182e+01 -1.675
 3835 1  -50.612611 -2.011189e+01 -1.675
 3836 1  -49.376191 -1.941356e+01 -1.675
 3837 1  -51.862471 -2.223015e+01 -1.675
 3838 1  -53.085453 -2.150854e+01 -1.675
 3839 1  -53.072013 -2.008861e+01 -1.675
 3840 1  -51.835593 -1.939028e+01 -1.675
 3841 1  -54.321873 -2.220687e+01 -1.675
 3842 1  -55.544855 -2.148527e+01 -1.675
 3843 1  -55.531415 -2.006533e+01 -1.675
 3844 1  -54.294995 -1.936700e+01 -1.675
 3845 1  -56.781275 -2.218360e+01 -1.675
 3846 1  -58.004257 -2.146199e+01 -1.675
 3847 1  -57.990817 -2.004205e+01 -1.675
 3848 1  -56.754397 -1.934372e+01 -1.675
 3849 1  -59.240677 -2.216032e+01 -1.675
 3850 1  -60.463659 -2.143871e+01 -1.675
 3851 1  -60.450219 -2.001878e+01 -1.675
 3852 1  -59.213799 -1.932045e+01 -1.675
 3853 1  -61.700079 -2.213704e+01 -1.675
 3854 1  -62.923061 -2.141543e+01 -1.675
 3855 1  -62.909621 -1.999550e+01 -1.675
 3856 1  -61.673201 -1.929717e+01 -1.675
 3857 1  -64.159481 -2.211376e+01 -1.675
 3858 1  -65.382463 -2.139216e+01 -1.675
 3859 1  -65.369023 -1.997222e+01 -1.675
 3860 1  -64.132603 -1.927389e+01 -1.675
 3861 1  -66.618883 -2.209049e+01 -1.675
 3862 1  -67.841865 -2.136888e+01 -1.675
 3863 1  -67.828425 -1.994894e+01 -1.675
 3864 1  -66.592005 -1.925061e+01 -1.675
 3865 1  -69.078285 -2.206721e+01 -1.675
 3866 1  -70.301267 -2.134560e+01 -1.675
 3867 1  -70.287827 -1.992566e+01 -1.675
 3868 1  -69.051407 -1.922734e+01 -1.675
 3869 1  -71.537687 -2.204393e+01 -1.675
 3870 1  -72.760669 -2.132232e+01 -1.675
 3871 1  -72.747229 -1.990239e+01 -1.675
 3872 1  -71.510809 -1.920406e+01 -1.675
 3873 1  -73.997089 -2.202065e+01 -1.675
 3874 1  -75.220071 -2.129905e+01 -1.675
 3875 1  -75.206631 -1.987911e+01 -1.675
 3876 1  -73.970211 -1.918078e+01 -1.675
 3877 1  -76.456491 -2.199738e+01 -1.675
 3878 1  -77.679473 -2.127577e+01 -1.675
 3879 1  -77.666033 -1.985583e+01 -1.675
 3880 1  -76.429613 -1.915750e+01 -1.675
 3881 1  -78.915893 -2.197410e+01 -1.675
 3882 1  -80.138875 -2.125249e+01 -1.675
 3883 1  -80.125435 -1.983255e+01 -1.675
 3884 1  -78.889015 -1.913422e+01 -1.675
 3885 1  -81.375295 -2.195082e+01 -1.675
 3886 1  -82.598277 -2.122921e+01 -1.675
 3887 1  -82.584837 -1.980928e+01 -1.675
 3888 1  -81.348417 -1.911095e+01 -1.675
 3889 1  -83.834697 -2.192754e+01 -1.675
 3890 1  -85.057679 -2.120594e+01 -1.675
 3891 1  -85.044239 -1.978600e+01 -1.675
 3892 1  -83.807819 -1.908767e+01 -1.675
 3893 1  -86.294099 -2.190426e+01 -1.675
 3894 1  -87.517081 -2.118266e+01 -1.675
 3895 1  -87.503641 -1.976272e+01 -1.675
 3896 1  -86.267221 -1.906439e+01 -1.675
 3897 1  -88.753501 -2.188099e+01 -1.675
 3898 1  -89.976483 -2.115938e+01 -1.675
 3899 1  -89.963043 -1.973944e+01 -1.675
 3900 1  -88.726623 -1.904111e+01 -1.675
 3901 1  -91.212903 -2.185771e+01 -1.675
 3902 1  -92.435885 -2.113610e+01 -1.675
 3903 1  -92.422445 -1.971617e+01 -1.675
 3904 1  -91.186025 -1.901784e+01 -1.675
 3905 1  -93.672305 -2.183443e+01 -1.675
 3906 1  -94.895287 -2.111282e+01 -1.675
 3907 1  -94.881847 -1.969289e+01 -1.675
 3908 1  -93.645427 -1.899456e+01 -1.675
 3909 1  -96.131707 -2.181115e+01 -1.675
 3910 1  -97.354689 -2.108955e+01 -1.675
 3911 1  -97.341249 -1.966961e+01 -1.675
 3912 1  -96.104829 -1.897128e+01 -1.675
 3913 1  -98.591109 -2.178788e+01 -1.675
 3914 1  -99.814091 -2.106627e+01 -1.675
 3915 1  -99.800651 -1.964633e+01 -1.675
 3916 1  -98.564231 -1.894800e+01 -1.675
 3917 1 -101.050511 -2.176460e+01 -1.675
 3918 1 -102.273493 -2.104299e+01 -1.675
 3919 1 -102.260053 -1.962306e+01 -1.675
 3920 1 -101.023633 -1.892473e+01 -1.675
 3921 1 -103.509913 -2.174132e+01 -1.675
 3922 1 -104.732895 -2.101971e+01 -1.675
 3923 1 -104.719455 -1.959978e+01 -1.675
 3924 1 -103.483035 -1.890145e+01 -1.675
 3925 1 -105.969315 -2.171804e+01 -1.675
 3926 1 -107.192297 -2.099644e+01 -1.675
 3927 1 -107.178857 -1.957650e+01 -1.675
 3928 1 -105.942437 -1.887817e+01 -1.675
 3929 1 -108.428717 -2.169477e+01 -1.675
 3930 1 -109.651699 -2.097316e+01 -1.675
 3931 1 -109.638259 -1.955322e+01 -1.675
 3932 1 -108.401839 -1.885489e+01 -1.675
 3933 1 -110.888119 -2.167149e+01 -1.675
 3934 1 -112.111101 -2.094988e+01 -1.675
 3935 1 -112.097661 -1.952994e+01 -1.675
 3936 1 -110.861241 -1.883162e+01 -1.675
 3937 1  111.734799 -1.880834e+01 -1.675
 3938 1  111.748238 -1.738840e+01 -1.675
 3939 1  110.498378 -1.950667e+01 -1.675
 3940 1  109.275397 -1.878506e+01 -1.675
 3941 1  109.288836 -1.736512e+01 -1.675
 3942 1  110.525257 -1.666679e+01 -1.675
 3943 1  108.038976 -1.948339e+01 -1.675
 3944 1  106.815995 -1.876178e+01 -1.675
 3945 1  106.829434 -1.734185e+01 -1.675
 3946 1  108.065855 -1.664352e+01 -1.675
 3947 1  105.579574 -1.946011e+01 -1.675
 3948 1  104.356593 -1.873850e+01 -1.675
 3949 1  104.370032 -1.731857e+01 -1.675
 3950 1  105.606453 -1.662024e+01 -1.675
 3951 1  103.120172 -1.943683e+01 -1.675
 3952 1  101.897191 -1.871523e+01 -1.675
 3953 1  101.910630 -1.729529e+01 -1.675
 3954 1  103.147051 -1.659696e+01 -1.675
 3955 1  100.660770 -1.941356e+01 -1.675
 3956 1   99.437789 -1.869195e+01 -1.675
 3957 1   99.451228 -1.727201e+01 -1.675
 3958 1  100.687649 -1.657368e+01 -1.675
 3959 1   98.201368 -1.939028e+01 -1.675
 3960 1   96.978387 -1.866867e+01 -1.675
 3961 1   96.991826 -1.724874e+01 -1.675
 3962 1   98.228247 -1.655041e+01 -1.675
 3963 1   95.741966 -1.936700e+01 -1.675
 3964 1   94.518985 -1.864539e+01 -1.675
 3965 1   94.532424 -1.722546e+01 -1.675
 3966 1   95.768845 -1.652713e+01 -1.675
 3967 1   93.282564 -1.934372e+01 -1.675
 3968 1   92.059583 -1.862212e+01 -1.675
 3969 1   92.073022 -1.720218e+01 -1.675
 3970 1   93.309443 -1.650385e+01 -1.675
 3971 1   90.823162 -1.932045e+01 -1.675
 3972 1   89.600181 -1.859884e+01 -1.675
 3973 1   89.613620 -1.717890e+01 -1.675
 3974 1   90.850041 -1.648057e+01 -1.675
 3975 1   88.363760 -1.929717e+01 -1.675
 3976 1   87.140779 -1.857556e+01 -1.675
 3977 1   87.154218 -1.715563e+01 -1.675
 3978 1   88.390639 -1.645730e+01 -1.675
 3979 1   85.904358 -1.927389e+01 -1.675
 3980 1   84.681377 -1.855228e+01 -1.675
 3981 1   84.694816 -1.713235e+01 -1.675
 3982 1   85.931237 -1.643402e+01 -1.675
 3983 1   83.444956 -1.925061e+01 -1.675
 3984 1   82.221975 -1.852901e+01 -1.675
 3985 1   82.235414 -1.710907e+01 -1.675
 3986 1   83.471835 -1.641074e+01 -1.675
 3987 1   80.985554 -1.922734e+01 -1.675
 3988 1   79.762573 -1.850573e+01 -1.675
 3989 1   79.776012 -1.708579e+01 -1.675
 3990 1   81.012433 -1.638746e+01 -1.675
 3991 1   78.526152 -1.920406e+01 -1.675
 3992 1   77.303171 -1.848245e+01 -1.675
 3993 1   77.316610 -1.706251e+01 -1.675
 3994 1   78.553031 -1.636419e+01 -1.675
 3995 1   76.066750 -1.918078e+01 -1.675
 3996 1   74.843769 -1.845917e+01 -1.675
 3997 1   74.857208 -1.703924e+01 -1.675
 3998 1   76.093629 -1.634091e+01 -1.675
 3999 1   73.607348 -1.915750e+01 -1.675
 4000 1   72.384367 -1.843590e+01 -1.675
 4001 1   72.397806 -1.701596e+01 -1.675
 4002 1   73.634227 -1.631763e+01 -1.675
 4003 1   71.147946 -1.913422e+01 -1.675
 4004 1   69.924965 -1.841262e+01 -1.675
 4005 1   69.938404 -1.699268e+01 -1.675
 4006 1   71.174825 -1.629435e+01 -1.675
 4007 1   68.688544 -1.911095e+01 -1.675
 4008 1   67.465563 -1.838934e+01 -1.675
 4009 1   67.479002 -1.696940e+01 -1.675
 4010 1   68.715423 -1.627107e+01 -1.675
 4011 1   66.229142 -1.908767e+01 -1.675
 4012 1   65.006161 -1.836606e+01 -1.675
 4013 1   65.019600 -1.694613e+01 -1.675
 4014 1   66.256021 -1.624780e+01 -1.675
 4015 1   63.769740 -1.906439e+01 -1.675
 4016 1   62.546759 -1.834278e+01 -1.675
 4017 1   62.560198 -1.692285e+01 -1.675
 4018 1   63.796619 -1.622452e+01 -1.675
 4019 1   61.310338 -1.904111e+01 -1.675
 4020 1   60.087357 -1.831951e+01 -1.675
 4021 1   60.100796 -1.689957e+01 -1.675
 4022 1   61.337217 -1.620124e+01 -1.675
 4023 1   58.850936 -1.901784e+01 -1.675
 4024 1   57.627955 -1.829623e+01 -1.675
 4025 1   57.641394 -1.687629e+01 -1.675
 4026 1   58.877815 -1.617796e+01 -1.675
 4027 1   56.391534 -1.899456e+01 -1.675
 4028 1   55.168553 -1.827295e+01 -1.675
 4029 1   55.181992 -1.685302e+01 -1.675
 4030 1   56.418413 -1.615469e+01 -1.675
 4031 1   53.932132 -1.897128e+01 -1.675
 4032 1   52.709151 -1.824967e+01 -1.675
 4033 1   52.722590 -1.682974e+01 -1.675
 4034 1   53.959011 -1.613141e+01 -1.675
 4035 1   51.472730 -1.894800e+01 -1.675
 4036 1   50.249749 -1.822640e+01 -1.675
 4037 1   50.263188 -1.680646e+01 -1.675
 4038 1   51.499609 -1.610813e+01 -1.675
 4039 1   49.013328 -1.892473e+01 -1.675
 4040 1   47.790347 -1.820312e+01 -1.675
 4041 1   47.803786 -1.678318e+01 -1.675
 4042 1   49.040207 -1.608485e+01 -1.675
 4043 1   46.553926 -1.890145e+01 -1.675
 4044 1   45.330945 -1.817984e+01 -1.675
 4045 1   45.344384 -1.675991e+01 -1.675
 4046 1   46.580805 -1.606158e+01 -1.675
 4047 1   44.094524 -1.887817e+01 -1.675
 4048 1   42.871543 -1.815656e+01 -1.675
 4049 1   42.884982 -1.673663e+01 -1.675
 4050 1   44.121403 -1.603830e+01 -1.675
 4051 1   41.635122 -1.885489e+01 -1.675
 4052 1   40.412141 -1.813329e+01 -1.675
 4053 1   40.425580 -1.671335e+01 -1.675
 4054 1   41.662001 -1.601502e+01 -1.675
 4055 1   39.175720 -1.883162e+01 -1.675
 4056 1   37.952739 -1.811001e+01 -1.675
 4057 1   37.966178 -1.669007e+01 -1.675
 4058 1   39.202599 -1.599174e+01 -1.675
 4059 1   36.716318 -1.880834e+01 -1.675
 4060 1   35.493337 -1.808673e+01 -1.675
 4061 1   35.506776 -1.666679e+01 -1.675
 4062 1   36.743197 -1.596847e+01 -1.675
 4063 1   34.256916 -1.878506e+01 -1.675
 4064 1   33.033935 -1.806345e+01 -1.675
 4065 1   33.047374 -1.664352e+01 -1.675
 4066 1   34.283795 -1.594519e+01 -1.675
 4067 1   31.797514 -1.876178e+01 -1.675
 4068 1   30.574533 -1.804018e+01 -1.675
 4069 1   30.587972 -1.662024e+01 -1.675
 4070 1   31.824393 -1.592191e+01 -1.675
 4071 1   29.338112 -1.873850e+01 -1.675
 4072 1   28.115131 -1.801690e+01 -1.675
 4073 1   28.128570 -1.659696e+01 -1.675
 4074 1   29.364991 -1.589863e+01 -1.675
 4075 1   26.878710 -1.871523e+01 -1.675
 4076 1   25.655729 -1.799362e+01 -1.675
 4077 1   25.669168 -1.657368e+01 -1.675
 4078 1   26.905589 -1.587535e+01 -1.675
 4079 1   24.419308 -1.869195e+01 -1.675
 4080 1   23.196327 -1.797034e+01 -1.675
 4081 1   23.209766 -1.655041e+01 -1.675
 4082 1   24.446187 -1.585208e+01 -1.675
 4083 1   21.959906 -1.866867e+01 -1.675
 4084 1   20.736925 -1.794707e+01 -1.675
 4085 1   20.750364 -1.652713e+01 -1.675
 4086 1   21.986785 -1.582880e+01 -1.675
 4087 1   19.500504 -1.864539e+01 -1.675
 4088 1   18.277523 -1.792379e+01 -1.675
 4089 1   18.290962 -1.650385e+01 -1.675
 4090 1   19.527383 -1.580552e+01 -1.675
 4091 1   17.041102 -1.862212e+01 -1.675
 4092 1   15.818121 -1.790051e+01 -1.675
 4093 1   15.831560 -1.648057e+01 -1.675
 4094 1   17.067981 -1.578224e+01 -1.675
 4095 1   14.581700 -1.859884e+01 -1.675
 4096 1   13.358719 -1.787723e+01 -1.675
 4097 1   13.372158 -1.645730e+01 -1.675
 4098 1   14.608579 -1.575897e+01 -1.675
 4099 1   12.122298 -1.857556e+01 -1.675
 4100 1   10.899317 -1.785395e+01 -1.675
 4101 1   10.912756 -1.643402e+01 -1.675
 4102 1   12.149177 -1.573569e+01 -1.675
 4103 1    9.662896 -1.855228e+01 -1.675
 4104 1    8.439915 -1.783068e+01 -1.675
 4105 1    8.453354 -1.641074e+01 -1.675
 4106 1    9.689775 -1.571241e+01 -1.675
 4107 1    7.203494 -1.852901e+01 -1.675
 4108 1    5.980513 -1.780740e+01 -1.675
 4109 1    5.993952 -1.638746e+01 -1.675
 4110 1    7.230373 -1.568913e+01 -1.675
 4111 1    4.744092 -1.850573e+01 -1.675
 4112 1    3.521111 -1.778412e+01 -1.675
 4113 1    3.534550 -1.636419e+01 -1.675
 4114 1    4.770971 -1.566586e+01 -1.675
 4115 1    2.284690 -1.848245e+01 -1.675
 4116 1    1.061709 -1.776084e+01 -1.675
 4117 1    1.075148 -1.634091e+01 -1.675
 4118 1    2.311569 -1.564258e+01 -1.675
 4119 1   -0.174712 -1.845917e+01 -1.675
 4120 1   -1.397693 -1.773757e+01 -1.675
 4121 1   -1.384254 -1.631763e+01 -1.675
 4122 1   -0.147833 -1.561930e+01 -1.675
 4123 1   -2.634114 -1.843590e+01 -1.675
 4124 1   -3.857095 -1.771429e+01 -1.675
 4125 1   -3.843656 -1.629435e+01 -1.675
 4126 1   -2.607235 -1.559602e+01 -1.675
 4127 1   -5.093516 -1.841262e+01 -1.675
 4128 1   -6.316497 -1.769101e+01 -1.675
 4129 1   -6.303058 -1.627107e+01 -1.675
 4130 1   -5.066637 -1.557275e+01 -1.675
 4131 1   -7.552918 -1.838934e+01 -1.675
 4132 1   -8.775899 -1.766773e+01 -1.675
 4133 1   -8.762460 -1.624780e+01 -1.675
 4134 1   -7.526039 -1.554947e+01 -1.675
 4135 1  -10.012320 -1.836606e+01 -1.675
 4136 1  -11.235301 -1.764446e+01 -1.675
 4137 1  -11.221862 -1.622452e+01 -1.675
 4138 1   -9.985441 -1.552619e+01 -1.675
 4139 1  -12.471722 -1.834278e+01 -1.675
 4140 1  -13.694703 -1.762118e+01 -1.675
 4141 1  -13.681264 -1.620124e+01 -1.675
 4142 1  -12.444843 -1.550291e+01 -1.675
 4143 1  -14.931124 -1.831951e+01 -1.675
 4144 1  -16.154105 -1.759790e+01 -1.675
 4145 1  -16.140666 -1.617796e+01 -1.675
 4146 1  -14.904245 -1.547963e+01 -1.675
 4147 1  -17.390526 -1.829623e+01 -1.675
 4148 1  -18.613507 -1.757462e+01 -1.675
 4149 1  -18.600068 -1.615469e+01 -1.675
 4150 1  -17.363647 -1.545636e+01 -1.675
 4151 1  -19.849928 -1.827295e+01 -1.675
 4152 1  -21.072909 -1.755135e+01 -1.675
 4153 1  -21.059470 -1.613141e+01 -1.675
 4154 1  -19.823049 -1.543308e+01 -1.675
 4155 1  -22.309330 -1.824967e+01 -1.675
 4156 1  -23.532311 -1.752807e+01 -1.675
 4157 1  -23.518871 -1.610813e+01 -1.675
 4158 1  -22.282451 -1.540980e+01 -1.675
 4159 1  -24.768732 -1.822640e+01 -1.675
 4160 1  -25.991713 -1.750479e+01 -1.675
 4161 1  -25.978273 -1.608485e+01 -1.675
 4162 1  -24.741853 -1.538652e+01 -1.675
 4163 1  -27.228134 -1.820312e+01 -1.675
 4164 1  -28.451115 -1.748151e+01 -1.675
 4165 1  -28.437675 -1.606158e+01 -1.675
 4166 1  -27.201255 -1.536325e+01 -1.675
 4167 1  -29.687536 -1.817984e+01 -1.675
 4168 1  -30.910517 -1.745823e+01 -1.675
 4169 1  -30.897077 -1.603830e+01 -1.675
 4170 1  -29.660657 -1.533997e+01 -1.675
 4171 1  -32.146937 -1.815656e+01 -1.675
 4172 1  -33.369919 -1.743496e+01 -1.675
 4173 1  -33.356479 -1.601502e+01 -1.675
 4174 1  -32.120059 -1.531669e+01 -1.675
 4175 1  -34.606339 -1.813329e+01 -1.675
 4176 1  -35.829321 -1.741168e+01 -1.675
 4177 1  -35.815881 -1.599174e+01 -1.675
 4178 1  -34.579461 -1.529341e+01 -1.675
 4179 1  -37.065741 -1.811001e+01 -1.675
 4180 1  -38.288723 -1.738840e+01 -1.675
 4181 1  -38.275283 -1.596847e+01 -1.675
 4182 1  -37.038863 -1.527014e+01 -1.675
 4183 1  -39.525143 -1.808673e+01 -1.675
 4184 1  -40.748125 -1.736512e+01 -1.675
 4185 1  -40.734685 -1.594519e+01 -1.675
 4186 1  -39.498265 -1.524686e+01 -1.675
 4187 1  -41.984545 -1.806345e+01 -1.675
 4188 1  -43.207527 -1.734185e+01 -1.675
 4189 1  -43.194087 -1.592191e+01 -1.675
 4190 1  -41.957667 -1.522358e+01 -1.675
 4191 1  -44.443947 -1.804018e+01 -1.675
 4192 1  -45.666929 -1.731857e+01 -1.675
 4193 1  -45.653489 -1.589863e+01 -1.675
 4194 1  -44.417069 -1.520030e+01 -1.675
 4195 1  -46.903349 -1.801690e+01 -1.675
 4196 1  -48.126331 -1.729529e+01 -1.675
 4197 1  -48.112891 -1.587535e+01 -1.675
 4198 1  -46.876471 -1.517703e+01 -1.675
 4199 1  -49.362751 -1.799362e+01 -1.675
 4200 1  -50.585733 -1.727201e+01 -1.675
 4201 1  -50.572293 -1.585208e+01 -1.675
 4202 1  -49.335873 -1.515375e+01 -1.675
 4203 1  -51.822153 -1.797034e+01 -1.675
 4204 1  -53.045135 -1.724874e+01 -1.675
 4205 1  -53.031695 -1.582880e+01 -1.675
 4206 1  -51.795275 -1.513047e+01 -1.675
 4207 1  -54.281555 -1.794707e+01 -1.675
 4208 1  -55.504537 -1.722546e+01 -1.675
 4209 1  -55.491097 -1.580552e+01 -1.675
 4210 1  -54.254677 -1.510719e+01 -1.675
 4211 1  -56.740957 -1.792379e+01 -1.675
 4212 1  -57.963939 -1.720218e+01 -1.675
 4213 1  -57.950499 -1.578224e+01 -1.675
 4214 1  -56.714079 -1.508391e+01 -1.675
 4215 1  -59.200359 -1.790051e+01 -1.675
 4216 1  -60.423341 -1.717890e+01 -1.675
 4217 1  -60.409901 -1.575897e+01 -1.675
 4218 1  -59.173481 -1.506064e+01 -1.675
 4219 1  -61.659761 -1.787723e+01 -1.675
 4220 1  -62.882743 -1.715563e+01 -1.675
 4221 1  -62.869303 -1.573569e+01 -1.675
 4222 1  -61.632883 -1.503736e+01 -1.675
 4223 1  -64.119163 -1.785395e+01 -1.675
 4224 1  -65.342145 -1.713235e+01 -1.675
 4225 1  -65.328705 -1.571241e+01 -1.675
 4226 1  -64.092285 -1.501408e+01 -1.675
 4227 1  -66.578565 -1.783068e+01 -1.675
 4228 1  -67.801547 -1.710907e+01 -1.675
 4229 1  -67.788107 -1.568913e+01 -1.675
 4230 1  -66.551687 -1.499080e+01 -1.675
 4231 1  -69.037967 -1.780740e+01 -1.675
 4232 1  -70.260949 -1.708579e+01 -1.675
 4233 1  -70.247509 -1.566586e+01 -1.675
 4234 1  -69.011089 -1.496753e+01 -1.675
 4235 1  -71.497369 -1.778412e+01 -1.675
 4236 1  -72.720351 -1.706251e+01 -1.675
 4237 1  -72.706911 -1.564258e+01 -1.675
 4238 1  -71.470491 -1.494425e+01 -1.675
 4239 1  -73.956771 -1.776084e+01 -1.675
 4240 1  -75.179753 -1.703924e+01 -1.675
 4241 1  -75.166313 -1.561930e+01 -1.675
 4242 1  -73.929893 -1.492097e+01 -1.675
 4243 1  -76.416173 -1.773757e+01 -1.675
 4244 1  -77.639155 -1.701596e+01 -1.675
 4245 1  -77.625715 -1.559602e+01 -1.675
 4246 1  -76.389295 -1.489769e+01 -1.675
 4247 1  -78.875575 -1.771429e+01 -1.675
 4248 1  -80.098557 -1.699268e+01 -1.675
 4249 1  -80.085117 -1.557275e+01 -1.675
 4250 1  -78.848697 -1.487442e+01 -1.675
 4251 1  -81.334977 -1.769101e+01 -1.675
 4252 1  -82.557959 -1.696940e+01 -1.675
 4253 1  -82.544519 -1.554947e+01 -1.675
 4254 1  -81.308099 -1.485114e+01 -1.675
 4255 1  -83.794379 -1.766773e+01 -1.675
 4256 1  -85.017361 -1.694613e+01 -1.675
 4257 1  -85.003921 -1.552619e+01 -1.675
 4258 1  -83.767501 -1.482786e+01 -1.675
 4259 1  -86.253781 -1.764446e+01 -1.675
 4260 1  -87.476763 -1.692285e+01 -1.675
 4261 1  -87.463323 -1.550291e+01 -1.675
 4262 1  -86.226903 -1.480458e+01 -1.675
 4263 1  -88.713183 -1.762118e+01 -1.675
 4264 1  -89.936165 -1.689957e+01 -1.675
 4265 1  -89.922725 -1.547963e+01 -1.675
 4266 1  -88.686305 -1.478131e+01 -1.675
 4267 1  -91.172585 -1.759790e+01 -1.675
 4268 1  -92.395567 -1.687629e+01 -1.675
 4269 1  -92.382127 -1.545636e+01 -1.675
 4270 1  -91.145707 -1.475803e+01 -1.675
 4271 1  -93.631987 -1.757462e+01 -1.675
 4272 1  -94.854969 -1.685302e+01 -1.675
 4273 1  -94.841529 -1.543308e+01 -1.675
 4274 1  -93.605109 -1.473475e+01 -1.675
 4275 1  -96.091389 -1.755135e+01 -1.675
 4276 1  -97.314371 -1.682974e+01 -1.675
 4277 1  -97.300931 -1.540980e+01 -1.675
 4278 1  -96.064511 -1.471147e+01 -1.675
 4279 1  -98.550791 -1.752807e+01 -1.675
 4280 1  -99.773773 -1.680646e+01 -1.675
 4281 1  -99.760333 -1.538652e+01 -1.675
 4282 1  -98.523913 -1.468819e+01 -1.675
 4283 1 -101.010193 -1.750479e+01 -1.675
 4284 1 -102.233175 -1.678318e+01 -1.675
 4285 1 -102.219735 -1.536325e+01 -1.675
 4286 1 -100.983315 -1.466492e+01 -1.675
 4287 1 -103.469595 -1.748151e+01 -1.675
 4288 1 -104.692577 -1.675991e+01 -1.675
 4289 1 -104.679137 -1.533997e+01 -1.675
 4290 1 -103.442717 -1.464164e+01 -1.675
 4291 1 -105.928997 -1.745823e+01 -1.675
 4292 1 -107.151979 -1.673663e+01 -1.675
 4293 1 -107.138539 -1.531669e+01 -1.675
 4294 1 -105.902119 -1.461836e+01 -1.675
 4295 1 -108.388399 -1.743496e+01 -1.675
 4296 1 -109.611381 -1.671335e+01 -1.675
 4297 1 -109.597941 -1.529341e+01 -1.675
 4298 1 -108.361520 -1.459508e+01 -1.675
 4299 1 -110.847801 -1.741168e+01 -1.675
 4300 1 -112.070783 -1.669007e+01 -1.675
 4301 1 -112.057343 -1.527014e+01 -1.675
 4302 1 -110.820922 -1.457181e+01 -1.675
 4303 1  111.775117 -1.454853e+01 -1.675
 4304 1  111.788556 -1.312859e+01 -1.675
 4305 1  110.538696 -1.524686e+01 -1.675
 4306 1  109.315715 -1.452525e+01 -1.675
 4307 1  109.329154 -1.310531e+01 -1.675
 4308 1  110.565575 -1.240699e+01 -1.675
 4309 1  108.079294 -1.522358e+01 -1.675
 4310 1  106.856313 -1.450197e+01 -1.675
 4311 1  106.869752 -1.308204e+01 -1.675
 4312 1  108.106173 -1.238371e+01 -1.675
 4313 1  105.619892 -1.520030e+01 -1.675
 4314 1  104.396911 -1.447870e+01 -1.675
 4315 1  104.410350 -1.305876e+01 -1.675
 4316 1  105.646771 -1.236043e+01 -1.675
 4317 1  103.160490 -1.517703e+01 -1.675
 4318 1  101.937509 -1.445542e+01 -1.675
 4319 1  101.950948 -1.303548e+01 -1.675
 4320 1  103.187369 -1.233715e+01 -1.675
 4321 1  100.701088 -1.515375e+01 -1.675
 4322 1   99.478107 -1.443214e+01 -1.675
 4323 1   99.491546 -1.301220e+01 -1.675
 4324 1  100.727967 -1.231387e+01 -1.675
 4325 1   98.241686 -1.513047e+01 -1.675
 4326 1   97.018705 -1.440886e+01 -1.675
 4327 1   97.032144 -1.298893e+01 -1.675
 4328 1   98.268565 -1.229060e+01 -1.675
 4329 1   95.782284 -1.510719e+01 -1.675
 4330 1   94.559303 -1.438559e+01 -1.675
 4331 1   94.572742 -1.296565e+01 -1.675
 4332 1   95.809163 -1.226732e+01 -1.675
 4333 1   93.322882 -1.508391e+01 -1.675
 4334 1   92.099901 -1.436231e+01 -1.675
 4335 1   92.113340 -1.294237e+01 -1.675
 4336 1   93.349761 -1.224404e+01 -1.675
 4337 1   90.863480 -1.506064e+01 -1.675
 4338 1   89.640499 -1.433903e+01 -1.675
 4339 1   89.653938 -1.291909e+01 -1.675
 4340 1   90.890359 -1.222076e+01 -1.675
 4341 1   88.404078 -1.503736e+01 -1.675
 4342 1   87.181097 -1.431575e+01 -1.675
 4343 1   87.194536 -1.289582e+01 -1.675
 4344 1   88.430957 -1.219749e+01 -1.675
 4345 1   85.944676 -1.501408e+01 -1.675
 4346 1   84.721695 -1.429247e+01 -1.675
 4347 1   84.735134 -1.287254e+01 -1.675
 4348 1   85.971555 -1.217421e+01 -1.675
 4349 1   83.485274 -1.499080e+01 -1.675
 4350 1   82.262293 -1.426920e+01 -1.675
 4351 1   82.275732 -1.284926e+01 -1.675
 4352 1   83.512153 -1.215093e+01 -1.675
 4353 1   81.025872 -1.496753e+01 -1.675
 4354 1   79.802891 -1.424592e+01 -1.675
 4355 1   79.816330 -1.282598e+01 -1.675
 4356 1   81.052751 -1.212765e+01 -1.675
 4357 1   78.566470 -1.494425e+01 -1.675
 4358 1   77.343489 -1.422264e+01 -1.675
 4359 1   77.356928 -1.280271e+01 -1.675
 4360 1   78.593349 -1.210438e+01 -1.675
 4361 1   76.107068 -1.492097e+01 -1.675
 4362 1   74.884087 -1.419936e+01 -1.675
 4363 1   74.897526 -1.277943e+01 -1.675
 4364 1   76.133947 -1.208110e+01 -1.675
 4365 1   73.647666 -1.489769e+01 -1.675
 4366 1   72.424685 -1.417609e+01 -1.675
 4367 1   72.438124 -1.275615e+01 -1.675
 4368 1   73.674545 -1.205782e+01 -1.675
 4369 1   71.188264 -1.487442e+01 -1.675
 4370 1   69.965283 -1.415281e+01 -1.675
 4371 1   69.978722 -1.273287e+01 -1.675
 4372 1   71.215143 -1.203454e+01 -1.675
 4373 1   68.728862 -1.485114e+01 -1.675
 4374 1   67.505881 -1.412953e+01 -1.675
 4375 1   67.519320 -1.270959e+01 -1.675
 4376 1   68.755741 -1.201127e+01 -1.675
 4377 1   66.269460 -1.482786e+01 -1.675
 4378 1   65.046479 -1.410625e+01 -1.675
 4379 1   65.059918 -1.268632e+01 -1.675
 4380 1   66.296339 -1.198799e+01 -1.675
 4381 1   63.810058 -1.480458e+01 -1.675
 4382 1   62.587077 -1.408298e+01 -1.675
 4383 1   62.600516 -1.266304e+01 -1.675
 4384 1   63.836937 -1.196471e+01 -1.675
 4385 1   61.350656 -1.478131e+01 -1.675
 4386 1   60.127675 -1.405970e+01 -1.675
 4387 1   60.141114 -1.263976e+01 -1.675
 4388 1   61.377535 -1.194143e+01 -1.675
 4389 1   58.891254 -1.475803e+01 -1.675
 4390 1   57.668273 -1.403642e+01 -1.675
 4391 1   57.681712 -1.261648e+01 -1.675
 4392 1   58.918133 -1.191815e+01 -1.675
 4393 1   56.431852 -1.473475e+01 -1.675
 4394 1   55.208871 -1.401314e+01 -1.675
 4395 1   55.222310 -1.259321e+01 -1.675
 4396 1   56.458731 -1.189488e+01 -1.675
 4397 1   53.972450 -1.471147e+01 -1.675
 4398 1   52.749469 -1.398987e+01 -1.675
 4399 1   52.762908 -1.256993e+01 -1.675
 4400 1   53.999329 -1.187160e+01 -1.675
 4401 1   51.513048 -1.468819e+01 -1.675
 4402 1   50.290067 -1.396659e+01 -1.675
 4403 1   50.303506 -1.254665e+01 -1.675
 4404 1   51.539927 -1.184832e+01 -1.675
 4405 1   49.053646 -1.466492e+01 -1.675
 4406 1   47.830665 -1.394331e+01 -1.675
 4407 1   47.844104 -1.252337e+01 -1.675
 4408 1   49.080525 -1.182504e+01 -1.675
 4409 1   46.594244 -1.464164e+01 -1.675
 4410 1   45.371263 -1.392003e+01 -1.675
 4411 1   45.384702 -1.250010e+01 -1.675
 4412 1   46.621123 -1.180177e+01 -1.675
 4413 1   44.134842 -1.461836e+01 -1.675
 4414 1   42.911861 -1.389675e+01 -1.675
 4415 1   42.925300 -1.247682e+01 -1.675
 4416 1   44.161721 -1.177849e+01 -1.675
 4417 1   41.675440 -1.459508e+01 -1.675
 4418 1   40.452459 -1.387348e+01 -1.675
 4419 1   40.465898 -1.245354e+01 -1.675
 4420 1   41.702319 -1.175521e+01 -1.675
 4421 1   39.216038 -1.457181e+01 -1.675
 4422 1   37.993057 -1.385020e+01 -1.675
 4423 1   38.006496 -1.243026e+01 -1.675
 4424 1   39.242917 -1.173193e+01 -1.675
 4425 1   36.756636 -1.454853e+01 -1.675
 4426 1   35.533655 -1.382692e+01 -1.675
 4427 1   35.547094 -1.240699e+01 -1.675
 4428 1   36.783515 -1.170866e+01 -1.675
 4429 1   34.297234 -1.452525e+01 -1.675
 4430 1   33.074253 -1.380364e+01 -1.675
 4431 1   33.087692 -1.238371e+01 -1.675
 4432 1   34.324113 -1.168538e+01 -1.675
 4433 1   31.837832 -1.450197e+01 -1.675
 4434 1   30.614851 -1.378037e+01 -1.675
 4435 1   30.628290 -1.236043e+01 -1.675
 4436 1   31.864711 -1.166210e+01 -1.675
 4437 1   29.378430 -1.447870e+01 -1.675
 4438 1   28.155449 -1.375709e+01 -1.675
 4439 1   28.168888 -1.233715e+01 -1.675
 4440 1   29.405309 -1.163882e+01 -1.675
 4441 1   26.919028 -1.445542e+01 -1.675
 4442 1   25.696047 -1.373381e+01 -1.675
 4443 1   25.709486 -1.231387e+01 -1.675
 4444 1   26.945907 -1.161555e+01 -1.675
 4445 1   24.459626 -1.443214e+01 -1.675
 4446 1   23.236645 -1.371053e+01 -1.675
 4447 1   23.250084 -1.229060e+01 -1.675
 4448 1   24.486505 -1.159227e+01 -1.675
 4449 1   22.000224 -1.440886e+01 -1.675
 4450 1   20.777243 -1.368726e+01 -1.675
 4451 1   20.790682 -1.226732e+01 -1.675
 4452 1   22.027103 -1.156899e+01 -1.675
 4453 1   19.540822 -1.438559e+01 -1.675
 4454 1   18.317841 -1.366398e+01 -1.675
 4455 1   18.331280 -1.224404e+01 -1.675
 4456 1   19.567701 -1.154571e+01 -1.675
 4457 1   17.081420 -1.436231e+01 -1.675
 4458 1   15.858439 -1.364070e+01 -1.675
 4459 1   15.871878 -1.222076e+01 -1.675
 4460 1   17.108299 -1.152243e+01 -1.675
 4461 1   14.622018 -1.433903e+01 -1.675
 4462 1   13.399037 -1.361742e+01 -1.675
 4463 1   13.412476 -1.219749e+01 -1.675
 4464 1   14.648897 -1.149916e+01 -1.675
 4465 1   12.162616 -1.431575e+01 -1.675
 4466 1   10.939635 -1.359415e+01 -1.675
 4467 1   10.953074 -1.217421e+01 -1.675
 4468 1   12.189495 -1.147588e+01 -1.675
 4469 1    9.703214 -1.429247e+01 -1.675
 4470 1    8.480233 -1.357087e+01 -1.675
 4471 1    8.493672 -1.215093e+01 -1.675
 4472 1    9.730093 -1.145260e+01 -1.675
 4473 1    7.243812 -1.426920e+01 -1.675
 4474 1    6.020831 -1.354759e+01 -1.675
 4475 1    6.034270 -1.212765e+01 -1.675
 4476 1    7.270691 -1.142932e+01 -1.675
 4477 1    4.784410 -1.424592e+01 -1.675
 4478 1    3.561429 -1.352431e+01 -1.675
 4479 1    3.574868 -1.210438e+01 -1.675
 4480 1    4.811289 -1.140605e+01 -1.675
 4481 1    2.325008 -1.422264e+01 -1.675
 4482 1    1.102027 -1.350103e+01 -1.675
 4483 1    1.115466 -1.208110e+01 -1.675
 4484 1    2.351887 -1.138277e+01 -1.675
 4485 1   -0.134394 -1.419936e+01 -1.675
 4486 1   -1.357375 -1.347776e+01 -1.675
 4487 1   -1.343936 -1.205782e+01 -1.675
 4488 1   -0.107515 -1.135949e+01 -1.675
 4489 1   -2.593796 -1.417609e+01 -1.675
 4490 1   -3.816777 -1.345448e+01 -1.675
 4491 1   -3.803338 -1.203454e+01 -1.675
 4492 1   -2.566917 -1.133621e+01 -1.675
 4493 1   -5.053198 -1.415281e+01 -1.675
 4494 1   -6.276179 -1.343120e+01 -1.675
 4495 1   -6.262739 -1.201127e+01 -1.675
 4496 1   -5.026319 -1.131294e+01 -1.675
 4497 1   -7.512600 -1.412953e+01 -1.675
 4498 1   -8.735581 -1.340792e+01 -1.675
 4499 1   -8.722141 -1.198799e+01 -1.675
 4500 1   -7.485721 -1.128966e+01 -1.675
 4501 1   -9.972002 -1.410625e+01 -1.675
 4502 1  -11.194983 -1.338465e+01 -1.675
 4503 1  -11.181543 -1.196471e+01 -1.675
 4504 1   -9.945123 -1.126638e+01 -1.675
 4505 1  -12.431404 -1.408298e+01 -1.675
 4506 1  -13.654385 -1.336137e+01 -1.675
 4507 1  -13.640945 -1.194143e+01 -1.675
 4508 1  -12.404525 -1.124310e+01 -1.675
 4509 1  -14.890805 -1.405970e+01 -1.675
 4510 1  -16.113787 -1.333809e+01 -1.675
 4511 1  -16.100347 -1.191815e+01 -1.675
 4512 1  -14.863927 -1.121983e+01 -1.675
 4513 1  -17.350207 -1.403642e+01 -1.675
 4514 1  -18.573189 -1.331481e+01 -1.675
 4515 1  -18.559749 -1.189488e+01 -1.675
 4516 1  -17.323329 -1.119655e+01 -1.675
 4517 1  -19.809609 -1.401314e+01 -1.675
 4518 1  -21.032591 -1.329154e+01 -1.675
 4519 1  -21.019151 -1.187160e+01 -1.675
 4520 1  -19.782731 -1.117327e+01 -1.675
 4521 1  -22.269011 -1.398987e+01 -1.675
 4522 1  -23.491993 -1.326826e+01 -1.675
 4523 1  -23.478553 -1.184832e+01 -1.675
 4524 1  -22.242133 -1.114999e+01 -1.675
 4525 1  -24.728413 -1.396659e+01 -1.675
 4526 1  -25.951395 -1.324498e+01 -1.675
 4527 1  -25.937955 -1.182504e+01 -1.675
 4528 1  -24.701535 -1.112671e+01 -1.675
 4529 1  -27.187815 -1.394331e+01 -1.675
 4530 1  -28.410797 -1.322170e+01 -1.675
 4531 1  -28.397357 -1.180177e+01 -1.675
 4532 1  -27.160937 -1.110344e+01 -1.675
 4533 1  -29.647217 -1.392003e+01 -1.675
 4534 1  -30.870199 -1.319843e+01 -1.675
 4535 1  -30.856759 -1.177849e+01 -1.675
 4536 1  -29.620339 -1.108016e+01 -1.675
 4537 1  -32.106619 -1.389675e+01 -1.675
 4538 1  -33.329601 -1.317515e+01 -1.675
 4539 1  -33.316161 -1.175521e+01 -1.675
 4540 1  -32.079741 -1.105688e+01 -1.675
 4541 1  -34.566021 -1.387348e+01 -1.675
 4542 1  -35.789003 -1.315187e+01 -1.675
 4543 1  -35.775563 -1.173193e+01 -1.675
 4544 1  -34.539143 -1.103360e+01 -1.675
 4545 1  -37.025423 -1.385020e+01 -1.675
 4546 1  -38.248405 -1.312859e+01 -1.675
 4547 1  -38.234965 -1.170866e+01 -1.675
 4548 1  -36.998545 -1.101033e+01 -1.675
 4549 1  -39.484825 -1.382692e+01 -1.675
 4550 1  -40.707807 -1.310531e+01 -1.675
 4551 1  -40.694367 -1.168538e+01 -1.675
 4552 1  -39.457947 -1.098705e+01 -1.675
 4553 1  -41.944227 -1.380364e+01 -1.675
 4554 1  -43.167209 -1.308204e+01 -1.675
 4555 1  -43.153769 -1.166210e+01 -1.675
 4556 1  -41.917349 -1.096377e+01 -1.675
 4557 1  -44.403629 -1.378037e+01 -1.675
 4558 1  -45.626611 -1.305876e+01 -1.675
 4559 1  -45.613171 -1.163882e+01 -1.675
 4560 1  -44.376751 -1.094049e+01 -1.675
 4561 1  -46.863031 -1.375709e+01 -1.675
 4562 1  -48.086013 -1.303548e+01 -1.675
 4563 1  -48.072573 -1.161555e+01 -1.675
 4564 1  -46.836153 -1.091722e+01 -1.675
 4565 1  -49.322433 -1.373381e+01 -1.675
 4566 1  -50.545415 -1.301220e+01 -1.675
 4567 1  -50.531975 -1.159227e+01 -1.675
 4568 1  -49.295555 -1.089394e+01 -1.675
 4569 1  -51.781835 -1.371053e+01 -1.675
 4570 1  -53.004817 -1.298893e+01 -1.675
 4571 1  -52.991377 -1.156899e+01 -1.675
 4572 1  -51.754957 -1.087066e+01 -1.675
 4573 1  -54.241237 -1.368726e+01 -1.675
 4574 1  -55.464219 -1.296565e+01 -1.675
 4575 1  -55.450779 -1.154571e+01 -1.675
 4576 1  -54.214359 -1.084738e+01 -1.675
 4577 1  -56.700639 -1.366398e+01 -1.675
 4578 1  -57.923621 -1.294237e+01 -1.675
 4579 1  -57.910181 -1.152243e+01 -1.675
 4580 1  -56.673761 -1.082411e+01 -1.675
 4581 1  -59.160041 -1.364070e+01 -1.675
 4582 1  -60.383023 -1.291909e+01 -1.675
 4583 1  -60.369583 -1.149916e+01 -1.675
 4584 1  -59.133163 -1.080083e+01 -1.675
 4585 1  -61.619443 -1.361742e+01 -1.675
 4586 1  -62.842425 -1.289582e+01 -1.675
 4587 1  -62.828985 -1.147588e+01 -1.675
 4588 1  -61.592565 -1.077755e+01 -1.675
 4589 1  -64.078845 -1.359415e+01 -1.675
 4590 1  -65.301827 -1.287254e+01 -1.675
 4591 1  -65.288387 -1.145260e+01 -1.675
 4592 1  -64.051967 -1.075427e+01 -1.675
 4593 1  -66.538247 -1.357087e+01 -1.675
 4594 1  -67.761229 -1.284926e+01 -1.675
 4595 1  -67.747789 -1.142932e+01 -1.675
 4596 1  -66.511369 -1.073099e+01 -1.675
 4597 1  -68.997649 -1.354759e+01 -1.675
 4598 1  -70.220631 -1.282598e+01 -1.675
 4599 1  -70.207191 -1.140605e+01 -1.675
 4600 1  -68.970771 -1.070772e+01 -1.675
 4601 1  -71.457051 -1.352431e+01 -1.675
 4602 1  -72.680033 -1.280271e+01 -1.675
 4603 1  -72.666593 -1.138277e+01 -1.675
 4604 1  -71.430173 -1.068444e+01 -1.675
 4605 1  -73.916453 -1.350103e+01 -1.675
 4606 1  -75.139435 -1.277943e+01 -1.675
 4607 1  -75.125995 -1.135949e+01 -1.675
 4608 1  -73.889575 -1.066116e+01 -1.675
 4609 1  -76.375855 -1.347776e+01 -1.675
 4610 1  -77.598837 -1.275615e+01 -1.675
 4611 1  -77.585397 -1.133621e+01 -1.675
 4612 1  -76.348977 -1.063788e+01 -1.675
 4613 1  -78.835257 -1.345448e+01 -1.675
 4614 1  -80.058239 -1.273287e+01 -1.675
 4615 1  -80.044799 -1.131294e+01 -1.675
 4616 1  -78.808379 -1.061461e+01 -1.675
 4617 1  -81.294659 -1.343120e+01 -1.675
 4618 1  -82.517641 -1.270959e+01 -1.675
 4619 1  -82.504201 -1.128966e+01 -1.675
 4620 1  -81.267781 -1.059133e+01 -1.675
 4621 1  -83.754061 -1.340792e+01 -1.675
 4622 1  -84.977043 -1.268632e+01 -1.675
 4623 1  -84.963603 -1.126638e+01 -1.675
 4624 1  -83.727183 -1.056805e+01 -1.675
 4625 1  -86.213463 -1.338465e+01 -1.675
 4626 1  -87.436445 -1.266304e+01 -1.675
 4627 1  -87.423005 -1.124310e+01 -1.675
 4628 1  -86.186585 -1.054477e+01 -1.675
 4629 1  -88.672865 -1.336137e+01 -1.675
 4630 1  -89.895847 -1.263976e+01 -1.675
 4631 1  -89.882407 -1.121983e+01 -1.675
 4632 1  -88.645987 -1.052150e+01 -1.675
 4633 1  -91.132267 -1.333809e+01 -1.675
 4634 1  -92.355249 -1.261648e+01 -1.675
 4635 1  -92.341809 -1.119655e+01 -1.675
 4636 1  -91.105388 -1.049822e+01 -1.675
 4637 1  -93.591669 -1.331481e+01 -1.675
 4638 1  -94.814651 -1.259321e+01 -1.675
 4639 1  -94.801211 -1.117327e+01 -1.675
 4640 1  -93.564790 -1.047494e+01 -1.675
 4641 1  -96.051071 -1.329154e+01 -1.675
 4642 1  -97.274053 -1.256993e+01 -1.675
 4643 1  -97.260613 -1.114999e+01 -1.675
 4644 1  -96.024192 -1.045166e+01 -1.675
 4645 1  -98.510473 -1.326826e+01 -1.675
 4646 1  -99.733454 -1.254665e+01 -1.675
 4647 1  -99.720015 -1.112671e+01 -1.675
 4648 1  -98.483594 -1.042839e+01 -1.675
 4649 1 -100.969875 -1.324498e+01 -1.675
 4650 1 -102.192856 -1.252337e+01 -1.675
 4651 1 -102.179417 -1.110344e+01 -1.675
 4652 1 -100.942996 -1.040511e+01 -1.675
 4653 1 -103.429277 -1.322170e+01 -1.675
 4654 1 -104.652258 -1.250010e+01 -1.675
 4655 1 -104.638819 -1.108016e+01 -1.675
 4656 1 -103.402398 -1.038183e+01 -1.675
 4657 1 -105.888679 -1.319843e+01 -1.675
 4658 1 -107.111660 -1.247682e+01 -1.675
 4659 1 -107.098221 -1.105688e+01 -1.675
 4660 1 -105.861800 -1.035855e+01 -1.675
 4661 1 -108.348081 -1.317515e+01 -1.675
 4662 1 -109.571062 -1.245354e+01 -1.675
 4663 1 -109.557623 -1.103360e+01 -1.675
 4664 1 -108.321202 -1.033527e+01 -1.675
 4665 1 -110.807483 -1.315187e+01 -1.675
 4666 1 -112.030464 -1.243026e+01 -1.675
 4667 1 -112.017025 -1.101033e+01 -1.675
 4668 1 -110.780604 -1.031200e+01 -1.675
 4669 1  111.815435 -1.028872e+01 -1.675
 4670 1  111.828874 -8.868783e+00 -1.675
 4671 1  110.579014 -1.098705e+01 -1.675
 4672 1  109.356033 -1.026544e+01 -1.675
 4673 1  109.369472 -8.845505e+00 -1.675
 4674 1  110.605893 -8.147176e+00 -1.675
 4675 1  108.119612 -1.096377e+01 -1.675
 4676 1  106.896631 -1.024216e+01 -1.675
 4677 1  106.910070 -8.822228e+00 -1.675
 4678 1  108.146491 -8.123898e+00 -1.675
 4679 1  105.660210 -1.094049e+01 -1.675
 4680 1  104.437229 -1.021889e+01 -1.675
 4681 1  104.450668 -8.798950e+00 -1.675
 4682 1  105.687089 -8.100621e+00 -1.675
 4683 1  103.200808 -1.091722e+01 -1.675
 4684 1  101.977827 -1.019561e+01 -1.675
 4685 1  101.991266 -8.775673e+00 -1.675
 4686 1  103.227687 -8.077343e+00 -1.675
 4687 1  100.741406 -1.089394e+01 -1.675
 4688 1   99.518425 -1.017233e+01 -1.675
 4689 1   99.531864 -8.752395e+00 -1.675
 4690 1  100.768285 -8.054065e+00 -1.675
 4691 1   98.282004 -1.087066e+01 -1.675
 4692 1   97.059023 -1.014905e+01 -1.675
 4693 1   97.072462 -8.729117e+00 -1.675
 4694 1   98.308883 -8.030788e+00 -1.675
 4695 1   95.822602 -1.084738e+01 -1.675
 4696 1   94.599621 -1.012578e+01 -1.675
 4697 1   94.613060 -8.705840e+00 -1.675
 4698 1   95.849481 -8.007510e+00 -1.675
 4699 1   93.363200 -1.082411e+01 -1.675
 4700 1   92.140219 -1.010250e+01 -1.675
 4701 1   92.153658 -8.682562e+00 -1.675
 4702 1   93.390079 -7.984233e+00 -1.675
 4703 1   90.903798 -1.080083e+01 -1.675
 4704 1   89.680817 -1.007922e+01 -1.675
 4705 1   89.694256 -8.659284e+00 -1.675
 4706 1   90.930677 -7.960955e+00 -1.675
 4707 1   88.444396 -1.077755e+01 -1.675
 4708 1   87.221415 -1.005594e+01 -1.675
 4709 1   87.234854 -8.636007e+00 -1.675
 4710 1   88.471275 -7.937677e+00 -1.675
 4711 1   85.984994 -1.075427e+01 -1.675
 4712 1   84.762013 -1.003267e+01 -1.675
 4713 1   84.775452 -8.612729e+00 -1.675
 4714 1   86.011873 -7.914400e+00 -1.675
 4715 1   83.525592 -1.073099e+01 -1.675
 4716 1   82.302611 -1.000939e+01 -1.675
 4717 1   82.316050 -8.589451e+00 -1.675
 4718 1   83.552471 -7.891122e+00 -1.675
 4719 1   81.066190 -1.070772e+01 -1.675
 4720 1   79.843209 -9.986110e+00 -1.675
 4721 1   79.856648 -8.566174e+00 -1.675
 4722 1   81.093069 -7.867844e+00 -1.675
 4723 1   78.606788 -1.068444e+01 -1.675
 4724 1   77.383807 -9.962832e+00 -1.675
 4725 1   77.397246 -8.542896e+00 -1.675
 4726 1   78.633667 -7.844567e+00 -1.675
 4727 1   76.147386 -1.066116e+01 -1.675
 4728 1   74.924405 -9.939555e+00 -1.675
 4729 1   74.937844 -8.519618e+00 -1.675
 4730 1   76.174265 -7.821289e+00 -1.675
 4731 1   73.687984 -1.063788e+01 -1.675
 4732 1   72.465003 -9.916277e+00 -1.675
 4733 1   72.478442 -8.496341e+00 -1.675
 4734 1   73.714863 -7.798011e+00 -1.675
 4735 1   71.228582 -1.061461e+01 -1.675
 4736 1   70.005601 -9.893000e+00 -1.675
 4737 1   70.019040 -8.473063e+00 -1.675
 4738 1   71.255461 -7.774734e+00 -1.675
 4739 1   68.769180 -1.059133e+01 -1.675
 4740 1   67.546199 -9.869722e+00 -1.675
 4741 1   67.559638 -8.449785e+00 -1.675
 4742 1   68.796059 -7.751456e+00 -1.675
 4743 1   66.309778 -1.056805e+01 -1.675
 4744 1   65.086797 -9.846444e+00 -1.675
 4745 1   65.100236 -8.426508e+00 -1.675
 4746 1   66.336657 -7.728178e+00 -1.675
 4747 1   63.850376 -1.054477e+01 -1.675
 4748 1   62.627395 -9.823167e+00 -1.675
 4749 1   62.640834 -8.403230e+00 -1.675
 4750 1   63.877255 -7.704901e+00 -1.675
 4751 1   61.390974 -1.052150e+01 -1.675
 4752 1   60.167993 -9.799889e+00 -1.675
 4753 1   60.181432 -8.379953e+00 -1.675
 4754 1   61.417853 -7.681623e+00 -1.675
 4755 1   58.931572 -1.049822e+01 -1.675
 4756 1   57.708591 -9.776611e+00 -1.675
 4757 1   57.722030 -8.356675e+00 -1.675
 4758 1   58.958451 -7.658346e+00 -1.675
 4759 1   56.472170 -1.047494e+01 -1.675
 4760 1   55.249189 -9.753334e+00 -1.675
 4761 1   55.262628 -8.333397e+00 -1.675
 4762 1   56.499049 -7.635068e+00 -1.675
 4763 1   54.012768 -1.045166e+01 -1.675
 4764 1   52.789787 -9.730056e+00 -1.675
 4765 1   52.803226 -8.310120e+00 -1.675
 4766 1   54.039647 -7.611790e+00 -1.675
 4767 1   51.553366 -1.042839e+01 -1.675
 4768 1   50.330385 -9.706778e+00 -1.675
 4769 1   50.343824 -8.286842e+00 -1.675
 4770 1   51.580245 -7.588513e+00 -1.675
 4771 1   49.093964 -1.040511e+01 -1.675
 4772 1   47.870983 -9.683501e+00 -1.675
 4773 1   47.884422 -8.263564e+00 -1.675
 4774 1   49.120843 -7.565235e+00 -1.675
 4775 1   46.634562 -1.038183e+01 -1.675
 4776 1   45.411581 -9.660223e+00 -1.675
 4777 1   45.425020 -8.240287e+00 -1.675
 4778 1   46.661441 -7.541957e+00 -1.675
 4779 1   44.175160 -1.035855e+01 -1.675
 4780 1   42.952179 -9.636945e+00 -1.675
 4781 1   42.965618 -8.217009e+00 -1.675
 4782 1   44.202039 -7.518680e+00 -1.675
 4783 1   41.715758 -1.033527e+01 -1.675
 4784 1   40.492777 -9.613668e+00 -1.675
 4785 1   40.506216 -8.193731e+00 -1.675
 4786 1   41.742637 -7.495402e+00 -1.675
 4787 1   39.256356 -1.031200e+01 -1.675
 4788 1   38.033375 -9.590390e+00 -1.675
 4789 1   38.046814 -8.170454e+00 -1.675
 4790 1   39.283235 -7.472124e+00 -1.675
 4791 1   36.796954 -1.028872e+01 -1.675
 4792 1   35.573973 -9.567112e+00 -1.675
 4793 1   35.587412 -8.147176e+00 -1.675
 4794 1   36.823833 -7.448847e+00 -1.675
 4795 1   34.337552 -1.026544e+01 -1.675
 4796 1   33.114571 -9.543835e+00 -1.675
 4797 1   33.128010 -8.123898e+00 -1.675
 4798 1   34.364431 -7.425569e+00 -1.675
 4799 1   31.878150 -1.024216e+01 -1.675
 4800 1   30.655169 -9.520557e+00 -1.675
 4801 1   30.668608 -8.100621e+00 -1.675
 4802 1   31.905029 -7.402291e+00 -1.675
 4803 1   29.418748 -1.021889e+01 -1.675
 4804 1   28.195767 -9.497280e+00 -1.675
 4805 1   28.209206 -8.077343e+00 -1.675
 4806 1   29.445627 -7.379014e+00 -1.675
 4807 1   26.959346 -1.019561e+01 -1.675
 4808 1   25.736365 -9.474002e+00 -1.675
 4809 1   25.749804 -8.054065e+00 -1.675
 4810 1   26.986225 -7.355736e+00 -1.675
 4811 1   24.499944 -1.017233e+01 -1.675
 4812 1   23.276963 -9.450724e+00 -1.675
 4813 1   23.290402 -8.030788e+00 -1.675
 4814 1   24.526823 -7.332458e+00 -1.675
 4815 1   22.040542 -1.014905e+01 -1.675
 4816 1   20.817561 -9.427447e+00 -1.675
 4817 1   20.831000 -8.007510e+00 -1.675
 4818 1   22.067421 -7.309181e+00 -1.675
 4819 1   19.581140 -1.012578e+01 -1.675
 4820 1   18.358159 -9.404169e+00 -1.675
 4821 1   18.371598 -7.984233e+00 -1.675
 4822 1   19.608019 -7.285903e+00 -1.675
 4823 1   17.121738 -1.010250e+01 -1.675
 4824 1   15.898757 -9.380891e+00 -1.675
 4825 1   15.912196 -7.960955e+00 -1.675
 4826 1   17.148617 -7.262626e+00 -1.675
 4827 1   14.662336 -1.007922e+01 -1.675
 4828 1   13.439355 -9.357614e+00 -1.675
 4829 1   13.452794 -7.937677e+00 -1.675
 4830 1   14.689215 -7.239348e+00 -1.675
 4831 1   12.202934 -1.005594e+01 -1.675
 4832 1   10.979953 -9.334336e+00 -1.675
 4833 1   10.993393 -7.914400e+00 -1.675
 4834 1   12.229813 -7.216070e+00 -1.675
 4835 1    9.743532 -1.003267e+01 -1.675
 4836 1    8.520551 -9.311058e+00 -1.675
 4837 1    8.533991 -7.891122e+00 -1.675
 4838 1    9.770411 -7.192793e+00 -1.675
 4839 1    7.284130 -1.000939e+01 -1.675
 4840 1    6.061149 -9.287781e+00 -1.675
 4841 1    6.074589 -7.867844e+00 -1.675
 4842 1    7.311009 -7.169515e+00 -1.675
 4843 1    4.824728 -9.986110e+00 -1.675
 4844 1    3.601747 -9.264503e+00 -1.675
 4845 1    3.615187 -7.844567e+00 -1.675
 4846 1    4.851607 -7.146237e+00 -1.675
 4847 1    2.365327 -9.962832e+00 -1.675
 4848 1    1.142345 -9.241225e+00 -1.675
 4849 1    1.155785 -7.821289e+00 -1.675
 4850 1    2.392205 -7.122960e+00 -1.675
 4851 1   -0.094075 -9.939555e+00 -1.675
 4852 1   -1.317057 -9.217948e+00 -1.675
 4853 1   -1.303617 -7.798011e+00 -1.675
 4854 1   -0.067197 -7.099682e+00 -1.675
 4855 1   -2.553477 -9.916277e+00 -1.675
 4856 1   -3.776459 -9.194670e+00 -1.675
 4857 1   -3.763019 -7.774734e+00 -1.675
 4858 1   -2.526599 -7.076404e+00 -1.675
 4859 1   -5.012879 -9.893000e+00 -1.675
 4860 1   -6.235861 -9.171392e+00 -1.675
 4861 1   -6.222421 -7.751456e+00 -1.675
 4862 1   -4.986001 -7.053127e+00 -1.675
 4863 1   -7.472281 -9.869722e+00 -1.675
 4864 1   -8.695263 -9.148115e+00 -1.675
 4865 1   -8.681823 -7.728178e+00 -1.675
 4866 1   -7.445403 -7.029849e+00 -1.675
 4867 1   -9.931683 -9.846444e+00 -1.675
 4868 1  -11.154665 -9.124837e+00 -1.675
 4869 1  -11.141225 -7.704901e+00 -1.675
 4870 1   -9.904805 -7.006571e+00 -1.675
 4871 1  -12.391085 -9.823167e+00 -1.675
 4872 1  -13.614067 -9.101560e+00 -1.675
 4873 1  -13.600627 -7.681623e+00 -1.675
 4874 1  -12.364207 -6.983294e+00 -1.675
 4875 1  -14.850487 -9.799889e+00 -1.675
 4876 1  -16.073469 -9.078282e+00 -1.675
 4877 1  -16.060029 -7.658346e+00 -1.675
 4878 1  -14.823609 -6.960016e+00 -1.675
 4879 1  -17.309889 -9.776611e+00 -1.675
 4880 1  -18.532871 -9.055004e+00 -1.675
 4881 1  -18.519431 -7.635068e+00 -1.675
 4882 1  -17.283011 -6.936738e+00 -1.675
 4883 1  -19.769291 -9.753334e+00 -1.675
 4884 1  -20.992273 -9.031727e+00 -1.675
 4885 1  -20.978833 -7.611790e+00 -1.675
 4886 1  -19.742413 -6.913461e+00 -1.675
 4887 1  -22.228693 -9.730056e+00 -1.675
 4888 1  -23.451675 -9.008449e+00 -1.675
 4889 1  -23.438235 -7.588513e+00 -1.675
 4890 1  -22.201815 -6.890183e+00 -1.675
 4891 1  -24.688095 -9.706778e+00 -1.675
 4892 1  -25.911077 -8.985171e+00 -1.675
 4893 1  -25.897637 -7.565235e+00 -1.675
 4894 1  -24.661217 -6.866906e+00 -1.675
 4895 1  -27.147497 -9.683501e+00 -1.675
 4896 1  -28.370479 -8.961894e+00 -1.675
 4897 1  -28.357039 -7.541957e+00 -1.675
 4898 1  -27.120619 -6.843628e+00 -1.675
 4899 1  -29.606899 -9.660223e+00 -1.675
 4900 1  -30.829881 -8.938616e+00 -1.675
 4901 1  -30.816441 -7.518680e+00 -1.675
 4902 1  -29.580021 -6.820350e+00 -1.675
 4903 1  -32.066301 -9.636945e+00 -1.675
 4904 1  -33.289283 -8.915338e+00 -1.675
 4905 1  -33.275843 -7.495402e+00 -1.675
 4906 1  -32.039423 -6.797073e+00 -1.675
 4907 1  -34.525703 -9.613668e+00 -1.675
 4908 1  -35.748685 -8.892061e+00 -1.675
 4909 1  -35.735245 -7.472124e+00 -1.675
 4910 1  -34.498825 -6.773795e+00 -1.675
 4911 1  -36.985105 -9.590390e+00 -1.675
 4912 1  -38.208087 -8.868783e+00 -1.675
 4913 1  -38.194647 -7.448847e+00 -1.675
 4914 1  -36.958227 -6.750517e+00 -1.675
 4915 1  -39.444507 -9.567112e+00 -1.675
 4916 1  -40.667489 -8.845505e+00 -1.675
 4917 1  -40.654049 -7.425569e+00 -1.675
 4918 1  -39.417629 -6.727240e+00 -1.675
 4919 1  -41.903909 -9.543835e+00 -1.675
 4920 1  -43.126891 -8.822228e+00 -1.675
 4921 1  -43.113451 -7.402291e+00 -1.675
 4922 1  -41.877031 -6.703962e+00 -1.675
 4923 1  -44.363311 -9.520557e+00 -1.675
 4924 1  -45.586293 -8.798950e+00 -1.675
 4925 1  -45.572853 -7.379014e+00 -1.675
 4926 1  -44.336433 -6.680684e+00 -1.675
 4927 1  -46.822713 -9.497280e+00 -1.675
 4928 1  -48.045695 -8.775673e+00 -1.675
 4929 1  -48.032255 -7.355736e+00 -1.675
 4930 1  -46.795835 -6.657407e+00 -1.675
 4931 1  -49.282115 -9.474002e+00 -1.675
 4932 1  -50.505097 -8.752395e+00 -1.675
 4933 1  -50.491657 -7.332458e+00 -1.675
 4934 1  -49.255237 -6.634129e+00 -1.675
 4935 1  -51.741517 -9.450724e+00 -1.675
 4936 1  -52.964499 -8.729117e+00 -1.675
 4937 1  -52.951059 -7.309181e+00 -1.675
 4938 1  -51.714639 -6.610851e+00 -1.675
 4939 1  -54.200919 -9.427447e+00 -1.675
 4940 1  -55.423901 -8.705840e+00 -1.675
 4941 1  -55.410461 -7.285903e+00 -1.675
 4942 1  -54.174041 -6.587574e+00 -1.675
 4943 1  -56.660321 -9.404169e+00 -1.675
 4944 1  -57.883303 -8.682562e+00 -1.675
 4945 1  -57.869863 -7.262626e+00 -1.675
 4946 1  -56.633443 -6.564296e+00 -1.675
 4947 1  -59.119723 -9.380891e+00 -1.675
 4948 1  -60.342705 -8.659284e+00 -1.675
 4949 1  -60.329265 -7.239348e+00 -1.675
 4950 1  -59.092845 -6.541019e+00 -1.675
 4951 1  -61.579125 -9.357614e+00 -1.675
 4952 1  -62.802107 -8.636007e+00 -1.675
 4953 1  -62.788667 -7.216070e+00 -1.675
 4954 1  -61.552247 -6.517741e+00 -1.675
 4955 1  -64.038527 -9.334336e+00 -1.675
 4956 1  -65.261509 -8.612729e+00 -1.675
 4957 1  -65.248069 -7.192793e+00 -1.675
 4958 1  -64.011649 -6.494463e+00 -1.675
 4959 1  -66.497929 -9.311058e+00 -1.675
 4960 1  -67.720911 -8.589451e+00 -1.675
 4961 1  -67.707471 -7.169515e+00 -1.675
 4962 1  -66.471051 -6.471186e+00 -1.675
 4963 1  -68.957331 -9.287781e+00 -1.675
 4964 1  -70.180313 -8.566174e+00 -1.675
 4965 1  -70.166873 -7.146237e+00 -1.675
 4966 1  -68.930453 -6.447908e+00 -1.675
 4967 1  -71.416733 -9.264503e+00 -1.675
 4968 1  -72.639715 -8.542896e+00 -1.675
 4969 1  -72.626275 -7.122960e+00 -1.675
 4970 1  -71.389855 -6.424630e+00 -1.675
 4971 1  -73.876135 -9.241225e+00 -1.675
 4972 1  -75.099117 -8.519618e+00 -1.675
 4973 1  -75.085677 -7.099682e+00 -1.675
 4974 1  -73.849256 -6.401353e+00 -1.675
 4975 1  -76.335537 -9.217948e+00 -1.675
 4976 1  -77.558519 -8.496341e+00 -1.675
 4977 1  -77.545079 -7.076404e+00 -1.675
 4978 1  -76.308658 -6.378075e+00 -1.675
 4979 1  -78.794939 -9.194670e+00 -1.675
 4980 1  -80.017921 -8.473063e+00 -1.675
 4981 1  -80.004481 -7.053127e+00 -1.675
 4982 1  -78.768060 -6.354797e+00 -1.675
 4983 1  -81.254341 -9.171392e+00 -1.675
 4984 1  -82.477322 -8.449785e+00 -1.675
 4985 1  -82.463883 -7.029849e+00 -1.675
 4986 1  -81.227462 -6.331520e+00 -1.675
 4987 1  -83.713743 -9.148115e+00 -1.675
 4988 1  -84.936724 -8.426508e+00 -1.675
 4989 1  -84.923285 -7.006571e+00 -1.675
 4990 1  -83.686864 -6.308242e+00 -1.675
 4991 1  -86.173145 -9.124837e+00 -1.675
 4992 1  -87.396126 -8.403230e+00 -1.675
 4993 1  -87.382687 -6.983294e+00 -1.675
 4994 1  -86.146266 -6.284964e+00 -1.675
 4995 1  -88.632547 -9.101560e+00 -1.675
 4996 1  -89.855528 -8.379953e+00 -1.675
 4997 1  -89.842089 -6.960016e+00 -1.675
 4998 1  -88.605668 -6.261687e+00 -1.675
 4999 1  -91.091949 -9.078282e+00 -1.675
 5000 1  -92.314930 -8.356675e+00 -1.675
 5001 1  -92.301491 -6.936738e+00 -1.675
 5002 1  -91.065070 -6.238409e+00 -1.675
 5003 1  -93.551351 -9.055004e+00 -1.675
 5004 1  -94.774332 -8.333397e+00 -1.675
 5005 1  -94.760893 -6.913461e+00 -1.675
 5006 1  -93.524472 -6.215131e+00 -1.675
 5007 1  -96.010753 -9.031727e+00 -1.675
 5008 1  -97.233734 -8.310120e+00 -1.675
 5009 1  -97.220295 -6.890183e+00 -1.675
 5010 1  -95.983874 -6.191854e+00 -1.675
 5011 1  -98.470155 -9.008449e+00 -1.675
 5012 1  -99.693136 -8.286842e+00 -1.675
 5013 1  -99.679697 -6.866906e+00 -1.675
 5014 1  -98.443276 -6.168576e+00 -1.675
 5015 1 -100.929557 -8.985171e+00 -1.675
 5016 1 -102.152538 -8.263564e+00 -1.675
 5017 1 -102.139099 -6.843628e+00 -1.675
 5018 1 -100.902678 -6.145299e+00 -1.675
 5019 1 -103.388959 -8.961894e+00 -1.675
 5020 1 -104.611940 -8.240287e+00 -1.675
 5021 1 -104.598501 -6.820350e+00 -1.675
 5022 1 -103.362080 -6.122021e+00 -1.675
 5023 1 -105.848361 -8.938616e+00 -1.675
 5024 1 -107.071342 -8.217009e+00 -1.675
 5025 1 -107.057903 -6.797073e+00 -1.675
 5026 1 -105.821482 -6.098743e+00 -1.675
 5027 1 -108.307763 -8.915338e+00 -1.675
 5028 1 -109.530744 -8.193731e+00 -1.675
 5029 1 -109.517305 -6.773795e+00 -1.675
 5030 1 -108.280884 -6.075466e+00 -1.675
 5031 1 -110.767165 -8.892061e+00 -1.675
 5032 1 -111.990146 -8.170454e+00 -1.675
 5033 1 -111.976707 -6.750517e+00 -1.675
 5034 1 -110.740286 -6.052188e+00 -1.675
 5035 1  111.855753 -6.028910e+00 -1.675
 5036 1  111.869192 -4.608974e+00 -1.675
 5037 1  110.619332 -6.727240e+00 -1.675
 5038 1  109.396351 -6.005633e+00 -1.675
 5039 1  109.409790 -4.585696e+00 -1.675
 5040 1  110.646211 -3.887367e+00 -1.675
 5041 1  108.159930 -6.703962e+00 -1.675
 5042 1  106.936949 -5.982355e+00 -1.675
 5043 1  106.950388 -4.562419e+00 -1.675
 5044 1  108.186809 -3.864089e+00 -1.675
 5045 1  105.700528 -6.680684e+00 -1.675
 5046 1  104.477547 -5.959077e+00 -1.675
 5047 1  104.490986 -4.539141e+00 -1.675
 5048 1  105.727407 -3.840812e+00 -1.675
 5049 1  103.241126 -6.657407e+00 -1.675
 5050 1  102.018145 -5.935800e+00 -1.675
 5051 1  102.031584 -4.515863e+00 -1.675
 5052 1  103.268005 -3.817534e+00 -1.675
 5053 1  100.781724 -6.634129e+00 -1.675
 5054 1   99.558743 -5.912522e+00 -1.675
 5055 1   99.572182 -4.492586e+00 -1.675
 5056 1  100.808603 -3.794256e+00 -1.675
 5057 1   98.322322 -6.610851e+00 -1.675
 5058 1   97.099341 -5.889244e+00 -1.675
 5059 1   97.112780 -4.469308e+00 -1.675
 5060 1   98.349201 -3.770979e+00 -1.675
 5061 1   95.862920 -6.587574e+00 -1.675
 5062 1   94.639939 -5.865967e+00 -1.675
 5063 1   94.653378 -4.446030e+00 -1.675
 5064 1   95.889799 -3.747701e+00 -1.675
 5065 1   93.403518 -6.564296e+00 -1.675
 5066 1   92.180537 -5.842689e+00 -1.675
 5067 1   92.193976 -4.422753e+00 -1.675
 5068 1   93.430397 -3.724423e+00 -1.675
 5069 1   90.944116 -6.541019e+00 -1.675
 5070 1   89.721135 -5.819411e+00 -1.675
 5071 1   89.734574 -4.399475e+00 -1.675
 5072 1   90.970995 -3.701146e+00 -1.675
 5073 1   88.484714 -6.517741e+00 -1.675
 5074 1   87.261733 -5.796134e+00 -1.675
 5075 1   87.275172 -4.376197e+00 -1.675
 5076 1   88.511593 -3.677868e+00 -1.675
 5077 1   86.025312 -6.494463e+00 -1.675
 5078 1   84.802331 -5.772856e+00 -1.675
 5079 1   84.815770 -4.352920e+00 -1.675
 5080 1   86.052191 -3.654590e+00 -1.675
 5081 1   83.565910 -6.471186e+00 -1.675
 5082 1   82.342929 -5.749579e+00 -1.675
 5083 1   82.356368 -4.329642e+00 -1.675
 5084 1   83.592789 -3.631313e+00 -1.675
 5085 1   81.106508 -6.447908e+00 -1.675
 5086 1   79.883527 -5.726301e+00 -1.675
 5087 1   79.896966 -4.306364e+00 -1.675
 5088 1   81.133387 -3.608035e+00 -1.675
 5089 1   78.647106 -6.424630e+00 -1.675
 5090 1   77.424125 -5.703023e+00 -1.675
 5091 1   77.437564 -4.283087e+00 -1.675
 5092 1   78.673985 -3.584757e+00 -1.675
 5093 1   76.187704 -6.401353e+00 -1.675
 5094 1   74.964723 -5.679746e+00 -1.675
 5095 1   74.978162 -4.259809e+00 -1.675
 5096 1   76.214583 -3.561480e+00 -1.675
 5097 1   73.728302 -6.378075e+00 -1.675
 5098 1   72.505321 -5.656468e+00 -1.675
 5099 1   72.518760 -4.236532e+00 -1.675
 5100 1   73.755181 -3.538202e+00 -1.675
 5101 1   71.268900 -6.354797e+00 -1.675
 5102 1   70.045919 -5.633190e+00 -1.675
 5103 1   70.059358 -4.213254e+00 -1.675
 5104 1   71.295779 -3.514925e+00 -1.675
 5105 1   68.809498 -6.331520e+00 -1.675
 5106 1   67.586517 -5.609913e+00 -1.675
 5107 1   67.599956 -4.189976e+00 -1.675
 5108 1   68.836377 -3.491647e+00 -1.675
 5109 1   66.350096 -6.308242e+00 -1.675
 5110 1   65.127115 -5.586635e+00 -1.675
 5111 1   65.140554 -4.166699e+00 -1.675
 5112 1   66.376975 -3.468369e+00 -1.675
 5113 1   63.890694 -6.284964e+00 -1.675
 5114 1   62.667713 -5.563357e+00 -1.675
 5115 1   62.681152 -4.143421e+00 -1.675
 5116 1   63.917573 -3.445092e+00 -1.675
 5117 1   61.431292 -6.261687e+00 -1.675
 5118 1   60.208311 -5.540080e+00 -1.675
 5119 1   60.221750 -4.120143e+00 -1.675
 5120 1   61.458171 -3.421814e+00 -1.675
 5121 1   58.971890 -6.238409e+00 -1.675
 5122 1   57.748909 -5.516802e+00 -1.675
 5123 1   57.762348 -4.096866e+00 -1.675
 5124 1   58.998769 -3.398536e+00 -1.675
 5125 1   56.512488 -6.215131e+00 -1.675
 5126 1   55.289507 -5.493524e+00 -1.675
 5127 1   55.302946 -4.073588e+00 -1.675
 5128 1   56.539367 -3.375259e+00 -1.675
 5129 1   54.053086 -6.191854e+00 -1.675
 5130 1   52.830105 -5.470247e+00 -1.675
 5131 1   52.843544 -4.050310e+00 -1.675
 5132 1   54.079965 -3.351981e+00 -1.675
 5133 1   51.593684 -6.168576e+00 -1.675
 5134 1   50.370703 -5.446969e+00 -1.675
 5135 1   50.384142 -4.027033e+00 -1.675
 5136 1   51.620563 -3.328703e+00 -1.675
 5137 1   49.134282 -6.145299e+00 -1.675
 5138 1   47.911301 -5.423692e+00 -1.675
 5139 1   47.924740 -4.003755e+00 -1.675
 5140 1   49.161161 -3.305426e+00 -1.675
 5141 1   46.674880 -6.122021e+00 -1.675
 5142 1   45.451899 -5.400414e+00 -1.675
 5143 1   45.465338 -3.980477e+00 -1.675
 5144 1   46.701759 -3.282148e+00 -1.675
 5145 1   44.215478 -6.098743e+00 -1.675
 5146 1   42.992497 -5.377136e+00 -1.675
 5147 1   43.005936 -3.957200e+00 -1.675
 5148 1   44.242357 -3.258870e+00 -1.675
 5149 1   41.756076 -6.075466e+00 -1.675
 5150 1   40.533095 -5.353859e+00 -1.675
 5151 1   40.546534 -3.933922e+00 -1.675
 5152 1   41.782955 -3.235593e+00 -1.675
 5153 1   39.296674 -6.052188e+00 -1.675
 5154 1   38.073693 -5.330581e+00 -1.675
 5155 1   38.087132 -3.910645e+00 -1.675
 5156 1   39.323553 -3.212315e+00 -1.675
 5157 1   36.837272 -6.028910e+00 -1.675
 5158 1   35.614291 -5.307303e+00 -1.675
 5159 1   35.627730 -3.887367e+00 -1.675
 5160 1   36.864151 -3.189037e+00 -1.675
 5161 1   34.377870 -6.005633e+00 -1.675
 5162 1   33.154889 -5.284026e+00 -1.675
 5163 1   33.168328 -3.864089e+00 -1.675
 5164 1   34.404749 -3.165760e+00 -1.675
 5165 1   31.918468 -5.982355e+00 -1.675
 5166 1   30.695487 -5.260748e+00 -1.675
 5167 1   30.708926 -3.840812e+00 -1.675
 5168 1   31.945347 -3.142482e+00 -1.675
 5169 1   29.459066 -5.959077e+00 -1.675
 5170 1   28.236085 -5.237470e+00 -1.675
 5171 1   28.249525 -3.817534e+00 -1.675
 5172 1   29.485945 -3.119205e+00 -1.675
 5173 1   26.999664 -5.935800e+00 -1.675
 5174 1   25.776683 -5.214193e+00 -1.675
 5175 1   25.790123 -3.794256e+00 -1.675
 5176 1   27.026543 -3.095927e+00 -1.675
 5177 1   24.540262 -5.912522e+00 -1.675
 5178 1   23.317281 -5.190915e+00 -1.675
 5179 1   23.330721 -3.770979e+00 -1.675
 5180 1   24.567141 -3.072649e+00 -1.675
 5181 1   22.080860 -5.889244e+00 -1.675
 5182 1   20.857879 -5.167637e+00 -1.675
 5183 1   20.871319 -3.747701e+00 -1.675
 5184 1   22.107739 -3.049372e+00 -1.675
 5185 1   19.621459 -5.865967e+00 -1.675
 5186 1   18.398477 -5.144360e+00 -1.675
 5187 1   18.411917 -3.724423e+00 -1.675
 5188 1   19.648337 -3.026094e+00 -1.675
 5189 1   17.162057 -5.842689e+00 -1.675
 5190 1   15.939075 -5.121082e+00 -1.675
 5191 1   15.952515 -3.701146e+00 -1.675
 5192 1   17.188935 -3.002816e+00 -1.675
 5193 1   14.702655 -5.819411e+00 -1.675
 5194 1   13.479673 -5.097804e+00 -1.675
 5195 1   13.493113 -3.677868e+00 -1.675
 5196 1   14.729533 -2.979539e+00 -1.675
 5197 1   12.243253 -5.796134e+00 -1.675
 5198 1   11.020271 -5.074527e+00 -1.675
 5199 1   11.033711 -3.654590e+00 -1.675
 5200 1   12.270131 -2.956261e+00 -1.675
 5201 1    9.783851 -5.772856e+00 -1.675
 5202 1    8.560869 -5.051249e+00 -1.675
 5203 1    8.574309 -3.631313e+00 -1.675
 5204 1    9.810729 -2.932983e+00 -1.675
 5205 1    7.324449 -5.749579e+00 -1.675
 5206 1    6.101467 -5.027972e+00 -1.675
 5207 1    6.114907 -3.608035e+00 -1.675
 5208 1    7.351327 -2.909706e+00 -1.675
 5209 1    4.865047 -5.726301e+00 -1.675
 5210 1    3.642065 -5.004694e+00 -1.675
 5211 1    3.655505 -3.584757e+00 -1.675
 5212 1    4.891925 -2.886428e+00 -1.675
 5213 1    2.405645 -5.703023e+00 -1.675
 5214 1    1.182663 -4.981416e+00 -1.675
 5215 1    1.196103 -3.561480e+00 -1.675
 5216 1    2.432523 -2.863150e+00 -1.675
 5217 1   -0.053757 -5.679746e+00 -1.675
 5218 1   -1.276739 -4.958139e+00 -1.675
 5219 1   -1.263299 -3.538202e+00 -1.675
 5220 1   -0.026879 -2.839873e+00 -1.675
 5221 1   -2.513159 -5.656468e+00 -1.675
 5222 1   -3.736141 -4.934861e+00 -1.675
 5223 1   -3.722701 -3.514925e+00 -1.675
 5224 1   -2.486281 -2.816595e+00 -1.675
 5225 1   -4.972561 -5.633190e+00 -1.675
 5226 1   -6.195543 -4.911583e+00 -1.675
 5227 1   -6.182103 -3.491647e+00 -1.675
 5228 1   -4.945683 -2.793318e+00 -1.675
 5229 1   -7.431963 -5.609913e+00 -1.675
 5230 1   -8.654945 -4.888306e+00 -1.675
 5231 1   -8.641505 -3.468369e+00 -1.675
 5232 1   -7.405085 -2.770040e+00 -1.675
 5233 1   -9.891365 -5.586635e+00 -1.675
 5234 1  -11.114347 -4.865028e+00 -1.675
 5235 1  -11.100907 -3.445092e+00 -1.675
 5236 1   -9.864487 -2.746762e+00 -1.675
 5237 1  -12.350767 -5.563357e+00 -1.675
 5238 1  -13.573749 -4.841750e+00 -1.675
 5239 1  -13.560309 -3.421814e+00 -1.675
 5240 1  -12.323889 -2.723485e+00 -1.675
 5241 1  -14.810169 -5.540080e+00 -1.675
 5242 1  -16.033151 -4.818473e+00 -1.675
 5243 1  -16.019711 -3.398536e+00 -1.675
 5244 1  -14.783291 -2.700207e+00 -1.675
 5245 1  -17.269571 -5.516802e+00 -1.675
 5246 1  -18.492553 -4.795195e+00 -1.675
 5247 1  -18.479113 -3.375259e+00 -1.675
 5248 1  -17.242693 -2.676929e+00 -1.675
 5249 1  -19.728973 -5.493524e+00 -1.675
 5250 1  -20.951955 -4.771917e+00 -1.675
 5251 1  -20.938515 -3.351981e+00 -1.675
 5252 1  -19.702095 -2.653652e+00 -1.675
 5253 1  -22.188375 -5.470247e+00 -1.675
 5254 1  -23.411357 -4.748640e+00 -1.675
 5255 1  -23.397917 -3.328703e+00 -1.675
 5256 1  -22.161497 -2.630374e+00 -1.675
 5257 1  -24.647777 -5.446969e+00 -1.675
 5258 1  -25.870759 -4.725362e+00 -1.675
 5259 1  -25.857319 -3.305426e+00 -1.675
 5260 1  -24.620899 -2.607096e+00 -1.675
 5261 1  -27.107179 -5.423692e+00 -1.675
 5262 1  -28.330161 -4.702084e+00 -1.675
 5263 1  -28.316721 -3.282148e+00 -1.675
 5264 1  -27.080301 -2.583819e+00 -1.675
 5265 1  -29.566581 -5.400414e+00 -1.675
 5266 1  -30.789563 -4.678807e+00 -1.675
 5267 1  -30.776123 -3.258870e+00 -1.675
 5268 1  -29.539703 -2.560541e+00 -1.675
 5269 1  -32.025983 -5.377136e+00 -1.675
 5270 1  -33.248965 -4.655529e+00 -1.675
 5271 1  -33.235525 -3.235593e+00 -1.675
 5272 1  -31.999105 -2.537263e+00 -1.675
 5273 1  -34.485385 -5.353859e+00 -1.675
 5274 1  -35.708367 -4.632252e+00 -1.675
 5275 1  -35.694927 -3.212315e+00 -1.675
 5276 1  -34.458507 -2.513986e+00 -1.675
 5277 1  -36.944787 -5.330581e+00 -1.675
 5278 1  -38.167769 -4.608974e+00 -1.675
 5279 1  -38.154329 -3.189037e+00 -1.675
 5280 1  -36.917909 -2.490708e+00 -1.675
 5281 1  -39.404189 -5.307303e+00 -1.675
 5282 1  -40.627171 -4.585696e+00 -1.675
 5283 1  -40.613731 -3.165760e+00 -1.675
 5284 1  -39.377311 -2.467430e+00 -1.675
 5285 1  -41.863591 -5.284026e+00 -1.675
 5286 1  -43.086573 -4.562419e+00 -1.675
 5287 1  -43.073133 -3.142482e+00 -1.675
 5288 1  -41.836713 -2.444153e+00 -1.675
 5289 1  -44.322993 -5.260748e+00 -1.675
 5290 1  -45.545975 -4.539141e+00 -1.675
 5291 1  -45.532535 -3.119205e+00 -1.675
 5292 1  -44.296115 -2.420875e+00 -1.675
 5293 1  -46.782395 -5.237470e+00 -1.675
 5294 1  -48.005377 -4.515863e+00 -1.675
 5295 1  -47.991937 -3.095927e+00 -1.675
 5296 1  -46.755517 -2.397598e+00 -1.675
 5297 1  -49.241797 -5.214193e+00 -1.675
 5298 1  -50.464779 -4.492586e+00 -1.675
 5299 1  -50.451339 -3.072649e+00 -1.675
 5300 1  -49.214919 -2.374320e+00 -1.675
 5301 1  -51.701199 -5.190915e+00 -1.675
 5302 1  -52.924181 -4.469308e+00 -1.675
 5303 1  -52.910741 -3.049372e+00 -1.675
 5304 1  -51.674321 -2.351042e+00 -1.675
 5305 1  -54.160601 -5.167637e+00 -1.675
 5306 1  -55.383583 -4.446030e+00 -1.675
 5307 1  -55.370143 -3.026094e+00 -1.675
 5308 1  -54.133723 -2.327765e+00 -1.675
 5309 1  -56.620003 -5.144360e+00 -1.675
 5310 1  -57.842985 -4.422753e+00 -1.675
 5311 1  -57.829545 -3.002816e+00 -1.675
 5312 1  -56.593124 -2.304487e+00 -1.675
 5313 1  -59.079405 -5.121082e+00 -1.675
 5314 1  -60.302387 -4.399475e+00 -1.675
 5315 1  -60.288947 -2.979539e+00 -1.675
 5316 1  -59.052526 -2.281209e+00 -1.675
 5317 1  -61.538807 -5.097804e+00 -1.675
 5318 1  -62.761789 -4.376197e+00 -1.675
 5319 1  -62.748349 -2.956261e+00 -1.675
 5320 1  -61.511928 -2.257932e+00 -1.675
 5321 1  -63.998209 -5.074527e+00 -1.675
 5322 1  -65.221190 -4.352920e+00 -1.675
 5323 1  -65.207751 -2.932983e+00 -1.675
 5324 1  -63.971330 -2.234654e+00 -1.675
 5325 1  -66.457611 -5.051249e+00 -1.675
 5326 1  -67.680592 -4.329642e+00 -1.675
 5327 1  -67.667153 -2.909706e+00 -1.675
 5328 1  -66.430732 -2.211376e+00 -1.675
 5329 1  -68.917013 -5.027972e+00 -1.675
 5330 1  -70.139994 -4.306364e+00 -1.675
 5331 1  -70.126555 -2.886428e+00 -1.675
 5332 1  -68.890134 -2.188099e+00 -1.675
 5333 1  -71.376415 -5.004694e+00 -1.675
 5334 1  -72.599396 -4.283087e+00 -1.675
 5335 1  -72.585957 -2.863150e+00 -1.675
 5336 1  -71.349536 -2.164821e+00 -1.675
 5337 1  -73.835817 -4.981416e+00 -1.675
 5338 1  -75.058798 -4.259809e+00 -1.675
 5339 1  -75.045359 -2.839873e+00 -1.675
 5340 1  -73.808938 -2.141543e+00 -1.675
 5341 1  -76.295219 -4.958139e+00 -1.675
 5342 1  -77.518200 -4.236532e+00 -1.675
 5343 1  -77.504761 -2.816595e+00 -1.675
 5344 1  -76.268340 -2.118266e+00 -1.675
 5345 1  -78.754621 -4.934861e+00 -1.675
 5346 1  -79.977602 -4.213254e+00 -1.675
 5347 1  -79.964163 -2.793318e+00 -1.675
 5348 1  -78.727742 -2.094988e+00 -1.675
 5349 1  -81.214023 -4.911583e+00 -1.675
 5350 1  -82.437004 -4.189976e+00 -1.675
 5351 1  -82.423565 -2.770040e+00 -1.675
 5352 1  -81.187144 -2.071710e+00 -1.675
 5353 1  -83.673425 -4.888306e+00 -1.675
 5354 1  -84.896406 -4.166699e+00 -1.675
 5355 1  -84.882967 -2.746762e+00 -1.675
 5356 1  -83.646546 -2.048433e+00 -1.675
 5357 1  -86.132827 -4.865028e+00 -1.675
 5358 1  -87.355808 -4.143421e+00 -1.675
 5359 1  -87.342369 -2.723485e+00 -1.675
 5360 1  -86.105948 -2.025155e+00 -1.675
 5361 1  -88.592229 -4.841750e+00 -1.675
 5362 1  -89.815210 -4.120143e+00 -1.675
 5363 1  -89.801771 -2.700207e+00 -1.675
 5364 1  -88.565350 -2.001878e+00 -1.675
 5365 1  -91.051631 -4.818473e+00 -1.675
 5366 1  -92.274612 -4.096866e+00 -1.675
 5367 1  -92.261173 -2.676929e+00 -1.675
 5368 1  -91.024752 -1.978600e+00 -1.675
 5369 1  -93.511033 -4.795195e+00 -1.675
 5370 1  -94.734014 -4.073588e+00 -1.675
 5371 1  -94.720575 -2.653652e+00 -1.675
 5372 1  -93.484154 -1.955322e+00 -1.675
 5373 1  -95.970435 -4.771917e+00 -1.675
 5374 1  -97.193416 -4.050310e+00 -1.675
 5375 1  -97.179977 -2.630374e+00 -1.675
 5376 1  -95.943556 -1.932045e+00 -1.675
 5377 1  -98.429837 -4.748640e+00 -1.675
 5378 1  -99.652818 -4.027033e+00 -1.675
 5379 1  -99.639379 -2.607096e+00 -1.675
 5380 1  -98.402958 -1.908767e+00 -1.675
 5381 1 -100.889239 -4.725362e+00 -1.675
 5382 1 -102.112220 -4.003755e+00 -1.675
 5383 1 -102.098781 -2.583819e+00 -1.675
 5384 1 -100.862360 -1.885489e+00 -1.675
 5385 1 -103.348641 -4.702084e+00 -1.675
 5386 1 -104.571622 -3.980477e+00 -1.675
 5387 1 -104.558183 -2.560541e+00 -1.675
 5388 1 -103.321762 -1.862212e+00 -1.675
 5389 1 -105.808043 -4.678807e+00 -1.675
 5390 1 -107.031024 -3.957200e+00 -1.675
 5391 1 -107.017585 -2.537263e+00 -1.675
 5392 1 -105.781164 -1.838934e+00 -1.675
 5393 1 -108.267445 -4.655529e+00 -1.675
 5394 1 -109.490426 -3.933922e+00 -1.675
 5395 1 -109.476987 -2.513986e+00 -1.675
 5396 1 -108.240566 -1.815656e+00 -1.675
 5397 1 -110.726847 -4.632252e+00 -1.675
 5398 1 -111.949828 -3.910645e+00 -1.675
 5399 1 -111.936389 -2.490708e+00 -1.675
 5400 1 -110.699968 -1.792379e+00 -1.675
 5401 1  111.896071 -1.769101e+00 -1.675
 5402 1  111.909510 -3.491647e-01 -1.675
 5403 1  110.659650 -2.467430e+00 -1.675
 5404 1  109.436669 -1.745823e+00 -1.675
 5405 1  109.450108 -3.258870e-01 -1.675
 5406 1  110.686529  3.724423e-01 -1.675
 5407 1  108.200248 -2.444153e+00 -1.675
 5408 1  106.977267 -1.722546e+00 -1.675
 5409 1  106.990706 -3.026094e-01 -1.675
 5410 1  108.227127  3.957200e-01 -1.675
 5411 1  105.740846 -2.420875e+00 -1.675
 5412 1  104.517865 -1.699268e+00 -1.675
 5413 1  104.531304 -2.793318e-01 -1.675
 5414 1  105.767725  4.189976e-01 -1.675
 5415 1  103.281444 -2.397598e+00 -1.675
 5416 1  102.058463 -1.675991e+00 -1.675
 5417 1  102.071902 -2.560541e-01 -1.675
 5418 1  103.308323  4.422753e-01 -1.675
 5419 1  100.822042 -2.374320e+00 -1.675
 5420 1   99.599061 -1.652713e+00 -1.675
 5421 1   99.612500 -2.327765e-01 -1.675
 5422 1  100.848921  4.655529e-01 -1.675
 5423 1   98.362640 -2.351042e+00 -1.675
 5424 1   97.139659 -1.629435e+00 -1.675
 5425 1   97.153098 -2.094988e-01 -1.675
 5426 1   98.389519  4.888306e-01 -1.675
 5427 1   95.903238 -2.327765e+00 -1.675
 5428 1   94.680257 -1.606158e+00 -1.675
 5429 1   94.693696 -1.862212e-01 -1.675
 5430 1   95.930117  5.121082e-01 -1.675
 5431 1   93.443836 -2.304487e+00 -1.675
 5432 1   92.220855 -1.582880e+00 -1.675
 5433 1   92.234294 -1.629435e-01 -1.675
 5434 1   93.470715  5.353859e-01 -1.675
 5435 1   90.984434 -2.281209e+00 -1.675
 5436 1   89.761453 -1.559602e+00 -1.675
 5437 1   89.774892 -1.396659e-01 -1.675
 5438 1   91.011313  5.586635e-01 -1.675
 5439 1   88.525032 -2.257932e+00 -1.675
 5440 1   87.302051 -1.536325e+00 -1.675
 5441 1   87.315490 -1.163882e-01 -1.675
 5442 1   88.551911  5.819411e-01 -1.675
 5443 1   86.065630 -2.234654e+00 -1.675
 5444 1   84.842649 -1.513047e+00 -1.675
 5445 1   84.856088 -9.311058e-02 -1.675
 5446 1   86.092509  6.052188e-01 -1.675
 5447 1   83.606228 -2.211376e+00 -1.675
 5448 1   82.383247 -1.489769e+00 -1.675
 5449 1   82.396686 -6.983294e-02 -1.675
 5450 1   83.633107  6.284964e-01 -1.675
 5451 1   81.146826 -2.188099e+00 -1.675
 5452 1   79.923845 -1.466492e+00 -1.675
 5453 1   79.937284 -4.655529e-02 -1.675
 5454 1   81.173705  6.517741e-01 -1.675
 5455 1   78.687424 -2.164821e+00 -1.675
 5456 1   77.464443 -1.443214e+00 -1.675
 5457 1   77.477882 -2.327765e-02 -1.675
 5458 1   78.714303  6.750517e-01 -1.675
 5459 1   76.228022 -2.141543e+00 -1.675
 5460 1   75.005041 -1.419936e+00 -1.675
 5461 1   75.018480 -7.154293e-15 -1.675
 5462 1   76.254901  6.983294e-01 -1.675
 5463 1   73.768620 -2.118266e+00 -1.675
 5464 1   72.545639 -1.396659e+00 -1.675
 5465 1   72.559078  2.327765e-02 -1.675
 5466 1   73.795499  7.216070e-01 -1.675
 5467 1   71.309218 -2.094988e+00 -1.675
 5468 1   70.086237 -1.373381e+00 -1.675
 5469 1   70.099676  4.655529e-02 -1.675
 5470 1   71.336097  7.448847e-01 -1.675
 5471 1   68.849816 -2.071710e+00 -1.675
 5472 1   67.626835 -1.350103e+00 -1.675
 5473 1   67.640274  6.983294e-02 -1.675
 5474 1   68.876695  7.681623e-01 -1.675
 5475 1   66.390414 -2.048433e+00 -1.675
 5476 1   65.167433 -1.326826e+00 -1.675
 5477 1   65.180872  9.311058e-02 -1.675
 5478 1   66.417293  7.914400e-01 -1.675
 5479 1   63.931012 -2.025155e+00 -1.675
 5480 1   62.708031 -1.303548e+00 -1.675
 5481 1   62.721470  1.163882e-01 -1.675
 5482 1   63.957891  8.147176e-01 -1.675
 5483 1   61.471610 -2.001878e+00 -1.675
 5484 1   60.248629 -1.280271e+00 -1.675
 5485 1   60.262068  1.396659e-01 -1.675
 5486 1   61.498489  8.379953e-01 -1.675
 5487 1   59.012208 -1.978600e+00 -1.675
 5488 1   57.789227 -1.256993e+00 -1.675
 5489 1   57.802666  1.629435e-01 -1.675
 5490 1   59.039087  8.612729e-01 -1.675
 5491 1   56.552806 -1.955322e+00 -1.675
 5492 1   55.329825 -1.233715e+00 -1.675
 5493 1   55.343264  1.862212e-01 -1.675
 5494 1   56.579685  8.845505e-01 -1.675
 5495 1   54.093404 -1.932045e+00 -1.675
 5496 1   52.870423 -1.210438e+00 -1.675
 5497 1   52.883862  2.094988e-01 -1.675
 5498 1   54.120283  9.078282e-01 -1.675
 5499 1   51.634002 -1.908767e+00 -1.675
 5500 1   50.411021 -1.187160e+00 -1.675
 5501 1   50.424460  2.327765e-01 -1.675
 5502 1   51.660881  9.311058e-01 -1.675
 5503 1   49.174600 -1.885489e+00 -1.675
 5504 1   47.951619 -1.163882e+00 -1.675
 5505 1   47.965058  2.560541e-01 -1.675
 5506 1   49.201479  9.543835e-01 -1.675
 5507 1   46.715198 -1.862212e+00 -1.675
 5508 1   45.492217 -1.140605e+00 -1.675
 5509 1   45.505657  2.793318e-01 -1.675
 5510 1   46.742077  9.776611e-01 -1.675
 5511 1   44.255796 -1.838934e+00 -1.675
 5512 1   43.032815 -1.117327e+00 -1.675
 5513 1   43.046255  3.026094e-01 -1.675
 5514 1   44.282675  1.000939e+00 -1.675
 5515 1   41.796394 -1.815656e+00 -1.675
 5516 1   40.573413 -1.094049e+00 -1.675
 5517 1   40.586853  3.258870e-01 -1.675
 5518 1   41.823273  1.024216e+00 -1.675
 5519 1   39.336992 -1.792379e+00 -1.675
 5520 1   38.114011 -1.070772e+00 -1.675
 5521 1   38.127451  3.491647e-01 -1.675
 5522 1   39.363871  1.047494e+00 -1.675
 5523 1   36.877591 -1.769101e+00 -1.675
 5524 1   35.654609 -1.047494e+00 -1.675
 5525 1   35.668049  3.724423e-01 -1.675
 5526 1   36.904469  1.070772e+00 -1.675
 5527 1   34.418189 -1.745823e+00 -1.675
 5528 1   33.195207 -1.024216e+00 -1.675
 5529 1   33.208647  3.957200e-01 -1.675
 5530 1   34.445067  1.094049e+00 -1.675
 5531 1   31.958787 -1.722546e+00 -1.675
 5532 1   30.735805 -1.000939e+00 -1.675
 5533 1   30.749245  4.189976e-01 -1.675
 5534 1   31.985665  1.117327e+00 -1.675
 5535 1   29.499385 -1.699268e+00 -1.675
 5536 1   28.276403 -9.776611e-01 -1.675
 5537 1   28.289843  4.422753e-01 -1.675
 5538 1   29.526263  1.140605e+00 -1.675
 5539 1   27.039983 -1.675991e+00 -1.675
 5540 1   25.817001 -9.543835e-01 -1.675
 5541 1   25.830441  4.655529e-01 -1.675
 5542 1   27.066861  1.163882e+00 -1.675
 5543 1   24.580581 -1.652713e+00 -1.675
 5544 1   23.357599 -9.311058e-01 -1.675
 5545 1   23.371039  4.888306e-01 -1.675
 5546 1   24.607459  1.187160e+00 -1.675
 5547 1   22.121179 -1.629435e+00 -1.675
 5548 1   20.898197 -9.078282e-01 -1.675
 5549 1   20.911637  5.121082e-01 -1.675
 5550 1   22.148057  1.210438e+00 -1.675
 5551 1   19.661777 -1.606158e+00 -1.675
 5552 1   18.438795 -8.845505e-01 -1.675
 5553 1   18.452235  5.353859e-01 -1.675
 5554 1   19.688655  1.233715e+00 -1.675
 5555 1   17.202375 -1.582880e+00 -1.675
 5556 1   15.979393 -8.612729e-01 -1.675
 5557 1   15.992833  5.586635e-01 -1.675
 5558 1   17.229253  1.256993e+00 -1.675
 5559 1   14.742973 -1.559602e+00 -1.675
 5560 1   13.519991 -8.379953e-01 -1.675
 5561 1   13.533431  5.819411e-01 -1.675
 5562 1   14.769851  1.280271e+00 -1.675
 5563 1   12.283571 -1.536325e+00 -1.675
 5564 1   11.060589 -8.147176e-01 -1.675
 5565 1   11.074029  6.052188e-01 -1.675
 5566 1   12.310449  1.303548e+00 -1.675
 5567 1    9.824169 -1.513047e+00 -1.675
 5568 1    8.601187 -7.914400e-01 -1.675
 5569 1    8.614627  6.284964e-01 -1.675
 5570 1    9.851047  1.326826e+00 -1.675
 5571 1    7.364767 -1.489769e+00 -1.675
 5572 1    6.141785 -7.681623e-01 -1.675
 5573 1    6.155225  6.517741e-01 -1.675
 5574 1    7.391645  1.350103e+00 -1.675
 5575 1    4.905365 -1.466492e+00 -1.675
 5576 1    3.682383 -7.448847e-01 -1.675
 5577 1    3.695823  6.750517e-01 -1.675
 5578 1    4.932243  1.373381e+00 -1.675
 5579 1    2.445963 -1.443214e+00 -1.675
 5580 1    1.222981 -7.216070e-01 -1.675
 5581 1    1.236421  6.983294e-01 -1.675
 5582 1    2.472841  1.396659e+00 -1.675
 5583 1   -0.013439 -1.419936e+00 -1.675
 5584 1   -1.236421 -6.983294e-01 -1.675
 5585 1   -1.222981  7.216070e-01 -1.675
 5586 1    0.013439  1.419936e+00 -1.675
 5587 1   -2.472841 -1.396659e+00 -1.675
 5588 1   -3.695823 -6.750517e-01 -1.675
 5589 1   -3.682383  7.448847e-01 -1.675
 5590 1   -2.445963  1.443214e+00 -1.675
 5591 1   -4.932243 -1.373381e+00 -1.675
 5592 1   -6.155225 -6.517741e-01 -1.675
 5593 1   -6.141785  7.681623e-01 -1.675
 5594 1   -4.905365  1.466492e+00 -1.675
 5595 1   -7.391645 -1.350103e+00 -1.675
 5596 1   -8.614627 -6.284964e-01 -1.675
 5597 1   -8.601187  7.914400e-01 -1.675
 5598 1   -7.364767  1.489769e+00 -1.675
 5599 1   -9.851047 -1.326826e+00 -1.675
 5600 1  -11.074029 -6.052188e-01 -1.675
 5601 1  -11.060589  8.147176e-01 -1.675
 5602 1   -9.824169  1.513047e+00 -1.675
 5603 1  -12.310449 -1.303548e+00 -1.675
 5604 1  -13.533431 -5.819411e-01 -1.675
 5605 1  -13.519991  8.379953e-01 -1.675
 5606 1  -12.283571  1.536325e+00 -1.675
 5607 1  -14.769851 -1.280271e+00 -1.675
 5608 1  -15.992833 -5.586635e-01 -1.675
 5609 1  -15.979393  8.612729e-01 -1.675
 5610 1  -14.742973  1.559602e+00 -1.675
 5611 1  -17.229253 -1.256993e+00 -1.675
 5612 1  -18.452235 -5.353859e-01 -1.675
 5613 1  -18.438795  8.845505e-01 -1.675
 5614 1  -17.202375  1.582880e+00 -1.675
 5615 1  -19.688655 -1.233715e+00 -1.675
 5616 1  -20.911637 -5.121082e-01 -1.675
 5617 1  -20.898197  9.078282e-01 -1.675
 5618 1  -19.661777  1.606158e+00 -1.675
 5619 1  -22.148057 -1.210438e+00 -1.675
 5620 1  -23.371039 -4.888306e-01 -1.675
 5621 1  -23.357599  9.311058e-01 -1.675
 5622 1  -22.121179  1.629435e+00 -1.675
 5623 1  -24.607459 -1.187160e+00 -1.675
 5624 1  -25.830441 -4.655529e-01 -1.675
 5625 1  -25.817001  9.543835e-01 -1.675
 5626 1  -24.580581  1.652713e+00 -1.675
 5627 1  -27.066861 -1.163882e+00 -1.675
 5628 1  -28.289843 -4.422753e-01 -1.675
 5629 1  -28.276403  9.776611e-01 -1.675
 5630 1  -27.039983  1.675991e+00 -1.675
 5631 1  -29.526263 -1.140605e+00 -1.675
 5632 1  -30.749245 -4.189976e-01 -1.675
 5633 1  -30.735805  1.000939e+00 -1.675
 5634 1  -29.499385  1.699268e+00 -1.675
 5635 1  -31.985665 -1.117327e+00 -1.675
 5636 1  -33.208647 -3.957200e-01 -1.675
 5637 1  -33.195207  1.024216e+00 -1.675
 5638 1  -31.958787  1.722546e+00 -1.675
 5639 1  -34.445067 -1.094049e+00 -1.675
 5640 1  -35.668049 -3.724423e-01 -1.675
 5641 1  -35.654609  1.047494e+00 -1.675
 5642 1  -34.418189  1.745823e+00 -1.675
 5643 1  -36.904469 -1.070772e+00 -1.675
 5644 1  -38.127451 -3.491647e-01 -1.675
 5645 1  -38.114011  1.070772e+00 -1.675
 5646 1  -36.877591  1.769101e+00 -1.675
 5647 1  -39.363871 -1.047494e+00 -1.675
 5648 1  -40.586853 -3.258870e-01 -1.675
 5649 1  -40.573413  1.094049e+00 -1.675
 5650 1  -39.336992  1.792379e+00 -1.675
 5651 1  -41.823273 -1.024216e+00 -1.675
 5652 1  -43.046255 -3.026094e-01 -1.675
 5653 1  -43.032815  1.117327e+00 -1.675
 5654 1  -41.796394  1.815656e+00 -1.675
 5655 1  -44.282675 -1.000939e+00 -1.675
 5656 1  -45.505657 -2.793318e-01 -1.675
 5657 1  -45.492217  1.140605e+00 -1.675
 5658 1  -44.255796  1.838934e+00 -1.675
 5659 1  -46.742077 -9.776611e-01 -1.675
 5660 1  -47.965058 -2.560541e-01 -1.675
 5661 1  -47.951619  1.163882e+00 -1.675
 5662 1  -46.715198  1.862212e+00 -1.675
 5663 1  -49.201479 -9.543835e-01 -1.675
 5664 1  -50.424460 -2.327765e-01 -1.675
 5665 1  -50.411021  1.187160e+00 -1.675
 5666 1  -49.174600  1.885489e+00 -1.675
 5667 1  -51.660881 -9.311058e-01 -1.675
 5668 1  -52.883862 -2.094988e-01 -1.675
 5669 1  -52.870423  1.210438e+00 -1.675
 5670 1  -51.634002  1.908767e+00 -1.675
 5671 1  -54.120283 -9.078282e-01 -1.675
 5672 1  -55.343264 -1.862212e-01 -1.675
 5673 1  -55.329825  1.233715e+00 -1.675
 5674 1  -54.093404  1.932045e+00 -1.675
 5675 1  -56.579685 -8.845505e-01 -1.675
 5676 1  -57.802666 -1.629435e-01 -1.675
 5677 1  -57.789227  1.256993e+00 -1.675
 5678 1  -56.552806  1.955322e+00 -1.675
 5679 1  -59.039087 -8.612729e-01 -1.675
 5680 1  -60.262068 -1.396659e-01 -1.675
 5681 1  -60.248629  1.280271e+00 -1.675
 5682 1  -59.012208  1.978600e+00 -1.675
 5683 1  -61.498489 -8.379953e-01 -1.675
 5684 1  -62.721470 -1.163882e-01 -1.675
 5685 1  -62.708031  1.303548e+00 -1.675
 5686 1  -61.471610  2.001878e+00 -1.675
 5687 1  -63.957891 -8.147176e-01 -1.675
 5688 1  -65.180872 -9.311058e-02 -1.675
 5689 1  -65.167433  1.326826e+00 -1.675
 5690 1  -63.931012  2.025155e+00 -1.675
 5691 1  -66.417293 -7.914400e-01 -1.675
 5692 1  -67.640274 -6.983294e-02 -1.675
 5693 1  -67.626835  1.350103e+00 -1.675
 5694 1  -66.390414  2.048433e+00 -1.675
 5695 1  -68.876695 -7.681623e-01 -1.675
 5696 1  -70.099676 -4.655529e-02 -1.675
 5697 1  -70.086237  1.373381e+00 -1.675
 5698 1  -68.849816  2.071710e+00 -1.675
 5699 1  -71.336097 -7.448847e-01 -1.675
 5700 1  -72.559078 -2.327765e-02 -1.675
 5701 1  -72.545639  1.396659e+00 -1.675
 5702 1  -71.309218  2.094988e+00 -1.675
 5703 1  -73.795499 -7.216070e-01 -1.675
 5704 1  -75.018480  2.186874e-15 -1.675
 5705 1  -75.005041  1.419936e+00 -1.675
 5706 1  -73.768620  2.118266e+00 -1.675
 5707 1  -76.254901 -6.983294e-01 -1.675
 5708 1  -77.477882  2.327765e-02 -1.675
 5709 1  -77.464443  1.443214e+00 -1.675
 5710 1  -76.228022  2.141543e+00 -1.675
 5711 1  -78.714303 -6.750517e-01 -1.675
 5712 1  -79.937284  4.655529e-02 -1.675
 5713 1  -79.923845  1.466492e+00 -1.675
 5714 1  -78.687424  2.164821e+00 -1.675
 5715 1  -81.173705 -6.517741e-01 -1.675
 5716 1  -82.396686  6.983294e-02 -1.675
 5717 1  -82.383247  1.489769e+00 -1.675
 5718 1  -81.146826  2.188099e+00 -1.675
 5719 1  -83.633107 -6.284964e-01 -1.675
 5720 1  -84.856088  9.311058e-02 -1.675
 5721 1  -84.842649  1.513047e+00 -1.675
 5722 1  -83.606228  2.211376e+00 -1.675
 5723 1  -86.092509 -6.052188e-01 -1.675
 5724 1  -87.315490  1.163882e-01 -1.675
 5725 1  -87.302051  1.536325e+00 -1.675
 5726 1  -86.065630  2.234654e+00 -1.675
 5727 1  -88.551911 -5.819411e-01 -1.675
 5728 1  -89.774892  1.396659e-01 -1.675
 5729 1  -89.761453  1.559602e+00 -1.675
 5730 1  -88.525032  2.257932e+00 -1.675
 5731 1  -91.011313 -5.586635e-01 -1.675
 5732 1  -92.234294  1.629435e-01 -1.675
 5733 1  -92.220855  1.582880e+00 -1.675
 5734 1  -90.984434  2.281209e+00 -1.675
 5735 1  -93.470715 -5.353859e-01 -1.675
 5736 1  -94.693696  1.862212e-01 -1.675
 5737 1  -94.680257  1.606158e+00 -1.675
 5738 1  -93.443836  2.304487e+00 -1.675
 5739 1  -95.930117 -5.121082e-01 -1.675
 5740 1  -97.153098  2.094988e-01 -1.675
 5741 1  -97.139659  1.629435e+00 -1.675
 5742 1  -95.903238  2.327765e+00 -1.675
 5743 1  -98.389519 -4.888306e-01 -1.675
 5744 1  -99.612500  2.327765e-01 -1.675
 5745 1  -99.599061  1.652713e+00 -1.675
 5746 1  -98.362640  2.351042e+00 -1.675
 5747 1 -100.848921 -4.655529e-01 -1.675
 5748 1 -102.071902  2.560541e-01 -1.675
 5749 1 -102.058463  1.675991e+00 -1.675
 5750 1 -100.822042  2.374320e+00 -1.675
 5751 1 -103.308323 -4.422753e-01 -1.675
 5752 1 -104.531304  2.793318e-01 -1.675
 5753 1 -104.517865  1.699268e+00 -1.675
 5754 1 -103.281444  2.397598e+00 -1.675
 5755 1 -105.767725 -4.189976e-01 -1.675
 5756 1 -106.990706  3.026094e-01 -1.675
 5757 1 -106.977267  1.722546e+00 -1.675
 5758 1 -105.740846  2.420875e+00 -1.675
 5759 1 -108.227127 -3.957200e-01 -1.675
 5760 1 -109.450108  3.258870e-01 -1.675
 5761 1 -109.436669  1.745823e+00 -1.675
 5762 1 -108.200248  2.444153e+00 -1.675
 5763 1 -110.686529 -3.724423e-01 -1.675
 5764 1 -111.909510  3.491647e-01 -1.675
 5765 1 -111.896071  1.769101e+00 -1.675
 5766 1 -110.659650  2.467430e+00 -1.675
 5767 1  111.936389  2.490708e+00 -1.675
 5768 1  111.949828  3.910645e+00 -1.675
 5769 1  110.699968  1.792379e+00 -1.675
 5770 1  109.476987  2.513986e+00 -1.675
 5771 1  109.490426  3.933922e+00 -1.675
 5772 1  110.726847  4.632252e+00 -1.675
 5773 1  108.240566  1.815656e+00 -1.675
 5774 1  107.017585  2.537263e+00 -1.675
 5775 1  107.031024  3.957200e+00 -1.675
 5776 1  108.267445  4.655529e+00 -1.675
 5777 1  105.781164  1.838934e+00 -1.675
 5778 1  104.558183  2.560541e+00 -1.675
 5779 1  104.571622  3.980477e+00 -1.675
 5780 1  105.808043  4.678807e+00 -1.675
 5781 1  103.321762  1.862212e+00 -1.675
 5782 1  102.098781  2.583819e+00 -1.675
 5783 1  102.112220  4.003755e+00 -1.675
 5784 1  103.348641  4.702084e+00 -1.675
 5785 1  100.862360  1.885489e+00 -1.675
 5786 1   99.639379  2.607096e+00 -1.675
 5787 1   99.652818  4.027033e+00 -1.675
 5788 1  100.889239  4.725362e+00 -1.675
 5789 1   98.402958  1.908767e+00 -1.675
 5790 1   97.179977  2.630374e+00 -1.675
 5791 1   97.193416  4.050310e+00 -1.675
 5792 1   98.429837  4.748640e+00 -1.675
 5793 1   95.943556  1.932045e+00 -1.675
 5794 1   94.720575  2.653652e+00 -1.675
 5795 1   94.734014  4.073588e+00 -1.675
 5796 1   95.970435  4.771917e+00 -1.675
 5797 1   93.484154  1.955322e+00 -1.675
 5798 1   92.261173  2.676929e+00 -1.675
 5799 1   92.274612  4.096866e+00 -1.675
 5800 1   93.511033  4.795195e+00 -1.675
 5801 1   91.024752  1.978600e+00 -1.675
 5802 1   89.801771  2.700207e+00 -1.675
 5803 1   89.815210  4.120143e+00 -1.675
 5804 1   91.051631  4.818473e+00 -1.675
 5805 1   88.565350  2.001878e+00 -1.675
 5806 1   87.342369  2.723485e+00 -1.675
 5807 1   87.355808  4.143421e+00 -1.675
 5808 1   88.592229  4.841750e+00 -1.675
 5809 1   86.105948  2.025155e+00 -1.675
 5810 1   84.882967  2.746762e+00 -1.675
 5811 1   84.896406  4.166699e+00 -1.675
 5812 1   86.132827  4.865028e+00 -1.675
 5813 1   83.646546  2.048433e+00 -1.675
 5814 1   82.423565  2.770040e+00 -1.675
 5815 1   82.437004  4.189976e+00 -1.675
 5816 1   83.673425  4.888306e+00 -1.675
 5817 1   81.187144  2.071710e+00 -1.675
 5818 1   79.964163  2.793318e+00 -1.675
 5819 1   79.977602  4.213254e+00 -1.675
 5820 1   81.214023  4.911583e+00 -1.675
 5821 1   78.727742  2.094988e+00 -1.675
 5822 1   77.504761  2.816595e+00 -1.675
 5823 1   77.518200  4.236532e+00 -1.675
 5824 1   78.754621  4.934861e+00 -1.675
 5825 1   76.268340  2.118266e+00 -1.675
 5826 1   75.045359  2.839873e+00 -1.675
 5827 1   75.058798  4.259809e+00 -1.675
 5828 1   76.295219  4.958139e+00 -1.675
 5829 1   73.808938  2.141543e+00 -1.675
 5830 1   72.585957  2.863150e+00 -1.675
 5831 1   72.599396  4.283087e+00 -1.675
 5832 1   73.835817  4.981416e+00 -1.675
 5833 1   71.349536  2.164821e+00 -1.675
 5834 1   70.126555  2.886428e+00 -1.675
 5835 1   70.139994  4.306364e+00 -1.675
 5836 1   71.376415  5.004694e+00 -1.675
 5837 1   68.890134  2.188099e+00 -1.675
 5838 1   67.667153  2.909706e+00 -1.675
 5839 1   67.680592  4.329642e+00 -1.675
 5840 1   68.917013  5.027972e+00 -1.675
 5841 1   66.430732  2.211376e+00 -1.675
 5842 1   65.207751  2.932983e+00 -1.675
 5843 1   65.221190  4.352920e+00 -1.675
 5844 1   66.457611  5.051249e+00 -1.675
 5845 1   63.971330  2.234654e+00 -1.675
 5846 1   62.748349  2.956261e+00 -1.675
 5847 1   62.761789  4.376197e+00 -1.675
 5848 1   63.998209  5.074527e+00 -1.675
 5849 1   61.511928  2.257932e+00 -1.675
 5850 1   60.288947  2.979539e+00 -1.675
 5851 1   60.302387  4.399475e+00 -1.675
 5852 1   61.538807  5.097804e+00 -1.675
 5853 1   59.052526  2.281209e+00 -1.675
 5854 1   57.829545  3.002816e+00 -1.675
 5855 1   57.842985  4.422753e+00 -1.675
 5856 1   59.079405  5.121082e+00 -1.675
 5857 1   56.593124  2.304487e+00 -1.675
 5858 1   55.370143  3.026094e+00 -1.675
 5859 1   55.383583  4.446030e+00 -1.675
 5860 1   56.620003  5.144360e+00 -1.675
 5861 1   54.133723  2.327765e+00 -1.675
 5862 1   52.910741  3.049372e+00 -1.675
 5863 1   52.924181  4.469308e+00 -1.675
 5864 1   54.160601  5.167637e+00 -1.675
 5865 1   51.674321  2.351042e+00 -1.675
 5866 1   50.451339  3.072649e+00 -1.675
 5867 1   50.464779  4.492586e+00 -1.675
 5868 1   51.701199  5.190915e+00 -1.675
 5869 1   49.214919  2.374320e+00 -1.675
 5870 1   47.991937  3.095927e+00 -1.675
 5871 1   48.005377  4.515863e+00 -1.675
 5872 1   49.241797  5.214193e+00 -1.675
 5873 1   46.755517  2.397598e+00 -1.675
 5874 1   45.532535  3.119205e+00 -1.675
 5875 1   45.545975  4.539141e+00 -1.675
 5876 1   46.782395  5.237470e+00 -1.675
 5877 1   44.296115  2.420875e+00 -1.675
 5878 1   43.073133  3.142482e+00 -1.675
 5879 1   43.086573  4.562419e+00 -1.675
 5880 1   44.322993  5.260748e+00 -1.675
 5881 1   41.836713  2.444153e+00 -1.675
 5882 1   40.613731  3.165760e+00 -1.675
 5883 1   40.627171  4.585696e+00 -1.675
 5884 1   41.863591  5.284026e+00 -1.675
 5885 1   39.377311  2.467430e+00 -1.675
 5886 1   38.154329  3.189037e+00 -1.675
 5887 1   38.167769  4.608974e+00 -1.675
 5888 1   39.404189  5.307303e+00 -1.675
 5889 1   36.917909  2.490708e+00 -1.675
 5890 1   35.694927  3.212315e+00 -1.675
 5891 1   35.708367  4.632252e+00 -1.675
 5892 1   36.944787  5.330581e+00 -1.675
 5893 1   34.458507  2.513986e+00 -1.675
 5894 1   33.235525  3.235593e+00 -1.675
 5895 1   33.248965  4.655529e+00 -1.675
 5896 1   34.485385  5.353859e+00 -1.675
 5897 1   31.999105  2.537263e+00 -1.675
 5898 1   30.776123  3.258870e+00 -1.675
 5899 1   30.789563  4.678807e+00 -1.675
 5900 1   32.025983  5.377136e+00 -1.675
 5901 1   29.539703  2.560541e+00 -1.675
 5902 1   28.316721  3.282148e+00 -1.675
 5903 1   28.330161  4.702084e+00 -1.675
 5904 1   29.566581  5.400414e+00 -1.675
 5905 1   27.080301  2.583819e+00 -1.675
 5906 1   25.857319  3.305426e+00 -1.675
 5907 1   25.870759  4.725362e+00 -1.675
 5908 1   27.107179  5.423692e+00 -1.675
 5909 1   24.620899  2.607096e+00 -1.675
 5910 1   23.397917  3.328703e+00 -1.675
 5911 1   23.411357  4.748640e+00 -1.675
 5912 1   24.647777  5.446969e+00 -1.675
 5913 1   22.161497  2.630374e+00 -1.675
 5914 1   20.938515  3.351981e+00 -1.675
 5915 1   20.951955  4.771917e+00 -1.675
 5916 1   22.188375  5.470247e+00 -1.675
 5917 1   19.702095  2.653652e+00 -1.675
 5918 1   18.479113  3.375259e+00 -1.675
 5919 1   18.492553  4.795195e+00 -1.675
 5920 1   19.728973  5.493524e+00 -1.675
 5921 1   17.242693  2.676929e+00 -1.675
 5922 1   16.019711  3.398536e+00 -1.675
 5923 1   16.033151  4.818473e+00 -1.675
 5924 1   17.269571  5.516802e+00 -1.675
 5925 1   14.783291  2.700207e+00 -1.675
 5926 1   13.560309  3.421814e+00 -1.675
 5927 1   13.573749  4.841750e+00 -1.675
 5928 1   14.810169  5.540080e+00 -1.675
 5929 1   12.323889  2.723485e+00 -1.675
 5930 1   11.100907  3.445092e+00 -1.675
 5931 1   11.114347  4.865028e+00 -1.675
 5932 1   12.350767  5.563357e+00 -1.675
 5933 1    9.864487  2.746762e+00 -1.675
 5934 1    8.641505  3.468369e+00 -1.675
 5935 1    8.654945  4.888306e+00 -1.675
 5936 1    9.891365  5.586635e+00 -1.675
 5937 1    7.405085  2.770040e+00 -1.675
 5938 1    6.182103  3.491647e+00 -1.675
 5939 1    6.195543  4.911583e+00 -1.675
 5940 1    7.431963  5.609913e+00 -1.675
 5941 1    4.945683  2.793318e+00 -1.675
 5942 1    3.722701  3.514925e+00 -1.675
 5943 1    3.736141  4.934861e+00 -1.675
 5944 1    4.972561  5.633190e+00 -1.675
 5945 1    2.486281  2.816595e+00 -1.675
 5946 1    1.263299  3.538202e+00 -1.675
 5947 1    1.276739  4.958139e+00 -1.675
 5948 1    2.513159  5.656468e+00 -1.675
 5949 1    0.026879  2.839873e+00 -1.675
 5950 1   -1.196103  3.561480e+00 -1.675
 5951 1   -1.182663  4.981416e+00 -1.675
 5952 1    0.053757  5.679746e+00 -1.675
 5953 1   -2.432523  2.863150e+00 -1.675
 5954 1   -3.655505  3.584757e+00 -1.675
 5955 1   -3.642065  5.004694e+00 -1.675
 5956 1   -2.405645  5.703023e+00 -1.675
 5957 1   -4.891925  2.886428e+00 -1.675
 5958 1   -6.114907  3.608035e+00 -1.675
 5959 1   -6.101467  5.027972e+00 -1.675
 5960 1   -4.865047  5.726301e+00 -1.675
 5961 1   -7.351327  2.909706e+00 -1.675
 5962 1   -8.574309  3.631313e+00 -1.675
 5963 1   -8.560869  5.051249e+00 -1.675
 5964 1   -7.324449  5.749579e+00 -1.675
 5965 1   -9.810729  2.932983e+00 -1.675
 5966 1  -11.033711  3.654590e+00 -1.675
 5967 1  -11.020271  5.074527e+00 -1.675
 5968 1   -9.783851  5.772856e+00 -1.675
 5969 1  -12.270131  2.956261e+00 -1.675
 5970 1  -13.493113  3.677868e+00 -1.675
 5971 1  -13.479673  5.097804e+00 -1.675
 5972 1  -12.243253  5.796134e+00 -1.675
 5973 1  -14.729533  2.979539e+00 -1.675
 5974 1  -15.952515  3.701146e+00 -1.675
 5975 1  -15.939075  5.121082e+00 -1.675
 5976 1  -14.702655  5.819411e+00 -1.675
 5977 1  -17.188935  3.002816e+00 -1.675
 5978 1  -18.411917  3.724423e+00 -1.675
 5979 1  -18.398477  5.144360e+00 -1.675
 5980 1  -17.162057  5.842689e+00 -1.675
 5981 1  -19.648337  3.026094e+00 -1.675
 5982 1  -20.871319  3.747701e+00 -1.675
 5983 1  -20.857879  5.167637e+00 -1.675
 5984 1  -19.621459  5.865967e+00 -1.675
 5985 1  -22.107739  3.049372e+00 -1.675
 5986 1  -23.330721  3.770979e+00 -1.675
 5987 1  -23.317281  5.190915e+00 -1.675
 5988 1  -22.080860  5.889244e+00 -1.675
 5989 1  -24.567141  3.072649e+00 -1.675
 5990 1  -25.790123  3.794256e+00 -1.675
 5991 1  -25.776683  5.214193e+00 -1.675
 5992 1  -24.540262  5.912522e+00 -1.675
 5993 1  -27.026543  3.095927e+00 -1.675
 5994 1  -28.249525  3.817534e+00 -1.675
 5995 1  -28.236085  5.237470e+00 -1.675
 5996 1  -26.999664  5.935800e+00 -1.675
 5997 1  -29.485945  3.119205e+00 -1.675
 5998 1  -30.708926  3.840812e+00 -1.675
 5999 1  -30.695487  5.260748e+00 -1.675
 6000 1  -29.459066  5.959077e+00 -1.675
 6001 1  -31.945347  3.142482e+00 -1.675
 6002 1  -33.168328  3.864089e+00 -1.675
 6003 1  -33.154889  5.284026e+00 -1.675
 6004 1  -31.918468  5.982355e+00 -1.675
 6005 1  -34.404749  3.165760e+00 -1.675
 6006 1  -35.627730  3.887367e+00 -1.675
 6007 1  -35.614291  5.307303e+00 -1.675
 6008 1  -34.377870  6.005633e+00 -1.675
 6009 1  -36.864151  3.189037e+00 -1.675
 6010 1  -38.087132  3.910645e+00 -1.675
 6011 1  -38.073693  5.330581e+00 -1.675
 6012 1  -36.837272  6.028910e+00 -1.675
 6013 1  -39.323553  3.212315e+00 -1.675
 6014 1  -40.546534  3.933922e+00 -1.675
 6015 1  -40.533095  5.353859e+00 -1.675
 6016 1  -39.296674  6.052188e+00 -1.675
 6017 1  -41.782955  3.235593e+00 -1.675
 6018 1  -43.005936  3.957200e+00 -1.675
 6019 1  -42.992497  5.377136e+00 -1.675
 6020 1  -41.756076  6.075466e+00 -1.675
 6021 1  -44.242357  3.258870e+00 -1.675
 6022 1  -45.465338  3.980477e+00 -1.675
 6023 1  -45.451899  5.400414e+00 -1.675
 6024 1  -44.215478  6.098743e+00 -1.675
 6025 1  -46.701759  3.282148e+00 -1.675
 6026 1  -47.924740  4.003755e+00 -1.675
 6027 1  -47.911301  5.423692e+00 -1.675
 6028 1  -46.674880  6.122021e+00 -1.675
 6029 1  -49.161161  3.305426e+00 -1.675
 6030 1  -50.384142  4.027033e+00 -1.675
 6031 1  -50.370703  5.446969e+00 -1.675
 6032 1  -49.134282  6.145299e+00 -1.675
 6033 1  -51.620563  3.328703e+00 -1.675
 6034 1  -52.843544  4.050310e+00 -1.675
 6035 1  -52.830105  5.470247e+00 -1.675
 6036 1  -51.593684  6.168576e+00 -1.675
 6037 1  -54.079965  3.351981e+00 -1.675
 6038 1  -55.302946  4.073588e+00 -1.675
 6039 1  -55.289507  5.493524e+00 -1.675
 6040 1  -54.053086  6.191854e+00 -1.675
 6041 1  -56.539367  3.375259e+00 -1.675
 6042 1  -57.762348  4.096866e+00 -1.675
 6043 1  -57.748909  5.516802e+00 -1.675
 6044 1  -56.512488  6.215131e+00 -1.675
 6045 1  -58.998769  3.398536e+00 -1.675
 6046 1  -60.221750  4.120143e+00 -1.675
 6047 1  -60.208311  5.540080e+00 -1.675
 6048 1  -58.971890  6.238409e+00 -1.675
 6049 1  -61.458171  3.421814e+00 -1.675
 6050 1  -62.681152  4.143421e+00 -1.675
 6051 1  -62.667713  5.563357e+00 -1.675
 6052 1  -61.431292  6.261687e+00 -1.675
 6053 1  -63.917573  3.445092e+00 -1.675
 6054 1  -65.140554  4.166699e+00 -1.675
 6055 1  -65.127115  5.586635e+00 -1.675
 6056 1  -63.890694  6.284964e+00 -1.675
 6057 1  -66.376975  3.468369e+00 -1.675
 6058 1  -67.599956  4.189976e+00 -1.675
 6059 1  -67.586517  5.609913e+00 -1.675
 6060 1  -66.350096  6.308242e+00 -1.675
 6061 1  -68.836377  3.491647e+00 -1.675
 6062 1  -70.059358  4.213254e+00 -1.675
 6063 1  -70.045919  5.633190e+00 -1.675
 6064 1  -68.809498  6.331520e+00 -1.675
 6065 1  -71.295779  3.514925e+00 -1.675
 6066 1  -72.518760  4.236532e+00 -1.675
 6067 1  -72.505321  5.656468e+00 -1.675
 6068 1  -71.268900  6.354797e+00 -1.675
 6069 1  -73.755181  3.538202e+00 -1.675
 6070 1  -74.978162  4.259809e+00 -1.675
 6071 1  -74.964723  5.679746e+00 -1.675
 6072 1  -73.728302  6.378075e+00 -1.675
 6073 1  -76.214583  3.561480e+00 -1.675
 6074 1  -77.437564  4.283087e+00 -1.675
 6075 1  -77.424125  5.703023e+00 -1.675
 6076 1  -76.187704  6.401353e+00 -1.675
 6077 1  -78.673985  3.584757e+00 -1.675
 6078 1  -79.896966  4.306364e+00 -1.675
 6079 1  -79.883527  5.726301e+00 -1.675
 6080 1  -78.647106  6.424630e+00 -1.675
 6081 1  -81.133387  3.608035e+00 -1.675
 6082 1  -82.356368  4.329642e+00 -1.675
 6083 1  -82.342929  5.749579e+00 -1.675
 6084 1  -81.106508  6.447908e+00 -1.675
 6085 1  -83.592789  3.631313e+00 -1.675
 6086 1  -84.815770  4.352920e+00 -1.675
 6087 1  -84.802331  5.772856e+00 -1.675
 6088 1  -83.565910  6.471186e+00 -1.675
 6089 1  -86.052191  3.654590e+00 -1.675
 6090 1  -87.275172  4.376197e+00 -1.675
 6091 1  -87.261733  5.796134e+00 -1.675
 6092 1  -86.025312  6.494463e+00 -1.675
 6093 1  -88.511593  3.677868e+00 -1.675
 6094 1  -89.734574  4.399475e+00 -1.675
 6095 1  -89.721135  5.819411e+00 -1.675
 6096 1  -88.484714  6.517741e+00 -1.675
 6097 1  -90.970995  3.701146e+00 -1.675
 6098 1  -92.193976  4.422753e+00 -1.675
 6099 1  -92.180537  5.842689e+00 -1.675
 6100 1  -90.944116  6.541019e+00 -1.675
 6101 1  -93.430397  3.724423e+00 -1.675
 6102 1  -94.653378  4.446030e+00 -1.675
 6103 1  -94.639939  5.865967e+00 -1.675
 6104 1  -93.403518  6.564296e+00 -1.675
 6105 1  -95.889799  3.747701e+00 -1.675
 6106 1  -97.112780  4.469308e+00 -1.675
 6107 1  -97.099341  5.889244e+00 -1.675
 6108 1  -95.862920  6.587574e+00 -1.675
 6109 1  -98.349201  3.770979e+00 -1.675
 6110 1  -99.572182  4.492586e+00 -1.675
 6111 1  -99.558743  5.912522e+00 -1.675
 6112 1  -98.322322  6.610851e+00 -1.675
 6113 1 -100.808603  3.794256e+00 -1.675
 6114 1 -102.031584  4.515863e+00 -1.675
 6115 1 -102.018145  5.935800e+00 -1.675
 6116 1 -100.781724  6.634129e+00 -1.675
 6117 1 -103.268005  3.817534e+00 -1.675
 6118 1 -104.490986  4.539141e+00 -1.675
 6119 1 -104.477547  5.959077e+00 -1.675
 6120 1 -103.241126  6.657407e+00 -1.675
 6121 1 -105.727407  3.840812e+00 -1.675
 6122 1 -106.950388  4.562419e+00 -1.675
 6123 1 -106.936949  5.982355e+00 -1.675
 6124 1 -105.700528  6.680684e+00 -1.675
 6125 1 -108.186809  3.864089e+00 -1.675
 6126 1 -109.409790  4.585696e+00 -1.675
 6127 1 -109.396351  6.005633e+00 -1.675
 6128 1 -108.159930  6.703962e+00 -1.675
 6129 1 -110.646211  3.887367e+00 -1.675
 6130 1 -111.869192  4.608974e+00 -1.675
 6131 1 -111.855753  6.028910e+00 -1.675
 6132 1 -110.619332  6.727240e+00 -1.675
 6133 1  111.976707  6.750517e+00 -1.675
 6134 1  111.990146  8.170454e+00 -1.675
 6135 1  110.740286  6.052188e+00 -1.675
 6136 1  109.517305  6.773795e+00 -1.675
 6137 1  109.530744  8.193731e+00 -1.675
 6138 1  110.767165  8.892061e+00 -1.675
 6139 1  108.280884  6.075466e+00 -1.675
 6140 1  107.057903  6.797073e+00 -1.675
 6141 1  107.071342  8.217009e+00 -1.675
 6142 1  108.307763  8.915338e+00 -1.675
 6143 1  105.821482  6.098743e+00 -1.675
 6144 1  104.598501  6.820350e+00 -1.675
 6145 1  104.611940  8.240287e+00 -1.675
 6146 1  105.848361  8.938616e+00 -1.675
 6147 1  103.362080  6.122021e+00 -1.675
 6148 1  102.139099  6.843628e+00 -1.675
 6149 1  102.152538  8.263564e+00 -1.675
 6150 1  103.388959  8.961894e+00 -1.675
 6151 1  100.902678  6.145299e+00 -1.675
 6152 1   99.679697  6.866906e+00 -1.675
 6153 1   99.693136  8.286842e+00 -1.675
 6154 1  100.929557  8.985171e+00 -1.675
 6155 1   98.443276  6.168576e+00 -1.675
 6156 1   97.220295  6.890183e+00 -1.675
 6157 1   97.233734  8.310120e+00 -1.675
 6158 1   98.470155  9.008449e+00 -1.675
 6159 1   95.983874  6.191854e+00 -1.675
 6160 1   94.760893  6.913461e+00 -1.675
 6161 1   94.774332  8.333397e+00 -1.675
 6162 1   96.010753  9.031727e+00 -1.675
 6163 1   93.524472  6.215131e+00 -1.675
 6164 1   92.301491  6.936738e+00 -1.675
 6165 1   92.314930  8.356675e+00 -1.675
 6166 1   93.551351  9.055004e+00 -1.675
 6167 1   91.065070  6.238409e+00 -1.675
 6168 1   89.842089  6.960016e+00 -1.675
 6169 1   89.855528  8.379953e+00 -1.675
 6170 1   91.091949  9.078282e+00 -1.675
 6171 1   88.605668  6.261687e+00 -1.675
 6172 1   87.382687  6.983294e+00 -1.675
 6173 1   87.396126  8.403230e+00 -1.675
 6174 1   88.632547  9.101560e+00 -1.675
 6175 1   86.146266  6.284964e+00 -1.675
 6176 1   84.923285  7.006571e+00 -1.675
 6177 1   84.936724  8.426508e+00 -1.675
 6178 1   86.173145  9.124837e+00 -1.675
 6179 1   83.686864  6.308242e+00 -1.675
 6180 1   82.463883  7.029849e+00 -1.675
 6181 1   82.477322  8.449785e+00 -1.675
 6182 1   83.713743  9.148115e+00 -1.675
 6183 1   81.227462  6.331520e+00 -1.675
 6184 1   80.004481  7.053127e+00 -1.675
 6185 1   80.017921  8.473063e+00 -1.675
 6186 1   81.254341  9.171392e+00 -1.675
 6187 1   78.768060  6.354797e+00 -1.675
 6188 1   77.545079  7.076404e+00 -1.675
 6189 1   77.558519  8.496341e+00 -1.675
 6190 1   78.794939  9.194670e+00 -1.675
 6191 1   76.308658  6.378075e+00 -1.675
 6192 1   75.085677  7.099682e+00 -1.675
 6193 1   75.099117  8.519618e+00 -1.675
 6194 1   76.335537  9.217948e+00 -1.675
 6195 1   73.849256  6.401353e+00 -1.675
 6196 1   72.626275  7.122960e+00 -1.675
 6197 1   72.639715  8.542896e+00 -1.675
 6198 1   73.876135  9.241225e+00 -1.675
 6199 1   71.389855  6.424630e+00 -1.675
 6200 1   70.166873  7.146237e+00 -1.675
 6201 1   70.180313  8.566174e+00 -1.675
 6202 1   71.416733  9.264503e+00 -1.675
 6203 1   68.930453  6.447908e+00 -1.675
 6204 1   67.707471  7.169515e+00 -1.675
 6205 1   67.720911  8.589451e+00 -1.675
 6206 1   68.957331  9.287781e+00 -1.675
 6207 1   66.471051  6.471186e+00 -1.675
 6208 1   65.248069  7.192793e+00 -1.675
 6209 1   65.261509  8.612729e+00 -1.675
 6210 1   66.497929  9.311058e+00 -1.675
 6211 1   64.011649  6.494463e+00 -1.675
 6212 1   62.788667  7.216070e+00 -1.675
 6213 1   62.802107  8.636007e+00 -1.675
 6214 1   64.038527  9.334336e+00 -1.675
 6215 1   61.552247  6.517741e+00 -1.675
 6216 1   60.329265  7.239348e+00 -1.675
 6217 1   60.342705  8.659284e+00 -1.675
 6218 1   61.579125  9.357614e+00 -1.675
 6219 1   59.092845  6.541019e+00 -1.675
 6220 1   57.869863  7.262626e+00 -1.675
 6221 1   57.883303  8.682562e+00 -1.675
 6222 1   59.119723  9.380891e+00 -1.675
 6223 1   56.633443  6.564296e+00 -1.675
 6224 1   55.410461  7.285903e+00 -1.675
 6225 1   55.423901  8.705840e+00 -1.675
 6226 1   56.660321  9.404169e+00 -1.675
 6227 1   54.174041  6.587574e+00 -1.675
 6228 1   52.951059  7.309181e+00 -1.675
 6229 1   52.964499  8.729117e+00 -1.675
 6230 1   54.200919  9.427447e+00 -1.675
 6231 1   51.714639  6.610851e+00 -1.675
 6232 1   50.491657  7.332458e+00 -1.675
 6233 1   50.505097  8.752395e+00 -1.675
 6234 1   51.741517  9.450724e+00 -1.675
 6235 1   49.255237  6.634129e+00 -1.675
 6236 1   48.032255  7.355736e+00 -1.675
 6237 1   48.045695  8.775673e+00 -1.675
 6238 1   49.282115  9.474002e+00 -1.675
 6239 1   46.795835  6.657407e+00 -1.675
 6240 1   45.572853  7.379014e+00 -1.675
 6241 1   45.586293  8.798950e+00 -1.675
 6242 1   46.822713  9.497280e+00 -1.675
 6243 1   44.336433  6.680684e+00 -1.675
 6244 1   43.113451  7.402291e+00 -1.675
 6245 1   43.126891  8.822228e+00 -1.675
 6246 1   44.363311  9.520557e+00 -1.675
 6247 1   41.877031  6.703962e+00 -1.675
 6248 1   40.654049  7.425569e+00 -1.675
 6249 1   40.667489  8.845505e+00 -1.675
 6250 1   41.903909  9.543835e+00 -1.675
 6251 1   39.417629  6.727240e+00 -1.675
 6252 1   38.194647  7.448847e+00 -1.675
 6253 1   38.208087  8.868783e+00 -1.675
 6254 1   39.444507  9.567112e+00 -1.675
 6255 1   36.958227  6.750517e+00 -1.675
 6256 1   35.735245  7.472124e+00 -1.675
 6257 1   35.748685  8.892061e+00 -1.675
 6258 1   36.985105  9.590390e+00 -1.675
 6259 1   34.498825  6.773795e+00 -1.675
 6260 1   33.275843  7.495402e+00 -1.675
 6261 1   33.289283  8.915338e+00 -1.675
 6262 1   34.525703  9.613668e+00 -1.675
 6263 1   32.039423  6.797073e+00 -1.675
 6264 1   30.816441  7.518680e+00 -1.675
 6265 1   30.829881  8.938616e+00 -1.675
 6266 1   32.066301  9.636945e+00 -1.675
 6267 1   29.580021  6.820350e+00 -1.675
 6268 1   28.357039  7.541957e+00 -1.675
 6269 1   28.370479  8.961894e+00 -1.675
 6270 1   29.606899  9.660223e+00 -1.675
 6271 1   27.120619  6.843628e+00 -1.675
 6272 1   25.897637  7.565235e+00 -1.675
 6273 1   25.911077  8.985171e+00 -1.675
 6274 1   27.147497  9.683501e+00 -1.675
 6275 1   24.661217  6.866906e+00 -1.675
 6276 1   23.438235  7.588513e+00 -1.675
 6277 1   23.451675  9.008449e+00 -1.675
 6278 1   24.688095  9.706778e+00 -1.675
 6279 1   22.201815  6.890183e+00 -1.675
 6280 1   20.978833  7.611790e+00 -1.675
 6281 1   20.992273  9.031727e+00 -1.675
 6282 1   22.228693  9.730056e+00 -1.675
 6283 1   19.742413  6.913461e+00 -1.675
 6284 1   18.519431  7.635068e+00 -1.675
 6285 1   18.532871  9.055004e+00 -1.675
 6286 1   19.769291  9.753334e+00 -1.675
 6287 1   17.283011  6.936738e+00 -1.675
 6288 1   16.060029  7.658346e+00 -1.675
 6289 1   16.073469  9.078282e+00 -1.675
 6290 1   17.309889  9.776611e+00 -1.675
 6291 1   14.823609  6.960016e+00 -1.675
 6292 1   13.600627  7.681623e+00 -1.675
 6293 1   13.614067  9.101560e+00 -1.675
 6294 1   14.850487  9.799889e+00 -1.675
 6295 1   12.364207  6.983294e+00 -1.675
 6296 1   11.141225  7.704901e+00 -1.675
 6297 1   11.154665  9.124837e+00 -1.675
 6298 1   12.391085  9.823167e+00 -1.675
 6299 1    9.904805  7.006571e+00 -1.675
 6300 1    8.681823  7.728178e+00 -1.675
 6301 1    8.695263  9.148115e+00 -1.675
 6302 1    9.931683  9.846444e+00 -1.675
 6303 1    7.445403  7.029849e+00 -1.675
 6304 1    6.222421  7.751456e+00 -1.675
 6305 1    6.235861  9.171392e+00 -1.675
 6306 1    7.472281  9.869722e+00 -1.675
 6307 1    4.986001  7.053127e+00 -1.675
 6308 1    3.763019  7.774734e+00 -1.675
 6309 1    3.776459  9.194670e+00 -1.675
 6310 1    5.012879  9.893000e+00 -1.675
 6311 1    2.526599  7.076404e+00 -1.675
 6312 1    1.303617  7.798011e+00 -1.675
 6313 1    1.317057  9.217948e+00 -1.675
 6314 1    2.553477  9.916277e+00 -1.675
 6315 1    0.067197  7.099682e+00 -1.675
 6316 1   -1.155785  7.821289e+00 -1.675
 6317 1   -1.142345  9.241225e+00 -1.675
 6318 1    0.094075  9.939555e+00 -1.675
 6319 1   -2.392205  7.122960e+00 -1.675
 6320 1   -3.615187  7.844567e+00 -1.675
 6321 1   -3.601747  9.264503e+00 -1.675
 6322 1   -2.365327  9.962832e+00 -1.675
 6323 1   -4.851607  7.146237e+00 -1.675
 6324 1   -6.074589  7.867844e+00 -1.675
 6325 1   -6.061149  9.287781e+00 -1.675
 6326 1   -4.824728  9.986110e+00 -1.675
 6327 1   -7.311009  7.169515e+00 -1.675
 6328 1   -8.533991  7.891122e+00 -1.675
 6329 1   -8.520551  9.311058e+00 -1.675
 6330 1   -7.284130  1.000939e+01 -1.675
 6331 1   -9.770411  7.192793e+00 -1.675
 6332 1  -10.993393  7.914400e+00 -1.675
 6333 1  -10.979953  9.334336e+00 -1.675
 6334 1   -9.743532  1.003267e+01 -1.675
 6335 1  -12.229813  7.216070e+00 -1.675
 6336 1  -13.452794  7.937677e+00 -1.675
 6337 1  -13.439355  9.357614e+00 -1.675
 6338 1  -12.202934  1.005594e+01 -1.675
 6339 1  -14.689215  7.239348e+00 -1.675
 6340 1  -15.912196  7.960955e+00 -1.675
 6341 1  -15.898757  9.380891e+00 -1.675
 6342 1  -14.662336  1.007922e+01 -1.675
 6343 1  -17.148617  7.262626e+00 -1.675
 6344 1  -18.371598  7.984233e+00 -1.675
 6345 1  -18.358159  9.404169e+00 -1.675
 6346 1  -17.121738  1.010250e+01 -1.675
 6347 1  -19.608019  7.285903e+00 -1.675
 6348 1  -20.831000  8.007510e+00 -1.675
 6349 1  -20.817561  9.427447e+00 -1.675
 6350 1  -19.581140  1.012578e+01 -1.675
 6351 1  -22.067421  7.309181e+00 -1.675
 6352 1  -23.290402  8.030788e+00 -1.675
 6353 1  -23.276963  9.450724e+00 -1.675
 6354 1  -22.040542  1.014905e+01 -1.675
 6355 1  -24.526823  7.332458e+00 -1.675
 6356 1  -25.749804  8.054065e+00 -1.675
 6357 1  -25.736365  9.474002e+00 -1.675
 6358 1  -24.499944  1.017233e+01 -1.675
 6359 1  -26.986225  7.355736e+00 -1.675
 6360 1  -28.209206  8.077343e+00 -1.675
 6361 1  -28.195767  9.497280e+00 -1.675
 6362 1  -26.959346  1.019561e+01 -1.675
 6363 1  -29.445627  7.379014e+00 -1.675
 6364 1  -30.668608  8.100621e+00 -1.675
 6365 1  -30.655169  9.520557e+00 -1.675
 6366 1  -29.418748  1.021889e+01 -1.675
 6367 1  -31.905029  7.402291e+00 -1.675
 6368 1  -33.128010  8.123898e+00 -1.675
 6369 1  -33.114571  9.543835e+00 -1.675
 6370 1  -31.878150  1.024216e+01 -1.675
 6371 1  -34.364431  7.425569e+00 -1.675
 6372 1  -35.587412  8.147176e+00 -1.675
 6373 1  -35.573973  9.567112e+00 -1.675
 6374 1  -34.337552  1.026544e+01 -1.675
 6375 1  -36.823833  7.448847e+00 -1.675
 6376 1  -38.046814  8.170454e+00 -1.675
 6377 1  -38.033375  9.590390e+00 -1.675
 6378 1  -36.796954  1.028872e+01 -1.675
 6379 1  -39.283235  7.472124e+00 -1.675
 6380 1  -40.506216  8.193731e+00 -1.675
 6381 1  -40.492777  9.613668e+00 -1.675
 6382 1  -39.256356  1.031200e+01 -1.675
 6383 1  -41.742637  7.495402e+00 -1.675
 6384 1  -42.965618  8.217009e+00 -1.675
 6385 1  -42.952179  9.636945e+00 -1.675
 6386 1  -41.715758  1.033527e+01 -1.675
 6387 1  -44.202039  7.518680e+00 -1.675
 6388 1  -45.425020  8.240287e+00 -1.675
 6389 1  -45.411581  9.660223e+00 -1.675
 6390 1  -44.175160  1.035855e+01 -1.675
 6391 1  -46.661441  7.541957e+00 -1.675
 6392 1  -47.884422  8.263564e+00 -1.675
 6393 1  -47.870983  9.683501e+00 -1.675
 6394 1  -46.634562  1.038183e+01 -1.675
 6395 1  -49.120843  7.565235e+00 -1.675
 6396 1  -50.343824  8.286842e+00 -1.675
 6397 1  -50.330385  9.706778e+00 -1.675
 6398 1  -49.093964  1.040511e+01 -1.675
 6399 1  -51.580245  7.588513e+00 -1.675
 6400 1  -52.803226  8.310120e+00 -1.675
 6401 1  -52.789787  9.730056e+00 -1.675
 6402 1  -51.553366  1.042839e+01 -1.675
 6403 1  -54.039647  7.611790e+00 -1.675
 6404 1  -55.262628  8.333397e+00 -1.675
 6405 1  -55.249189  9.753334e+00 -1.675
 6406 1  -54.012768  1.045166e+01 -1.675
 6407 1  -56.499049  7.635068e+00 -1.675
 6408 1  -57.722030  8.356675e+00 -1.675
 6409 1  -57.708591  9.776611e+00 -1.675
 6410 1  -56.472170  1.047494e+01 -1.675
 6411 1  -58.958451  7.658346e+00 -1.675
 6412 1  -60.181432  8.379953e+00 -1.675
 6413 1  -60.167993  9.799889e+00 -1.675
 6414 1  -58.931572  1.049822e+01 -1.675
 6415 1  -61.417853  7.681623e+00 -1.675
 6416 1  -62.640834  8.403230e+00 -1.675
 6417 1  -62.627395  9.823167e+00 -1.675
 6418 1  -61.390974  1.052150e+01 -1.675
 6419 1  -63.877255  7.704901e+00 -1.675
 6420 1  -65.100236  8.426508e+00 -1.675
 6421 1  -65.086797  9.846444e+00 -1.675
 6422 1  -63.850376  1.054477e+01 -1.675
 6423 1  -66.336657  7.728178e+00 -1.675
 6424 1  -67.559638  8.449785e+00 -1.675
 6425 1  -67.546199  9.869722e+00 -1.675
 6426 1  -66.309778  1.056805e+01 -1.675
 6427 1  -68.796059  7.751456e+00 -1.675
 6428 1  -70.019040  8.473063e+00 -1.675
 6429 1  -70.005601  9.893000e+00 -1.675
 6430 1  -68.769180  1.059133e+01 -1.675
 6431 1  -71.255461  7.774734e+00 -1.675
 6432 1  -72.478442  8.496341e+00 -1.675
 6433 1  -72.465003  9.916277e+00 -1.675
 6434 1  -71.228582  1.061461e+01 -1.675
 6435 1  -73.714863  7.798011e+00 -1.675
 6436 1  -74.937844  8.519618e+00 -1.675
 6437 1  -74.924405  9.939555e+00 -1.675
 6438 1  -73.687984  1.063788e+01 -1.675
 6439 1  -76.174265  7.821289e+00 -1.675
 6440 1  -77.397246  8.542896e+00 -1.675
 6441 1  -77.383807  9.962832e+00 -1.675
 6442 1  -76.147386  1.066116e+01 -1.675
 6443 1  -78.633667  7.844567e+00 -1.675
 6444 1  -79.856648  8.566174e+00 -1.675
 6445 1  -79.843209  9.986110e+00 -1.675
 6446 1  -78.606788  1.068444e+01 -1.675
 6447 1  -81.093069  7.867844e+00 -1.675
 6448 1  -82.316050  8.589451e+00 -1.675
 6449 1  -82.302611  1.000939e+01 -1.675
 6450 1  -81.066190  1.070772e+01 -1.675
 6451 1  -83.552471  7.891122e+00 -1.675
 6452 1  -84.775452  8.612729e+00 -1.675
 6453 1  -84.762013  1.003267e+01 -1.675
 6454 1  -83.525592  1.073099e+01 -1.675
 6455 1  -86.011873  7.914400e+00 -1.675
 6456 1  -87.234854  8.636007e+00 -1.675
 6457 1  -87.221415  1.005594e+01 -1.675
 6458 1  -85.984994  1.075427e+01 -1.675
 6459 1  -88.471275  7.937677e+00 -1.675
 6460 1  -89.694256  8.659284e+00 -1.675
 6461 1  -89.680817  1.007922e+01 -1.675
 6462 1  -88.444396  1.077755e+01 -1.675
 6463 1  -90.930677  7.960955e+00 -1.675
 6464 1  -92.153658  8.682562e+00 -1.675
 6465 1  -92.140219  1.010250e+01 -1.675
 6466 1  -90.903798  1.080083e+01 -1.675
 6467 1  -93.390079  7.984233e+00 -1.675
 6468 1  -94.613060  8.705840e+00 -1.675
 6469 1  -94.599621  1.012578e+01 -1.675
 6470 1  -93.363200  1.082411e+01 -1.675
 6471 1  -95.849481  8.007510e+00 -1.675
 6472 1  -97.072462  8.729117e+00 -1.675
 6473 1  -97.059023  1.014905e+01 -1.675
 6474 1  -95.822602  1.084738e+01 -1.675
 6475 1  -98.308883  8.030788e+00 -1.675
 6476 1  -99.531864  8.752395e+00 -1.675
 6477 1  -99.518425  1.017233e+01 -1.675
 6478 1  -98.282004  1.087066e+01 -1.675
 6479 1 -100.768285  8.054065e+00 -1.675
 6480 1 -101.991266  8.775673e+00 -1.675
 6481 1 -101.977827  1.019561e+01 -1.675
 6482 1 -100.741406  1.089394e+01 -1.675
 6483 1 -103.227687  8.077343e+00 -1.675
 6484 1 -104.450668  8.798950e+00 -1.675
 6485 1 -104.437229  1.021889e+01 -1.675
 6486 1 -103.200808  1.091722e+01 -1.675
 6487 1 -105.687089  8.100621e+00 -1.675
 6488 1 -106.910070  8.822228e+00 -1.675
 6489 1 -106.896631  1.024216e+01 -1.675
 6490 1 -105.660210  1.094049e+01 -1.675
 6491 1 -108.146491  8.123898e+00 -1.675
 6492 1 -109.369472  8.845505e+00 -1.675
 6493 1 -109.356033  1.026544e+01 -1.675
 6494 1 -108.119612  1.096377e+01 -1.675
 6495 1 -110.605893  8.147176e+00 -1.675
 6496 1 -111.828874  8.868783e+00 -1.675
 6497 1 -111.815435  1.028872e+01 -1.675
 6498 1 -110.579014  1.098705e+01 -1.675
 6499 1  112.017025  1.101033e+01 -1.675
 6500 1  112.030464  1.243026e+01 -1.675
 6501 1  110.780604  1.031200e+01 -1.675
 6502 1  109.557623  1.103360e+01 -1.675
 6503 1  109.571062  1.245354e+01 -1.675
 6504 1  110.807483  1.315187e+01 -1.675
 6505 1  108.321202  1.033527e+01 -1.675
 6506 1  107.098221  1.105688e+01 -1.675
 6507 1  107.111660  1.247682e+01 -1.675
 6508 1  108.348081  1.317515e+01 -1.675
 6509 1  105.861800  1.035855e+01 -1.675
 6510 1  104.638819  1.108016e+01 -1.675
 6511 1  104.652258  1.250010e+01 -1.675
 6512 1  105.888679  1.319843e+01 -1.675
 6513 1  103.402398  1.038183e+01 -1.675
 6514 1  102.179417  1.110344e+01 -1.675
 6515 1  102.192856  1.252337e+01 -1.675
 6516 1  103.429277  1.322170e+01 -1.675
 6517 1  100.942996  1.040511e+01 -1.675
 6518 1   99.720015  1.112671e+01 -1.675
 6519 1   99.733454  1.254665e+01 -1.675
 6520 1  100.969875  1.324498e+01 -1.675
 6521 1   98.483594  1.042839e+01 -1.675
 6522 1   97.260613  1.114999e+01 -1.675
 6523 1   97.274053  1.256993e+01 -1.675
 6524 1   98.510473  1.326826e+01 -1.675
 6525 1   96.024192  1.045166e+01 -1.675
 6526 1   94.801211  1.117327e+01 -1.675
 6527 1   94.814651  1.259321e+01 -1.675
 6528 1   96.051071  1.329154e+01 -1.675
 6529 1   93.564790  1.047494e+01 -1.675
 6530 1   92.341809  1.119655e+01 -1.675
 6531 1   92.355249  1.261648e+01 -1.675
 6532 1   93.591669  1.331481e+01 -1.675
 6533 1   91.105388  1.049822e+01 -1.675
 6534 1   89.882407  1.121983e+01 -1.675
 6535 1   89.895847  1.263976e+01 -1.675
 6536 1   91.132267  1.333809e+01 -1.675
 6537 1   88.645987  1.052150e+01 -1.675
 6538 1   87.423005  1.124310e+01 -1.675
 6539 1   87.436445  1.266304e+01 -1.675
 6540 1   88.672865  1.336137e+01 -1.675
 6541 1   86.186585  1.054477e+01 -1.675
 6542 1   84.963603  1.126638e+01 -1.675
 6543 1   84.977043  1.268632e+01 -1.675
 6544 1   86.213463  1.338465e+01 -1.675
 6545 1   83.727183  1.056805e+01 -1.675
 6546 1   82.504201  1.128966e+01 -1.675
 6547 1   82.517641  1.270959e+01 -1.675
 6548 1   83.754061  1.340792e+01 -1.675
 6549 1   81.267781  1.059133e+01 -1.675
 6550 1   80.044799  1.131294e+01 -1.675
 6551 1   80.058239  1.273287e+01 -1.675
 6552 1   81.294659  1.343120e+01 -1.675
 6553 1   78.808379  1.061461e+01 -1.675
 6554 1   77.585397  1.133621e+01 -1.675
 6555 1   77.598837  1.275615e+01 -1.675
 6556 1   78.835257  1.345448e+01 -1.675
 6557 1   76.348977  1.063788e+01 -1.675
 6558 1   75.125995  1.135949e+01 -1.675
 6559 1   75.139435  1.277943e+01 -1.675
 6560 1   76.375855  1.347776e+01 -1.675
 6561 1   73.889575  1.066116e+01 -1.675
 6562 1   72.666593  1.138277e+01 -1.675
 6563 1   72.680033  1.280271e+01 -1.675
 6564 1   73.916453  1.350103e+01 -1.675
 6565 1   71.430173  1.068444e+01 -1.675
 6566 1   70.207191  1.140605e+01 -1.675
 6567 1   70.220631  1.282598e+01 -1.675
 6568 1   71.457051  1.352431e+01 -1.675
 6569 1   68.970771  1.070772e+01 -1.675
 6570 1   67.747789  1.142932e+01 -1.675
 6571 1   67.761229  1.284926e+01 -1.675
 6572 1   68.997649  1.354759e+01 -1.675
 6573 1   66.511369  1.073099e+01 -1.675
 6574 1   65.288387  1.145260e+01 -1.675
 6575 1   65.301827  1.287254e+01 -1.675
 6576 1   66.538247  1.357087e+01 -1.675
 6577 1   64.051967  1.075427e+01 -1.675
 6578 1   62.828985  1.147588e+01 -1.675
 6579 1   62.842425  1.289582e+01 -1.675
 6580 1   64.078845  1.359415e+01 -1.675
 6581 1   61.592565  1.077755e+01 -1.675
 6582 1   60.369583  1.149916e+01 -1.675
 6583 1   60.383023  1.291909e+01 -1.675
 6584 1   61.619443  1.361742e+01 -1.675
 6585 1   59.133163  1.080083e+01 -1.675
 6586 1   57.910181  1.152243e+01 -1.675
 6587 1   57.923621  1.294237e+01 -1.675
 6588 1   59.160041  1.364070e+01 -1.675
 6589 1   56.673761  1.082411e+01 -1.675
 6590 1   55.450779  1.154571e+01 -1.675
 6591 1   55.464219  1.296565e+01 -1.675
 6592 1   56.700639  1.366398e+01 -1.675
 6593 1   54.214359  1.084738e+01 -1.675
 6594 1   52.991377  1.156899e+01 -1.675
 6595 1   53.004817  1.298893e+01 -1.675
 6596 1   54.241237  1.368726e+01 -1.675
 6597 1   51.754957  1.087066e+01 -1.675
 6598 1   50.531975  1.159227e+01 -1.675
 6599 1   50.545415  1.301220e+01 -1.675
 6600 1   51.781835  1.371053e+01 -1.675
 6601 1   49.295555  1.089394e+01 -1.675
 6602 1   48.072573  1.161555e+01 -1.675
 6603 1   48.086013  1.303548e+01 -1.675
 6604 1   49.322433  1.373381e+01 -1.675
 6605 1   46.836153  1.091722e+01 -1.675
 6606 1   45.613171  1.163882e+01 -1.675
 6607 1   45.626611  1.305876e+01 -1.675
 6608 1   46.863031  1.375709e+01 -1.675
 6609 1   44.376751  1.094049e+01 -1.675
 6610 1   43.153769  1.166210e+01 -1.675
 6611 1   43.167209  1.308204e+01 -1.675
 6612 1   44.403629  1.378037e+01 -1.675
 6613 1   41.917349  1.096377e+01 -1.675
 6614 1   40.694367  1.168538e+01 -1.675
 6615 1   40.707807  1.310531e+01 -1.675
 6616 1   41.944227  1.380364e+01 -1.675
 6617 1   39.457947  1.098705e+01 -1.675
 6618 1   38.234965  1.170866e+01 -1.675
 6619 1   38.248405  1.312859e+01 -1.675
 6620 1   39.484825  1.382692e+01 -1.675
 6621 1   36.998545  1.101033e+01 -1.675
 6622 1   35.775563  1.173193e+01 -1.675
 6623 1   35.789003  1.315187e+01 -1.675
 6624 1   37.025423  1.385020e+01 -1.675
 6625 1   34.539143  1.103360e+01 -1.675
 6626 1   33.316161  1.175521e+01 -1.675
 6627 1   33.329601  1.317515e+01 -1.675
 6628 1   34.566021  1.387348e+01 -1.675
 6629 1   32.079741  1.105688e+01 -1.675
 6630 1   30.856759  1.177849e+01 -1.675
 6631 1   30.870199  1.319843e+01 -1.675
 6632 1   32.106619  1.389675e+01 -1.675
 6633 1   29.620339  1.108016e+01 -1.675
 6634 1   28.397357  1.180177e+01 -1.675
 6635 1   28.410797  1.322170e+01 -1.675
 6636 1   29.647217  1.392003e+01 -1.675
 6637 1   27.160937  1.110344e+01 -1.675
 6638 1   25.937955  1.182504e+01 -1.675
 6639 1   25.951395  1.324498e+01 -1.675
 6640 1   27.187815  1.394331e+01 -1.675
 6641 1   24.701535  1.112671e+01 -1.675
 6642 1   23.478553  1.184832e+01 -1.675
 6643 1   23.491993  1.326826e+01 -1.675
 6644 1   24.728413  1.396659e+01 -1.675
 6645 1   22.242133  1.114999e+01 -1.675
 6646 1   21.019151  1.187160e+01 -1.675
 6647 1   21.032591  1.329154e+01 -1.675
 6648 1   22.269011  1.398987e+01 -1.675
 6649 1   19.782731  1.117327e+01 -1.675
 6650 1   18.559749  1.189488e+01 -1.675
 6651 1   18.573189  1.331481e+01 -1.675
 6652 1   19.809609  1.401314e+01 -1.675
 6653 1   17.323329  1.119655e+01 -1.675
 6654 1   16.100347  1.191815e+01 -1.675
 6655 1   16.113787  1.333809e+01 -1.675
 6656 1   17.350207  1.403642e+01 -1.675
 6657 1   14.863927  1.121983e+01 -1.675
 6658 1   13.640945  1.194143e+01 -1.675
 6659 1   13.654385  1.336137e+01 -1.675
 6660 1   14.890805  1.405970e+01 -1.675
 6661 1   12.404525  1.124310e+01 -1.675
 6662 1   11.181543  1.196471e+01 -1.675
 6663 1   11.194983  1.338465e+01 -1.675
 6664 1   12.431404  1.408298e+01 -1.675
 6665 1    9.945123  1.126638e+01 -1.675
 6666 1    8.722141  1.198799e+01 -1.675
 6667 1    8.735581  1.340792e+01 -1.675
 6668 1    9.972002  1.410625e+01 -1.675
 6669 1    7.485721  1.128966e+01 -1.675
 6670 1    6.262739  1.201127e+01 -1.675
 6671 1    6.276179  1.343120e+01 -1.675
 6672 1    7.512600  1.412953e+01 -1.675
 6673 1    5.026319  1.131294e+01 -1.675
 6674 1    3.803338  1.203454e+01 -1.675
 6675 1    3.816777  1.345448e+01 -1.675
 6676 1    5.053198  1.415281e+01 -1.675
 6677 1    2.566917  1.133621e+01 -1.675
 6678 1    1.343936  1.205782e+01 -1.675
 6679 1    1.357375  1.347776e+01 -1.675
 6680 1    2.593796  1.417609e+01 -1.675
 6681 1    0.107515  1.135949e+01 -1.675
 6682 1   -1.115466  1.208110e+01 -1.675
 6683 1   -1.102027  1.350103e+01 -1.675
 6684 1    0.134394  1.419936e+01 -1.675
 6685 1   -2.351887  1.138277e+01 -1.675
 6686 1   -3.574868  1.210438e+01 -1.675
 6687 1   -3.561429  1.352431e+01 -1.675
 6688 1   -2.325008  1.422264e+01 -1.675
 6689 1   -4.811289  1.140605e+01 -1.675
 6690 1   -6.034270  1.212765e+01 -1.675
 6691 1   -6.020831  1.354759e+01 -1.675
 6692 1   -4.784410  1.424592e+01 -1.675
 6693 1   -7.270691  1.142932e+01 -1.675
 6694 1   -8.493672  1.215093e+01 -1.675
 6695 1   -8.480233  1.357087e+01 -1.675
 6696 1   -7.243812  1.426920e+01 -1.675
 6697 1   -9.730093  1.145260e+01 -1.675
 6698 1  -10.953074  1.217421e+01 -1.675
 6699 1  -10.939635  1.359415e+01 -1.675
 6700 1   -9.703214  1.429247e+01 -1.675
 6701 1  -12.189495  1.147588e+01 -1.675
 6702 1  -13.412476  1.219749e+01 -1.675
 6703 1  -13.399037  1.361742e+01 -1.675
 6704 1  -12.162616  1.431575e+01 -1.675
 6705 1  -14.648897  1.149916e+01 -1.675
 6706 1  -15.871878  1.222076e+01 -1.675
 6707 1  -15.858439  1.364070e+01 -1.675
 6708 1  -14.622018  1.433903e+01 -1.675
 6709 1  -17.108299  1.152243e+01 -1.675
 6710 1  -18.331280  1.224404e+01 -1.675
 6711 1  -18.317841  1.366398e+01 -1.675
 6712 1  -17.081420  1.436231e+01 -1.675
 6713 1  -19.567701  1.154571e+01 -1.675
 6714 1  -20.790682  1.226732e+01 -1.675
 6715 1  -20.777243  1.368726e+01 -1.675
 6716 1  -19.540822  1.438559e+01 -1.675
 6717 1  -22.027103  1.156899e+01 -1.675
 6718 1  -23.250084  1.229060e+01 -1.675
 6719 1  -23.236645  1.371053e+01 -1.675
 6720 1  -22.000224  1.440886e+01 -1.675
 6721 1  -24.486505  1.159227e+01 -1.675
 6722 1  -25.709486  1.231387e+01 -1.675
 6723 1  -25.696047  1.373381e+01 -1.675
 6724 1  -24.459626  1.443214e+01 -1.675
 6725 1  -26.945907  1.161555e+01 -1.675
 6726 1  -28.168888  1.233715e+01 -1.675
 6727 1  -28.155449  1.375709e+01 -1.675
 6728 1  -26.919028  1.445542e+01 -1.675
 6729 1  -29.405309  1.163882e+01 -1.675
 6730 1  -30.628290  1.236043e+01 -1.675
 6731 1  -30.614851  1.378037e+01 -1.675
 6732 1  -29.378430  1.447870e+01 -1.675
 6733 1  -31.864711  1.166210e+01 -1.675
 6734 1  -33.087692  1.238371e+01 -1.675
 6735 1  -33.074253  1.380364e+01 -1.675
 6736 1  -31.837832  1.450197e+01 -1.675
 6737 1  -34.324113  1.168538e+01 -1.675
 6738 1  -35.547094  1.240699e+01 -1.675
 6739 1  -35.533655  1.382692e+01 -1.675
 6740 1  -34.297234  1.452525e+01 -1.675
 6741 1  -36.783515  1.170866e+01 -1.675
 6742 1  -38.006496  1.243026e+01 -1.675
 6743 1  -37.993057  1.385020e+01 -1.675
 6744 1  -36.756636  1.454853e+01 -1.675
 6745 1  -39.242917  1.173193e+01 -1.675
 6746 1  -40.465898  1.245354e+01 -1.675
 6747 1  -40.452459  1.387348e+01 -1.675
 6748 1  -39.216038  1.457181e+01 -1.675
 6749 1  -41.702319  1.175521e+01 -1.675
 6750 1  -42.925300  1.247682e+01 -1.675
 6751 1  -42.911861  1.389675e+01 -1.675
 6752 1  -41.675440  1.459508e+01 -1.675
 6753 1  -44.161721  1.177849e+01 -1.675
 6754 1  -45.384702  1.250010e+01 -1.675
 6755 1  -45.371263  1.392003e+01 -1.675
 6756 1  -44.134842  1.461836e+01 -1.675
 6757 1  -46.621123  1.180177e+01 -1.675
 6758 1  -47.844104  1.252337e+01 -1.675
 6759 1  -47.830665  1.394331e+01 -1.675
 6760 1  -46.594244  1.464164e+01 -1.675
 6761 1  -49.080525  1.182504e+01 -1.675
 6762 1  -50.303506  1.254665e+01 -1.675
 6763 1  -50.290067  1.396659e+01 -1.675
 6764 1  -49.053646  1.466492e+01 -1.675
 6765 1  -51.539927  1.184832e+01 -1.675
 6766 1  -52.762908  1.256993e+01 -1.675
 6767 1  -52.749469  1.398987e+01 -1.675
 6768 1  -51.513048  1.468819e+01 -1.675
 6769 1  -53.999329  1.187160e+01 -1.675
 6770 1  -55.222310  1.259321e+01 -1.675
 6771 1  -55.208871  1.401314e+01 -1.675
 6772 1  -53.972450  1.471147e+01 -1.675
 6773 1  -56.458731  1.189488e+01 -1.675
 6774 1  -57.681712  1.261648e+01 -1.675
 6775 1  -57.668273  1.403642e+01 -1.675
 6776 1  -56.431852  1.473475e+01 -1.675
 6777 1  -58.918133  1.191815e+01 -1.675
 6778 1  -60.141114  1.263976e+01 -1.675
 6779 1  -60.127675  1.405970e+01 -1.675
 6780 1  -58.891254  1.475803e+01 -1.675
 6781 1  -61.377535  1.194143e+01 -1.675
 6782 1  -62.600516  1.266304e+01 -1.675
 6783 1  -62.587077  1.408298e+01 -1.675
 6784 1  -61.350656  1.478131e+01 -1.675
 6785 1  -63.836937  1.196471e+01 -1.675
 6786 1  -65.059918  1.268632e+01 -1.675
 6787 1  -65.046479  1.410625e+01 -1.675
 6788 1  -63.810058  1.480458e+01 -1.675
 6789 1  -66.296339  1.198799e+01 -1.675
 6790 1  -67.519320  1.270959e+01 -1.675
 6791 1  -67.505881  1.412953e+01 -1.675
 6792 1  -66.269460  1.482786e+01 -1.675
 6793 1  -68.755741  1.201127e+01 -1.675
 6794 1  -69.978722  1.273287e+01 -1.675
 6795 1  -69.965283  1.415281e+01 -1.675
 6796 1  -68.728862  1.485114e+01 -1.675
 6797 1  -71.215143  1.203454e+01 -1.675
 6798 1  -72.438124  1.275615e+01 -1.675
 6799 1  -72.424685  1.417609e+01 -1.675
 6800 1  -71.188264  1.487442e+01 -1.675
 6801 1  -73.674545  1.205782e+01 -1.675
 6802 1  -74.897526  1.277943e+01 -1.675
 6803 1  -74.884087  1.419936e+01 -1.675
 6804 1  -73.647666  1.489769e+01 -1.675
 6805 1  -76.133947  1.208110e+01 -1.675
 6806 1  -77.356928  1.280271e+01 -1.675
 6807 1  -77.343489  1.422264e+01 -1.675
 6808 1  -76.107068  1.492097e+01 -1.675
 6809 1  -78.593349  1.210438e+01 -1.675
 6810 1  -79.816330  1.282598e+01 -1.675
 6811 1  -79.802891  1.424592e+01 -1.675
 6812 1  -78.566470  1.494425e+01 -1.675
 6813 1  -81.052751  1.212765e+01 -1.675
 6814 1  -82.275732  1.284926e+01 -1.675
 6815 1  -82.262293  1.426920e+01 -1.675
 6816 1  -81.025872  1.496753e+01 -1.675
 6817 1  -83.512153  1.215093e+01 -1.675
 6818 1  -84.735134  1.287254e+01 -1.675
 6819 1  -84.721695  1.429247e+01 -1.675
 6820 1  -83.485274  1.499080e+01 -1.675
 6821 1  -85.971555  1.217421e+01 -1.675
 6822 1  -87.194536  1.289582e+01 -1.675
 6823 1  -87.181097  1.431575e+01 -1.675
 6824 1  -85.944676  1.501408e+01 -1.675
 6825 1  -88.430957  1.219749e+01 -1.675
 6826 1  -89.653938  1.291909e+01 -1.675
 6827 1  -89.640499  1.433903e+01 -1.675
 6828 1  -88.404078  1.503736e+01 -1.675
 6829 1  -90.890359  1.222076e+01 -1.675
 6830 1  -92.113340  1.294237e+01 -1.675
 6831 1  -92.099901  1.436231e+01 -1.675
 6832 1  -90.863480  1.506064e+01 -1.675
 6833 1  -93.349761  1.224404e+01 -1.675
 6834 1  -94.572742  1.296565e+01 -1.675
 6835 1  -94.559303  1.438559e+01 -1.675
 6836 1  -93.322882  1.508391e+01 -1.675
 6837 1  -95.809163  1.226732e+01 -1.675
 6838 1  -97.032144  1.298893e+01 -1.675
 6839 1  -97.018705  1.440886e+01 -1.675
 6840 1  -95.782284  1.510719e+01 -1.675
 6841 1  -98.268565  1.229060e+01 -1.675
 6842 1  -99.491546  1.301220e+01 -1.675
 6843 1  -99.478107  1.443214e+01 -1.675
 6844 1  -98.241686  1.513047e+01 -1.675
 6845 1 -100.727967  1.231387e+01 -1.675
 6846 1 -101.950948  1.303548e+01 -1.675
 6847 1 -101.937509  1.445542e+01 -1.675
 6848 1 -100.701088  1.515375e+01 -1.675
 6849 1 -103.187369  1.233715e+01 -1.675
 6850 1 -104.410350  1.305876e+01 -1.675
 6851 1 -104.396911  1.447870e+01 -1.675
 6852 1 -103.160490  1.517703e+01 -1.675
 6853 1 -105.646771  1.236043e+01 -1.675
 6854 1 -106.869752  1.308204e+01 -1.675
 6855 1 -106.856313  1.450197e+01 -1.675
 6856 1 -105.619892  1.520030e+01 -1.675
 6857 1 -108.106173  1.238371e+01 -1.675
 6858 1 -109.329154  1.310531e+01 -1.675
 6859 1 -109.315715  1.452525e+01 -1.675
 6860 1 -108.079294  1.522358e+01 -1.675
 6861 1 -110.565575  1.240699e+01 -1.675
 6862 1 -111.788556  1.312859e+01 -1.675
 6863 1 -111.775117  1.454853e+01 -1.675
 6864 1 -110.538696  1.524686e+01 -1.675
 6865 1  112.057343  1.527014e+01 -1.675
 6866 1  112.070783  1.669007e+01 -1.675
 6867 1  110.820922  1.457181e+01 -1.675
 6868 1  109.597941  1.529341e+01 -1.675
 6869 1  109.611381  1.671335e+01 -1.675
 6870 1  110.847801  1.741168e+01 -1.675
 6871 1  108.361520  1.459508e+01 -1.675
 6872 1  107.138539  1.531669e+01 -1.675
 6873 1  107.151979  1.673663e+01 -1.675
 6874 1  108.388399  1.743496e+01 -1.675
 6875 1  105.902119  1.461836e+01 -1.675
 6876 1  104.679137  1.533997e+01 -1.675
 6877 1  104.692577  1.675991e+01 -1.675
 6878 1  105.928997  1.745823e+01 -1.675
 6879 1  103.442717  1.464164e+01 -1.675
 6880 1  102.219735  1.536325e+01 -1.675
 6881 1  102.233175  1.678318e+01 -1.675
 6882 1  103.469595  1.748151e+01 -1.675
 6883 1  100.983315  1.466492e+01 -1.675
 6884 1   99.760333  1.538652e+01 -1.675
 6885 1   99.773773  1.680646e+01 -1.675
 6886 1  101.010193  1.750479e+01 -1.675
 6887 1   98.523913  1.468819e+01 -1.675
 6888 1   97.300931  1.540980e+01 -1.675
 6889 1   97.314371  1.682974e+01 -1.675
 6890 1   98.550791  1.752807e+01 -1.675
 6891 1   96.064511  1.471147e+01 -1.675
 6892 1   94.841529  1.543308e+01 -1.675
 6893 1   94.854969  1.685302e+01 -1.675
 6894 1   96.091389  1.755135e+01 -1.675
 6895 1   93.605109  1.473475e+01 -1.675
 6896 1   92.382127  1.545636e+01 -1.675
 6897 1   92.395567  1.687629e+01 -1.675
 6898 1   93.631987  1.757462e+01 -1.675
 6899 1   91.145707  1.475803e+01 -1.675
 6900 1   89.922725  1.547963e+01 -1.675
 6901 1   89.936165  1.689957e+01 -1.675
 6902 1   91.172585  1.759790e+01 -1.675
 6903 1   88.686305  1.478131e+01 -1.675
 6904 1   87.463323  1.550291e+01 -1.675
 6905 1   87.476763  1.692285e+01 -1.675
 6906 1   88.713183  1.762118e+01 -1.675
 6907 1   86.226903  1.480458e+01 -1.675
 6908 1   85.003921  1.552619e+01 -1.675
 6909 1   85.017361  1.694613e+01 -1.675
 6910 1   86.253781  1.764446e+01 -1.675
 6911 1   83.767501  1.482786e+01 -1.675
 6912 1   82.544519  1.554947e+01 -1.675
 6913 1   82.557959  1.696940e+01 -1.675
 6914 1   83.794379  1.766773e+01 -1.675
 6915 1   81.308099  1.485114e+01 -1.675
 6916 1   80.085117  1.557275e+01 -1.675
 6917 1   80.098557  1.699268e+01 -1.675
 6918 1   81.334977  1.769101e+01 -1.675
 6919 1   78.848697  1.487442e+01 -1.675
 6920 1   77.625715  1.559602e+01 -1.675
 6921 1   77.639155  1.701596e+01 -1.675
 6922 1   78.875575  1.771429e+01 -1.675
 6923 1   76.389295  1.489769e+01 -1.675
 6924 1   75.166313  1.561930e+01 -1.675
 6925 1   75.179753  1.703924e+01 -1.675
 6926 1   76.416173  1.773757e+01 -1.675
 6927 1   73.929893  1.492097e+01 -1.675
 6928 1   72.706911  1.564258e+01 -1.675
 6929 1   72.720351  1.706251e+01 -1.675
 6930 1   73.956771  1.776084e+01 -1.675
 6931 1   71.470491  1.494425e+01 -1.675
 6932 1   70.247509  1.566586e+01 -1.675
 6933 1   70.260949  1.708579e+01 -1.675
 6934 1   71.497369  1.778412e+01 -1.675
 6935 1   69.011089  1.496753e+01 -1.675
 6936 1   67.788107  1.568913e+01 -1.675
 6937 1   67.801547  1.710907e+01 -1.675
 6938 1   69.037967  1.780740e+01 -1.675
 6939 1   66.551687  1.499080e+01 -1.675
 6940 1   65.328705  1.571241e+01 -1.675
 6941 1   65.342145  1.713235e+01 -1.675
 6942 1   66.578565  1.783068e+01 -1.675
 6943 1   64.092285  1.501408e+01 -1.675
 6944 1   62.869303  1.573569e+01 -1.675
 6945 1   62.882743  1.715563e+01 -1.675
 6946 1   64.119163  1.785395e+01 -1.675
 6947 1   61.632883  1.503736e+01 -1.675
 6948 1   60.409901  1.575897e+01 -1.675
 6949 1   60.423341  1.717890e+01 -1.675
 6950 1   61.659761  1.787723e+01 -1.675
 6951 1   59.173481  1.506064e+01 -1.675
 6952 1   57.950499  1.578224e+01 -1.675
 6953 1   57.963939  1.720218e+01 -1.675
 6954 1   59.200359  1.790051e+01 -1.675
 6955 1   56.714079  1.508391e+01 -1.675
 6956 1   55.491097  1.580552e+01 -1.675
 6957 1   55.504537  1.722546e+01 -1.675
 6958 1   56.740957  1.792379e+01 -1.675
 6959 1   54.254677  1.510719e+01 -1.675
 6960 1   53.031695  1.582880e+01 -1.675
 6961 1   53.045135  1.724874e+01 -1.675
 6962 1   54.281555  1.794707e+01 -1.675
 6963 1   51.795275  1.513047e+01 -1.675
 6964 1   50.572293  1.585208e+01 -1.675
 6965 1   50.585733  1.727201e+01 -1.675
 6966 1   51.822153  1.797034e+01 -1.675
 6967 1   49.335873  1.515375e+01 -1.675
 6968 1   48.112891  1.587535e+01 -1.675
 6969 1   48.126331  1.729529e+01 -1.675
 6970 1   49.362751  1.799362e+01 -1.675
 6971 1   46.876471  1.517703e+01 -1.675
 6972 1   45.653489  1.589863e+01 -1.675
 6973 1   45.666929  1.731857e+01 -1.675
 6974 1   46.903349  1.801690e+01 -1.675
 6975 1   44.417069  1.520030e+01 -1.675
 6976 1   43.194087  1.592191e+01 -1.675
 6977 1   43.207527  1.734185e+01 -1.675
 6978 1   44.443947  1.804018e+01 -1.675
 6979 1   41.957667  1.522358e+01 -1.675
 6980 1   40.734685  1.594519e+01 -1.675
 6981 1   40.748125  1.736512e+01 -1.675
 6982 1   41.984545  1.806345e+01 -1.675
 6983 1   39.498265  1.524686e+01 -1.675
 6984 1   38.275283  1.596847e+01 -1.675
 6985 1   38.288723  1.738840e+01 -1.675
 6986 1   39.525143  1.808673e+01 -1.675
 6987 1   37.038863  1.527014e+01 -1.675
 6988 1   35.815881  1.599174e+01 -1.675
 6989 1   35.829321  1.741168e+01 -1.675
 6990 1   37.065741  1.811001e+01 -1.675
 6991 1   34.579461  1.529341e+01 -1.675
 6992 1   33.356479  1.601502e+01 -1.675
 6993 1   33.369919  1.743496e+01 -1.675
 6994 1   34.606339  1.813329e+01 -1.675
 6995 1   32.120059  1.531669e+01 -1.675
 6996 1   30.897077  1.603830e+01 -1.675
 6997 1   30.910517  1.745823e+01 -1.675
 6998 1   32.146937  1.815656e+01 -1.675
 6999 1   29.660657  1.533997e+01 -1.675
 7000 1   28.437675  1.606158e+01 -1.675
 7001 1   28.451115  1.748151e+01 -1.675
 7002 1   29.687536  1.817984e+01 -1.675
 7003 1   27.201255  1.536325e+01 -1.675
 7004 1   25.978273  1.608485e+01 -1.675
 7005 1   25.991713  1.750479e+01 -1.675
 7006 1   27.228134  1.820312e+01 -1.675
 7007 1   24.741853  1.538652e+01 -1.675
 7008 1   23.518871  1.610813e+01 -1.675
 7009 1   23.532311  1.752807e+01 -1.675
 7010 1   24.768732  1.822640e+01 -1.675
 7011 1   22.282451  1.540980e+01 -1.675
 7012 1   21.059470  1.613141e+01 -1.675
 7013 1   21.072909  1.755135e+01 -1.675
 7014 1   22.309330  1.824967e+01 -1.675
 7015 1   19.823049  1.543308e+01 -1.675
 7016 1   18.600068  1.615469e+01 -1.675
 7017 1   18.613507  1.757462e+01 -1.675
 7018 1   19.849928  1.827295e+01 -1.675
 7019 1   17.363647  1.545636e+01 -1.675
 7020 1   16.140666  1.617796e+01 -1.675
 7021 1   16.154105  1.759790e+01 -1.675
 7022 1   17.390526  1.829623e+01 -1.675
 7023 1   14.904245  1.547963e+01 -1.675
 7024 1   13.681264  1.620124e+01 -1.675
 7025 1   13.694703  1.762118e+01 -1.675
 7026 1   14.931124  1.831951e+01 -1.675
 7027 1   12.444843  1.550291e+01 -1.675
 7028 1   11.221862  1.622452e+01 -1.675
 7029 1   11.235301  1.764446e+01 -1.675
 7030 1   12.471722  1.834278e+01 -1.675
 7031 1    9.985441  1.552619e+01 -1.675
 7032 1    8.762460  1.624780e+01 -1.675
 7033 1    8.775899  1.766773e+01 -1.675
 7034 1   10.012320  1.836606e+01 -1.675
 7035 1    7.526039  1.554947e+01 -1.675
 7036 1    6.303058  1.627107e+01 -1.675
 7037 1    6.316497  1.769101e+01 -1.675
 7038 1    7.552918  1.838934e+01 -1.675
 7039 1    5.066637  1.557275e+01 -1.675
 7040 1    3.843656  1.629435e+01 -1.675
 7041 1    3.857095  1.771429e+01 -1.675
 7042 1    5.093516  1.841262e+01 -1.675
 7043 1    2.607235  1.559602e+01 -1.675
 7044 1    1.384254  1.631763e+01 -1.675
 7045 1    1.397693  1.773757e+01 -1.675
 7046 1    2.634114  1.843590e+01 -1.675
 7047 1    0.147833  1.561930e+01 -1.675
 7048 1   -1.075148  1.634091e+01 -1.675
 7049 1   -1.061709  1.776084e+01 -1.675
 7050 1    0.174712  1.845917e+01 -1.675
 7051 1   -2.311569  1.564258e+01 -1.675
 7052 1   -3.534550  1.636419e+01 -1.675
 7053 1   -3.521111  1.778412e+01 -1.675
 7054 1   -2.284690  1.848245e+01 -1.675
 7055 1   -4.770971  1.566586e+01 -1.675
 7056 1   -5.993952  1.638746e+01 -1.675
 7057 1   -5.980513  1.780740e+01 -1.675
 7058 1   -4.744092  1.850573e+01 -1.675
 7059 1   -7.230373  1.568913e+01 -1.675
 7060 1   -8.453354  1.641074e+01 -1.675
 7061 1   -8.439915  1.783068e+01 -1.675
 7062 1   -7.203494  1.852901e+01 -1.675
 7063 1   -9.689775  1.571241e+01 -1.675
 7064 1  -10.912756  1.643402e+01 -1.675
 7065 1  -10.899317  1.785395e+01 -1.675
 7066 1   -9.662896  1.855228e+01 -1.675
 7067 1  -12.149177  1.573569e+01 -1.675
 7068 1  -13.372158  1.645730e+01 -1.675
 7069 1  -13.358719  1.787723e+01 -1.675
 7070 1  -12.122298  1.857556e+01 -1.675
 7071 1  -14.608579  1.575897e+01 -1.675
 7072 1  -15.831560  1.648057e+01 -1.675
 7073 1  -15.818121  1.790051e+01 -1.675
 7074 1  -14.581700  1.859884e+01 -1.675
 7075 1  -17.067981  1.578224e+01 -1.675
 7076 1  -18.290962  1.650385e+01 -1.675
 7077 1  -18.277523  1.792379e+01 -1.675
 7078 1  -17.041102  1.862212e+01 -1.675
 7079 1  -19.527383  1.580552e+01 -1.675
 7080 1  -20.750364  1.652713e+01 -1.675
 7081 1  -20.736925  1.794707e+01 -1.675
 7082 1  -19.500504  1.864539e+01 -1.675
 7083 1  -21.986785  1.582880e+01 -1.675
 7084 1  -23.209766  1.655041e+01 -1.675
 7085 1  -23.196327  1.797034e+01 -1.675
 7086 1  -21.959906  1.866867e+01 -1.675
 7087 1  -24.446187  1.585208e+01 -1.675
 7088 1  -25.669168  1.657368e+01 -1.675
 7089 1  -25.655729  1.799362e+01 -1.675
 7090 1  -24.419308  1.869195e+01 -1.675
 7091 1  -26.905589  1.587535e+01 -1.675
 7092 1  -28.128570  1.659696e+01 -1.675
 7093 1  -28.115131  1.801690e+01 -1.675
 7094 1  -26.878710  1.871523e+01 -1.675
 7095 1  -29.364991  1.589863e+01 -1.675
 7096 1  -30.587972  1.662024e+01 -1.675
 7097 1  -30.574533  1.804018e+01 -1.675
 7098 1  -29.338112  1.873850e+01 -1.675
 7099 1  -31.824393  1.592191e+01 -1.675
 7100 1  -33.047374  1.664352e+01 -1.675
 7101 1  -33.033935  1.806345e+01 -1.675
 7102 1  -31.797514  1.876178e+01 -1.675
 7103 1  -34.283795  1.594519e+01 -1.675
 7104 1  -35.506776  1.666679e+01 -1.675
 7105 1  -35.493337  1.808673e+01 -1.675
 7106 1  -34.256916  1.878506e+01 -1.675
 7107 1  -36.743197  1.596847e+01 -1.675
 7108 1  -37.966178  1.669007e+01 -1.675
 7109 1  -37.952739  1.811001e+01 -1.675
 7110 1  -36.716318  1.880834e+01 -1.675
 7111 1  -39.202599  1.599174e+01 -1.675
 7112 1  -40.425580  1.671335e+01 -1.675
 7113 1  -40.412141  1.813329e+01 -1.675
 7114 1  -39.175720  1.883162e+01 -1.675
 7115 1  -41.662001  1.601502e+01 -1.675
 7116 1  -42.884982  1.673663e+01 -1.675
 7117 1  -42.871543  1.815656e+01 -1.675
 7118 1  -41.635122  1.885489e+01 -1.675
 7119 1  -44.121403  1.603830e+01 -1.675
 7120 1  -45.344384  1.675991e+01 -1.675
 7121 1  -45.330945  1.817984e+01 -1.675
 7122 1  -44.094524  1.887817e+01 -1.675
 7123 1  -46.580805  1.606158e+01 -1.675
 7124 1  -47.803786  1.678318e+01 -1.675
 7125 1  -47.790347  1.820312e+01 -1.675
 7126 1  -46.553926  1.890145e+01 -1.675
 7127 1  -49.040207  1.608485e+01 -1.675
 7128 1  -50.263188  1.680646e+01 -1.675
 7129 1  -50.249749  1.822640e+01 -1.675
 7130 1  -49.013328  1.892473e+01 -1.675
 7131 1  -51.499609  1.610813e+01 -1.675
 7132 1  -52.722590  1.682974e+01 -1.675
 7133 1  -52.709151  1.824967e+01 -1.675
 7134 1  -51.472730  1.894800e+01 -1.675
 7135 1  -53.959011  1.613141e+01 -1.675
 7136 1  -55.181992  1.685302e+01 -1.675
 7137 1  -55.168553  1.827295e+01 -1.675
 7138 1  -53.932132  1.897128e+01 -1.675
 7139 1  -56.418413  1.615469e+01 -1.675
 7140 1  -57.641394  1.687629e+01 -1.675
 7141 1  -57.627955  1.829623e+01 -1.675
 7142 1  -56.391534  1.899456e+01 -1.675
 7143 1  -58.877815  1.617796e+01 -1.675
 7144 1  -60.100796  1.689957e+01 -1.675
 7145 1  -60.087357  1.831951e+01 -1.675
 7146 1  -58.850936  1.901784e+01 -1.675
 7147 1  -61.337217  1.620124e+01 -1.675
 7148 1  -62.560198  1.692285e+01 -1.675
 7149 1  -62.546759  1.834278e+01 -1.675
 7150 1  -61.310338  1.904111e+01 -1.675
 7151 1  -63.796619  1.622452e+01 -1.675
 7152 1  -65.019600  1.694613e+01 -1.675
 7153 1  -65.006161  1.836606e+01 -1.675
 7154 1  -63.769740  1.906439e+01 -1.675
 7155 1  -66.256021  1.624780e+01 -1.675
 7156 1  -67.479002  1.696940e+01 -1.675
 7157 1  -67.465563  1.838934e+01 -1.675
 7158 1  -66.229142  1.908767e+01 -1.675
 7159 1  -68.715423  1.627107e+01 -1.675
 7160 1  -69.938404  1.699268e+01 -1.675
 7161 1  -69.924965  1.841262e+01 -1.675
 7162 1  -68.688544  1.911095e+01 -1.675
 7163 1  -71.174825  1.629435e+01 -1.675
 7164 1  -72.397806  1.701596e+01 -1.675
 7165 1  -72.384367  1.843590e+01 -1.675
 7166 1  -71.147946  1.913422e+01 -1.675
 7167 1  -73.634227  1.631763e+01 -1.675
 7168 1  -74.857208  1.703924e+01 -1.675
 7169 1  -74.843769  1.845917e+01 -1.675
 7170 1  -73.607348  1.915750e+01 -1.675
 7171 1  -76.093629  1.634091e+01 -1.675
 7172 1  -77.316610  1.706251e+01 -1.675
 7173 1  -77.303171  1.848245e+01 -1.675
 7174 1  -76.066750  1.918078e+01 -1.675
 7175 1  -78.553031  1.636419e+01 -1.675
 7176 1  -79.776012  1.708579e+01 -1.675
 7177 1  -79.762573  1.850573e+01 -1.675
 7178 1  -78.526152  1.920406e+01 -1.675
 7179 1  -81.012433  1.638746e+01 -1.675
 7180 1  -82.235414  1.710907e+01 -1.675
 7181 1  -82.221975  1.852901e+01 -1.675
 7182 1  -80.985554  1.922734e+01 -1.675
 7183 1  -83.471835  1.641074e+01 -1.675
 7184 1  -84.694816  1.713235e+01 -1.675
 7185 1  -84.681377  1.855228e+01 -1.675
 7186 1  -83.444956  1.925061e+01 -1.675
 7187 1  -85.931237  1.643402e+01 -1.675
 7188 1  -87.154218  1.715563e+01 -1.675
 7189 1  -87.140779  1.857556e+01 -1.675
 7190 1  -85.904358  1.927389e+01 -1.675
 7191 1  -88.390639  1.645730e+01 -1.675
 7192 1  -89.613620  1.717890e+01 -1.675
 7193 1  -89.600181  1.859884e+01 -1.675
 7194 1  -88.363760  1.929717e+01 -1.675
 7195 1  -90.850041  1.648057e+01 -1.675
 7196 1  -92.073022  1.720218e+01 -1.675
 7197 1  -92.059583  1.862212e+01 -1.675
 7198 1  -90.823162  1.932045e+01 -1.675
 7199 1  -93.309443  1.650385e+01 -1.675
 7200 1  -94.532424  1.722546e+01 -1.675
 7201 1  -94.518985  1.864539e+01 -1.675
 7202 1  -93.282564  1.934372e+01 -1.675
 7203 1  -95.768845  1.652713e+01 -1.675
 7204 1  -96.991826  1.724874e+01 -1.675
 7205 1  -96.978387  1.866867e+01 -1.675
 7206 1  -95.741966  1.936700e+01 -1.675
 7207 1  -98.228247  1.655041e+01 -1.675
 7208 1  -99.451228  1.727201e+01 -1.675
 7209 1  -99.437789  1.869195e+01 -1.675
 7210 1  -98.201368  1.939028e+01 -1.675
 7211 1 -100.687649  1.657368e+01 -1.675
 7212 1 -101.910630  1.729529e+01 -1.675
 7213 1 -101.897191  1.871523e+01 -1.675
 7214 1 -100.660770  1.941356e+01 -1.675
 7215 1 -103.147051  1.659696e+01 -1.675
 7216 1 -104.370032  1.731857e+01 -1.675
 7217 1 -104.356593  1.873850e+01 -1.675
 7218 1 -103.120172  1.943683e+01 -1.675
 7219 1 -105.606453  1.662024e+01 -1.675
 7220 1 -106.829434  1.734185e+01 -1.675
 7221 1 -106.815995  1.876178e+01 -1.675
 7222 1 -105.579574  1.946011e+01 -1.675
 7223 1 -108.065855  1.664352e+01 -1.675
 7224 1 -109.288836  1.736512e+01 -1.675
 7225 1 -109.275397  1.878506e+01 -1.675
 7226 1 -108.038976  1.948339e+01 -1.675
 7227 1 -110.525257  1.666679e+01 -1.675
 7228 1 -111.748238  1.738840e+01 -1.675
 7229 1 -111.734799  1.880834e+01 -1.675
 7230 1 -110.498378  1.950667e+01 -1.675
 7231 1  112.097661  1.952994e+01 -1.675
 7232 1  112.111101  2.094988e+01 -1.675
 7233 1  110.861241  1.883162e+01 -1.675
 7234 1  109.638259  1.955322e+01 -1.675
 7235 1  109.651699  2.097316e+01 -1.675
 7236 1  110.888119  2.167149e+01 -1.675
 7237 1  108.401839  1.885489e+01 -1.675
 7238 1  107.178857  1.957650e+01 -1.675
 7239 1  107.192297  2.099644e+01 -1.675
 7240 1  108.428717  2.169477e+01 -1.675
 7241 1  105.942437  1.887817e+01 -1.675
 7242 1  104.719455  1.959978e+01 -1.675
 7243 1  104.732895  2.101971e+01 -1.675
 7244 1  105.969315  2.171804e+01 -1.675
 7245 1  103.483035  1.890145e+01 -1.675
 7246 1  102.260053  1.962306e+01 -1.675
 7247 1  102.273493  2.104299e+01 -1.675
 7248 1  103.509913  2.174132e+01 -1.675
 7249 1  101.023633  1.892473e+01 -1.675
 7250 1   99.800651  1.964633e+01 -1.675
 7251 1   99.814091  2.106627e+01 -1.675
 7252 1  101.050511  2.176460e+01 -1.675
 7253 1   98.564231  1.894800e+01 -1.675
 7254 1   97.341249  1.966961e+01 -1.675
 7255 1   97.354689  2.108955e+01 -1.675
 7256 1   98.591109  2.178788e+01 -1.675
 7257 1   96.104829  1.897128e+01 -1.675
 7258 1   94.881847  1.969289e+01 -1.675
 7259 1   94.895287  2.111282e+01 -1.675
 7260 1   96.131707  2.181115e+01 -1.675
 7261 1   93.645427  1.899456e+01 -1.675
 7262 1   92.422445  1.971617e+01 -1.675
 7263 1   92.435885  2.113610e+01 -1.675
 7264 1   93.672305  2.183443e+01 -1.675
 7265 1   91.186025  1.901784e+01 -1.675
 7266 1   89.963043  1.973944e+01 -1.675
 7267 1   89.976483  2.115938e+01 -1.675
 7268 1   91.212903  2.185771e+01 -1.675
 7269 1   88.726623  1.904111e+01 -1.675
 7270 1   87.503641  1.976272e+01 -1.675
 7271 1   87.517081  2.118266e+01 -1.675
 7272 1   88.753501  2.188099e+01 -1.675
 7273 1   86.267221  1.906439e+01 -1.675
 7274 1   85.044239  1.978600e+01 -1.675
 7275 1   85.057679  2.120594e+01 -1.675
 7276 1   86.294099  2.190426e+01 -1.675
 7277 1   83.807819  1.908767e+01 -1.675
 7278 1   82.584837  1.980928e+01 -1.675
 7279 1   82.598277  2.122921e+01 -1.675
 7280 1   83.834697  2.192754e+01 -1.675
 7281 1   81.348417  1.911095e+01 -1.675
 7282 1   80.125435  1.983255e+01 -1.675
 7283 1   80.138875  2.125249e+01 -1.675
 7284 1   81.375295  2.195082e+01 -1.675
 7285 1   78.889015  1.913422e+01 -1.675
 7286 1   77.666033  1.985583e+01 -1.675
 7287 1   77.679473  2.127577e+01 -1.675
 7288 1   78.915893  2.197410e+01 -1.675
 7289 1   76.429613  1.915750e+01 -1.675
 7290 1   75.206631  1.987911e+01 -1.675
 7291 1   75.220071  2.129905e+01 -1.675
 7292 1   76.456491  2.199738e+01 -1.675
 7293 1   73.970211  1.918078e+01 -1.675
 7294 1   72.747229  1.990239e+01 -1.675
 7295 1   72.760669  2.132232e+01 -1.675
 7296 1   73.997089  2.202065e+01 -1.675
 7297 1   71.510809  1.920406e+01 -1.675
 7298 1   70.287827  1.992566e+01 -1.675
 7299 1   70.301267  2.134560e+01 -1.675
 7300 1   71.537687  2.204393e+01 -1.675
 7301 1   69.051407  1.922734e+01 -1.675
 7302 1   67.828425  1.994894e+01 -1.675
 7303 1   67.841865  2.136888e+01 -1.675
 7304 1   69.078285  2.206721e+01 -1.675
 7305 1   66.592005  1.925061e+01 -1.675
 7306 1   65.369023  1.997222e+01 -1.675
 7307 1   65.382463  2.139216e+01 -1.675
 7308 1   66.618883  2.209049e+01 -1.675
 7309 1   64.132603  1.927389e+01 -1.675
 7310 1   62.909621  1.999550e+01 -1.675
 7311 1   62.923061  2.141543e+01 -1.675
 7312 1   64.159481  2.211376e+01 -1.675
 7313 1   61.673201  1.929717e+01 -1.675
 7314 1   60.450219  2.001878e+01 -1.675
 7315 1   60.463659  2.143871e+01 -1.675
 7316 1   61.700079  2.213704e+01 -1.675
 7317 1   59.213799  1.932045e+01 -1.675
 7318 1   57.990817  2.004205e+01 -1.675
 7319 1   58.004257  2.146199e+01 -1.675
 7320 1   59.240677  2.216032e+01 -1.675
 7321 1   56.754397  1.934372e+01 -1.675
 7322 1   55.531415  2.006533e+01 -1.675
 7323 1   55.544855  2.148527e+01 -1.675
 7324 1   56.781275  2.218360e+01 -1.675
 7325 1   54.294995  1.936700e+01 -1.675
 7326 1   53.072013  2.008861e+01 -1.675
 7327 1   53.085453  2.150854e+01 -1.675
 7328 1   54.321873  2.220687e+01 -1.675
 7329 1   51.835593  1.939028e+01 -1.675
 7330 1   50.612611  2.011189e+01 -1.675
 7331 1   50.626051  2.153182e+01 -1.675
 7332 1   51.862471  2.223015e+01 -1.675
 7333 1   49.376191  1.941356e+01 -1.675
 7334 1   48.153209  2.013516e+01 -1.675
 7335 1   48.166649  2.155510e+01 -1.675
 7336 1   49.403069  2.225343e+01 -1.675
 7337 1   46.916789  1.943683e+01 -1.675
 7338 1   45.693807  2.015844e+01 -1.675
 7339 1   45.707247  2.157838e+01 -1.675
 7340 1   46.943668  2.227671e+01 -1.675
 7341 1   44.457387  1.946011e+01 -1.675
 7342 1   43.234405  2.018172e+01 -1.675
 7343 1   43.247845  2.160166e+01 -1.675
 7344 1   44.484266  2.229998e+01 -1.675
 7345 1   41.997985  1.948339e+01 -1.675
 7346 1   40.775003  2.020500e+01 -1.675
 7347 1   40.788443  2.162493e+01 -1.675
 7348 1   42.024864  2.232326e+01 -1.675
 7349 1   39.538583  1.950667e+01 -1.675
 7350 1   38.315602  2.022827e+01 -1.675
 7351 1   38.329041  2.164821e+01 -1.675
 7352 1   39.565462  2.234654e+01 -1.675
 7353 1   37.079181  1.952994e+01 -1.675
 7354 1   35.856200  2.025155e+01 -1.675
 7355 1   35.869639  2.167149e+01 -1.675
 7356 1   37.106060  2.236982e+01 -1.675
 7357 1   34.619779  1.955322e+01 -1.675
 7358 1   33.396798  2.027483e+01 -1.675
 7359 1   33.410237  2.169477e+01 -1.675
 7360 1   34.646658  2.239310e+01 -1.675
 7361 1   32.160377  1.957650e+01 -1.675
 7362 1   30.937396  2.029811e+01 -1.675
 7363 1   30.950835  2.171804e+01 -1.675
 7364 1   32.187256  2.241637e+01 -1.675
 7365 1   29.700975  1.959978e+01 -1.675
 7366 1   28.477994  2.032138e+01 -1.675
 7367 1   28.491433  2.174132e+01 -1.675
 7368 1   29.727854  2.243965e+01 -1.675
 7369 1   27.241573  1.962306e+01 -1.675
 7370 1   26.018592  2.034466e+01 -1.675
 7371 1   26.032031  2.176460e+01 -1.675
 7372 1   27.268452  2.246293e+01 -1.675
 7373 1   24.782171  1.964633e+01 -1.675
 7374 1   23.559190  2.036794e+01 -1.675
 7375 1   23.572629  2.178788e+01 -1.675
 7376 1   24.809050  2.248621e+01 -1.675
 7377 1   22.322769  1.966961e+01 -1.675
 7378 1   21.099788  2.039122e+01 -1.675
 7379 1   21.113227  2.181115e+01 -1.675
 7380 1   22.349648  2.250948e+01 -1.675
 7381 1   19.863367  1.969289e+01 -1.675
 7382 1   18.640386  2.041450e+01 -1.675
 7383 1   18.653825  2.183443e+01 -1.675
 7384 1   19.890246  2.253276e+01 -1.675
 7385 1   17.403965  1.971617e+01 -1.675
 7386 1   16.180984  2.043777e+01 -1.675
 7387 1   16.194423  2.185771e+01 -1.675
 7388 1   17.430844  2.255604e+01 -1.675
 7389 1   14.944563  1.973944e+01 -1.675
 7390 1   13.721582  2.046105e+01 -1.675
 7391 1   13.735021  2.188099e+01 -1.675
 7392 1   14.971442  2.257932e+01 -1.675
 7393 1   12.485161  1.976272e+01 -1.675
 7394 1   11.262180  2.048433e+01 -1.675
 7395 1   11.275619  2.190426e+01 -1.675
 7396 1   12.512040  2.260259e+01 -1.675
 7397 1   10.025759  1.978600e+01 -1.675
 7398 1    8.802778  2.050761e+01 -1.675
 7399 1    8.816217  2.192754e+01 -1.675
 7400 1   10.052638  2.262587e+01 -1.675
 7401 1    7.566357  1.980928e+01 -1.675
 7402 1    6.343376  2.053088e+01 -1.675
 7403 1    6.356815  2.195082e+01 -1.675
 7404 1    7.593236  2.264915e+01 -1.675
 7405 1    5.106955  1.983255e+01 -1.675
 7406 1    3.883974  2.055416e+01 -1.675
 7407 1    3.897413  2.197410e+01 -1.675
 7408 1    5.133834  2.267243e+01 -1.675
 7409 1    2.647553  1.985583e+01 -1.675
 7410 1    1.424572  2.057744e+01 -1.675
 7411 1    1.438011  2.199738e+01 -1.675
 7412 1    2.674432  2.269570e+01 -1.675
 7413 1    0.188151  1.987911e+01 -1.675
 7414 1   -1.034830  2.060072e+01 -1.675
 7415 1   -1.021391  2.202065e+01 -1.675
 7416 1    0.215030  2.271898e+01 -1.675
 7417 1   -2.271251  1.990239e+01 -1.675
 7418 1   -3.494232  2.062399e+01 -1.675
 7419 1   -3.480793  2.204393e+01 -1.675
 7420 1   -2.244372  2.274226e+01 -1.675
 7421 1   -4.730653  1.992566e+01 -1.675
 7422 1   -5.953634  2.064727e+01 -1.675
 7423 1   -5.940195  2.206721e+01 -1.675
 7424 1   -4.703774  2.276554e+01 -1.675
 7425 1   -7.190055  1.994894e+01 -1.675
 7426 1   -8.413036  2.067055e+01 -1.675
 7427 1   -8.399597  2.209049e+01 -1.675
 7428 1   -7.163176  2.278882e+01 -1.675
 7429 1   -9.649457  1.997222e+01 -1.675
 7430 1  -10.872438  2.069383e+01 -1.675
 7431 1  -10.858999  2.211376e+01 -1.675
 7432 1   -9.622578  2.281209e+01 -1.675
 7433 1  -12.108859  1.999550e+01 -1.675
 7434 1  -13.331840  2.071710e+01 -1.675
 7435 1  -13.318401  2.213704e+01 -1.675
 7436 1  -12.081980  2.283537e+01 -1.675
 7437 1  -14.568261  2.001878e+01 -1.675
 7438 1  -15.791242  2.074038e+01 -1.675
 7439 1  -15.777803  2.216032e+01 -1.675
 7440 1  -14.541382  2.285865e+01 -1.675
 7441 1  -17.027663  2.004205e+01 -1.675
 7442 1  -18.250644  2.076366e+01 -1.675
 7443 1  -18.237205  2.218360e+01 -1.675
 7444 1  -17.000784  2.288193e+01 -1.675
 7445 1  -19.487065  2.006533e+01 -1.675
 7446 1  -20.710046  2.078694e+01 -1.675
 7447 1  -20.696607  2.220687e+01 -1.675
 7448 1  -19.460186  2.290520e+01 -1.675
 7449 1  -21.946467  2.008861e+01 -1.675
 7450 1  -23.169448  2.081022e+01 -1.675
 7451 1  -23.156009  2.223015e+01 -1.675
 7452 1  -21.919588  2.292848e+01 -1.675
 7453 1  -24.405869  2.011189e+01 -1.675
 7454 1  -25.628850  2.083349e+01 -1.675
 7455 1  -25.615411  2.225343e+01 -1.675
 7456 1  -24.378990  2.295176e+01 -1.675
 7457 1  -26.865271  2.013516e+01 -1.675
 7458 1  -28.088252  2.085677e+01 -1.675
 7459 1  -28.074813  2.227671e+01 -1.675
 7460 1  -26.838392  2.297504e+01 -1.675
 7461 1  -29.324673  2.015844e+01 -1.675
 7462 1  -30.547654  2.088005e+01 -1.675
 7463 1  -30.534215  2.229998e+01 -1.675
 7464 1  -29.297794  2.299831e+01 -1.675
 7465 1  -31.784075  2.018172e+01 -1.675
 7466 1  -33.007056  2.090333e+01 -1.675
 7467 1  -32.993617  2.232326e+01 -1.675
 7468 1  -31.757196  2.302159e+01 -1.675
 7469 1  -34.243477  2.020500e+01 -1.675
 7470 1  -35.466458  2.092660e+01 -1.675
 7471 1  -35.453019  2.234654e+01 -1.675
 7472 1  -34.216598  2.304487e+01 -1.675
 7473 1  -36.702879  2.022827e+01 -1.675
 7474 1  -37.925860  2.094988e+01 -1.675
 7475 1  -37.912421  2.236982e+01 -1.675
 7476 1  -36.676000  2.306815e+01 -1.675
 7477 1  -39.162281  2.025155e+01 -1.675
 7478 1  -40.385262  2.097316e+01 -1.675
 7479 1  -40.371823  2.239310e+01 -1.675
 7480 1  -39.135402  2.309142e+01 -1.675
 7481 1  -41.621683  2.027483e+01 -1.675
 7482 1  -42.844664  2.099644e+01 -1.675
 7483 1  -42.831225  2.241637e+01 -1.675
 7484 1  -41.594804  2.311470e+01 -1.675
 7485 1  -44.081085  2.029811e+01 -1.675
 7486 1  -45.304066  2.101971e+01 -1.675
 7487 1  -45.290627  2.243965e+01 -1.675
 7488 1  -44.054206  2.313798e+01 -1.675
 7489 1  -46.540487  2.032138e+01 -1.675
 7490 1  -47.763468  2.104299e+01 -1.675
 7491 1  -47.750029  2.246293e+01 -1.675
 7492 1  -46.513608  2.316126e+01 -1.675
 7493 1  -48.999889  2.034466e+01 -1.675
 7494 1  -50.222870  2.106627e+01 -1.675
 7495 1  -50.209431  2.248621e+01 -1.675
 7496 1  -48.973010  2.318454e+01 -1.675
 7497 1  -51.459291  2.036794e+01 -1.675
 7498 1  -52.682272  2.108955e+01 -1.675
 7499 1  -52.668833  2.250948e+01 -1.675
 7500 1  -51.432412  2.320781e+01 -1.675
 7501 1  -53.918693  2.039122e+01 -1.675
 7502 1  -55.141674  2.111282e+01 -1.675
 7503 1  -55.128235  2.253276e+01 -1.675
 7504 1  -53.891814  2.323109e+01 -1.675
 7505 1  -56.378095  2.041450e+01 -1.675
 7506 1  -57.601076  2.113610e+01 -1.675
 7507 1  -57.587637  2.255604e+01 -1.675
 7508 1  -56.351216  2.325437e+01 -1.675
 7509 1  -58.837497  2.043777e+01 -1.675
 7510 1  -60.060478  2.115938e+01 -1.675
 7511 1  -60.047039  2.257932e+01 -1.675
 7512 1  -58.810618  2.327765e+01 -1.675
 7513 1  -61.296899  2.046105e+01 -1.675
 7514 1  -62.519880  2.118266e+01 -1.675
 7515 1  -62.506441  2.260259e+01 -1.675
 7516 1  -61.270020  2.330092e+01 -1.675
 7517 1  -63.756301  2.048433e+01 -1.675
 7518 1  -64.979282  2.120594e+01 -1.675
 7519 1  -64.965843  2.262587e+01 -1.675
 7520 1  -63.729422  2.332420e+01 -1.675
 7521 1  -66.215703  2.050761e+01 -1.675
 7522 1  -67.438684  2.122921e+01 -1.675
 7523 1  -67.425245  2.264915e+01 -1.675
 7524 1  -66.188824  2.334748e+01 -1.675
 7525 1  -68.675105  2.053088e+01 -1.675
 7526 1  -69.898086  2.125249e+01 -1.675
 7527 1  -69.884647  2.267243e+01 -1.675
 7528 1  -68.648226  2.337076e+01 -1.675
 7529 1  -71.134507  2.055416e+01 -1.675
 7530 1  -72.357488  2.127577e+01 -1.675
 7531 1  -72.344049  2.269570e+01 -1.675
 7532 1  -71.107628  2.339403e+01 -1.675
 7533 1  -73.593909  2.057744e+01 -1.675
 7534 1  -74.816890  2.129905e+01 -1.675
 7535 1  -74.803451  2.271898e+01 -1.675
 7536 1  -73.567030  2.341731e+01 -1.675
 7537 1  -76.053311  2.060072e+01 -1.675
 7538 1  -77.276292  2.132232e+01 -1.675
 7539 1  -77.262853  2.274226e+01 -1.675
 7540 1  -76.026432  2.344059e+01 -1.675
 7541 1  -78.512713  2.062399e+01 -1.675
 7542 1  -79.735694  2.134560e+01 -1.675
 7543 1  -79.722255  2.276554e+01 -1.675
 7544 1  -78.485834  2.346387e+01 -1.675
 7545 1  -80.972115  2.064727e+01 -1.675
 7546 1  -82.195096  2.136888e+01 -1.675
 7547 1  -82.181657  2.278882e+01 -1.675
 7548 1  -80.945236  2.348714e+01 -1.675
 7549 1  -83.431517  2.067055e+01 -1.675
 7550 1  -84.654498  2.139216e+01 -1.675
 7551 1  -84.641059  2.281209e+01 -1.675
 7552 1  -83.404638  2.351042e+01 -1.675
 7553 1  -85.890919  2.069383e+01 -1.675
 7554 1  -87.113900  2.141543e+01 -1.675
 7555 1  -87.100461  2.283537e+01 -1.675
 7556 1  -85.864040  2.353370e+01 -1.675
 7557 1  -88.350321  2.071710e+01 -1.675
 7558 1  -89.573302  2.143871e+01 -1.675
 7559 1  -89.559863  2.285865e+01 -1.675
 7560 1  -88.323442  2.355698e+01 -1.675
 7561 1  -90.809723  2.074038e+01 -1.675
 7562 1  -92.032704  2.146199e+01 -1.675
 7563 1  -92.019265  2.288193e+01 -1.675
 7564 1  -90.782844  2.358026e+01 -1.675
 7565 1  -93.269125  2.076366e+01 -1.675
 7566 1  -94.492106  2.148527e+01 -1.675
 7567 1  -94.478667  2.290520e+01 -1.675
 7568 1  -93.242246  2.360353e+01 -1.675
 7569 1  -95.728527  2.078694e+01 -1.675
 7570 1  -96.951508  2.150854e+01 -1.675
 7571 1  -96.938069  2.292848e+01 -1.675
 7572 1  -95.701648  2.362681e+01 -1.675
 7573 1  -98.187929  2.081022e+01 -1.675
 7574 1  -99.410910  2.153182e+01 -1.675
 7575 1  -99.397471  2.295176e+01 -1.675
 7576 1  -98.161050  2.365009e+01 -1.675
 7577 1 -100.647331  2.083349e+01 -1.675
 7578 1 -101.870312  2.155510e+01 -1.675
 7579 1 -101.856873  2.297504e+01 -1.675
 7580 1 -100.620452  2.367337e+01 -1.675
 7581 1 -103.106733  2.085677e+01 -1.675
 7582 1 -104.329714  2.157838e+01 -1.675
 7583 1 -104.316275  2.299831e+01 -1.675
 7584 1 -103.079854  2.369664e+01 -1.675
 7585 1 -105.566135  2.088005e+01 -1.675
 7586 1 -106.789116  2.160166e+01 -1.675
 7587 1 -106.775677  2.302159e+01 -1.675
 7588 1 -105.539256  2.371992e+01 -1.675
 7589 1 -108.025537  2.090333e+01 -1.675
 7590 1 -109.248518  2.162493e+01 -1.675
 7591 1 -109.235079  2.304487e+01 -1.675
 7592 1 -107.998658  2.374320e+01 -1.675
 7593 1 -110.484939  2.092660e+01 -1.675
 7594 1 -111.707920  2.164821e+01 -1.675
 7595 1 -111.694481  2.306815e+01 -1.675
 7596 1 -110.458060  2.376648e+01 -1.675
 7597 1  112.137979  2.378975e+01 -1.675
 7598 1  112.151419  2.520969e+01 -1.675
 7599 1  110.901559  2.309142e+01 -1.675
 7600 1  109.678577  2.381303e+01 -1.675
 7601 1  109.692017  2.523297e+01 -1.675
 7602 1  110.928437  2.593130e+01 -1.675
 7603 1  108.442157  2.311470e+01 -1.675
 7604 1  107.219175  2.383631e+01 -1.675
 7605 1  107.232615  2.525625e+01 -1.675
 7606 1  108.469035  2.595458e+01 -1.675
 7607 1  105.982755  2.313798e+01 -1.675
 7608 1  104.759773  2.385959e+01 -1.675
 7609 1  104.773213  2.527952e+01 -1.675
 7610 1  106.009633  2.597785e+01 -1.675
 7611 1  103.523353  2.316126e+01 -1.675
 7612 1  102.300371  2.388286e+01 -1.675
 7613 1  102.313811  2.530280e+01 -1.675
 7614 1  103.550231  2.600113e+01 -1.675
 7615 1  101.063951  2.318454e+01 -1.675
 7616 1   99.840969  2.390614e+01 -1.675
 7617 1   99.854409  2.532608e+01 -1.675
 7618 1  101.090829  2.602441e+01 -1.675
 7619 1   98.604549  2.320781e+01 -1.675
 7620 1   97.381567  2.392942e+01 -1.675
 7621 1   97.395007  2.534936e+01 -1.675
 7622 1   98.631427  2.604769e+01 -1.675
 7623 1   96.145147  2.323109e+01 -1.675
 7624 1   94.922165  2.395270e+01 -1.675
 7625 1   94.935605  2.537263e+01 -1.675
 7626 1   96.172025  2.607096e+01 -1.675
 7627 1   93.685745  2.325437e+01 -1.675
 7628 1   92.462763  2.397598e+01 -1.675
 7629 1   92.476203  2.539591e+01 -1.675
 7630 1   93.712623  2.609424e+01 -1.675
 7631 1   91.226343  2.327765e+01 -1.675
 7632 1   90.003361  2.399925e+01 -1.675
 7633 1   90.016801  2.541919e+01 -1.675
 7634 1   91.253221  2.611752e+01 -1.675
 7635 1   88.766941  2.330092e+01 -1.675
 7636 1   87.543959  2.402253e+01 -1.675
 7637 1   87.557399  2.544247e+01 -1.675
 7638 1   88.793819  2.614080e+01 -1.675
 7639 1   86.307539  2.332420e+01 -1.675
 7640 1   85.084557  2.404581e+01 -1.675
 7641 1   85.097997  2.546574e+01 -1.675
 7642 1   86.334417  2.616407e+01 -1.675
 7643 1   83.848137  2.334748e+01 -1.675
 7644 1   82.625155  2.406909e+01 -1.675
 7645 1   82.638595  2.548902e+01 -1.675
 7646 1   83.875015  2.618735e+01 -1.675
 7647 1   81.388735  2.337076e+01 -1.675
 7648 1   80.165753  2.409236e+01 -1.675
 7649 1   80.179193  2.551230e+01 -1.675
 7650 1   81.415613  2.621063e+01 -1.675
 7651 1   78.929333  2.339403e+01 -1.675
 7652 1   77.706351  2.411564e+01 -1.675
 7653 1   77.719791  2.553558e+01 -1.675
 7654 1   78.956211  2.623391e+01 -1.675
 7655 1   76.469931  2.341731e+01 -1.675
 7656 1   75.246949  2.413892e+01 -1.675
 7657 1   75.260389  2.555886e+01 -1.675
 7658 1   76.496809  2.625718e+01 -1.675
 7659 1   74.010529  2.344059e+01 -1.675
 7660 1   72.787547  2.416220e+01 -1.675
 7661 1   72.800987  2.558213e+01 -1.675
 7662 1   74.037407  2.628046e+01 -1.675
 7663 1   71.551127  2.346387e+01 -1.675
 7664 1   70.328145  2.418547e+01 -1.675
 7665 1   70.341585  2.560541e+01 -1.675
 7666 1   71.578005  2.630374e+01 -1.675
 7667 1   69.091725  2.348714e+01 -1.675
 7668 1   67.868743  2.420875e+01 -1.675
 7669 1   67.882183  2.562869e+01 -1.675
 7670 1   69.118603  2.632702e+01 -1.675
 7671 1   66.632323  2.351042e+01 -1.675
 7672 1   65.409341  2.423203e+01 -1.675
 7673 1   65.422781  2.565197e+01 -1.675
 7674 1   66.659201  2.635030e+01 -1.675
 7675 1   64.172921  2.353370e+01 -1.675
 7676 1   62.949939  2.425531e+01 -1.675
 7677 1   62.963379  2.567524e+01 -1.675
 7678 1   64.199800  2.637357e+01 -1.675
 7679 1   61.713519  2.355698e+01 -1.675
 7680 1   60.490537  2.427858e+01 -1.675
 7681 1   60.503977  2.569852e+01 -1.675
 7682 1   61.740398  2.639685e+01 -1.675
 7683 1   59.254117  2.358026e+01 -1.675
 7684 1   58.031135  2.430186e+01 -1.675
 7685 1   58.044575  2.572180e+01 -1.675
 7686 1   59.280996  2.642013e+01 -1.675
 7687 1   56.794715  2.360353e+01 -1.675
 7688 1   55.571734  2.432514e+01 -1.675
 7689 1   55.585173  2.574508e+01 -1.675
 7690 1   56.821594  2.644341e+01 -1.675
 7691 1   54.335313  2.362681e+01 -1.675
 7692 1   53.112332  2.434842e+01 -1.675
 7693 1   53.125771  2.576835e+01 -1.675
 7694 1   54.362192  2.646668e+01 -1.675
 7695 1   51.875911  2.365009e+01 -1.675
 7696 1   50.652930  2.437170e+01 -1.675
 7697 1   50.666369  2.579163e+01 -1.675
 7698 1   51.902790  2.648996e+01 -1.675
 7699 1   49.416509  2.367337e+01 -1.675
 7700 1   48.193528  2.439497e+01 -1.675
 7701 1   48.206967  2.581491e+01 -1.675
 7702 1   49.443388  2.651324e+01 -1.675
 7703 1   46.957107  2.369664e+01 -1.675
 7704 1   45.734126  2.441825e+01 -1.675
 7705 1   45.747565  2.583819e+01 -1.675
 7706 1   46.983986  2.653652e+01 -1.675
 7707 1   44.497705  2.371992e+01 -1.675
 7708 1   43.274724  2.444153e+01 -1.675
 7709 1   43.288163  2.586146e+01 -1.675
 7710 1   44.524584  2.655979e+01 -1.675
 7711 1   42.038303  2.374320e+01 -1.675
 7712 1   40.815322  2.446481e+01 -1.675
 7713 1   40.828761  2.588474e+01 -1.675
 7714 1   42.065182  2.658307e+01 -1.675
 7715 1   39.578901  2.376648e+01 -1.675
 7716 1   38.355920  2.448808e+01 -1.675
 7717 1   38.369359  2.590802e+01 -1.675
 7718 1   39.605780  2.660635e+01 -1.675
 7719 1   37.119499  2.378975e+01 -1.675
 7720 1   35.896518  2.451136e+01 -1.675
 7721 1   35.909957  2.593130e+01 -1.675
 7722 1   37.146378  2.662963e+01 -1.675
 7723 1   34.660097  2.381303e+01 -1.675
 7724 1   33.437116  2.453464e+01 -1.675
 7725 1   33.450555  2.595458e+01 -1.675
 7726 1   34.686976  2.665290e+01 -1.675
 7727 1   32.200695  2.383631e+01 -1.675
 7728 1   30.977714  2.455792e+01 -1.675
 7729 1   30.991153  2.597785e+01 -1.675
 7730 1   32.227574  2.667618e+01 -1.675
 7731 1   29.741293  2.385959e+01 -1.675
 7732 1   28.518312  2.458119e+01 -1.675
 7733 1   28.531751  2.600113e+01 -1.675
 7734 1   29.768172  2.669946e+01 -1.675
 7735 1   27.281891  2.388286e+01 -1.675
 7736 1   26.058910  2.460447e+01 -1.675
 7737 1   26.072349  2.602441e+01 -1.675
 7738 1   27.308770  2.672274e+01 -1.675
 7739 1   24.822489  2.390614e+01 -1.675
 7740 1   23.599508  2.462775e+01 -1.675
 7741 1   23.612947  2.604769e+01 -1.675
 7742 1   24.849368  2.674602e+01 -1.675
 7743 1   22.363087  2.392942e+01 -1.675
 7744 1   21.140106  2.465103e+01 -1.675
 7745 1   21.153545  2.607096e+01 -1.675
 7746 1   22.389966  2.676929e+01 -1.675
 7747 1   19.903685  2.395270e+01 -1.675
 7748 1   18.680704  2.467430e+01 -1.675
 7749 1   18.694143  2.609424e+01 -1.675
 7750 1   19.930564  2.679257e+01 -1.675
 7751 1   17.444283  2.397598e+01 -1.675
 7752 1   16.221302  2.469758e+01 -1.675
 7753 1   16.234741  2.611752e+01 -1.675
 7754 1   17.471162  2.681585e+01 -1.675
 7755 1   14.984881  2.399925e+01 -1.675
 7756 1   13.761900  2.472086e+01 -1.675
 7757 1   13.775339  2.614080e+01 -1.675
 7758 1   15.011760  2.683913e+01 -1.675
 7759 1   12.525479  2.402253e+01 -1.675
 7760 1   11.302498  2.474414e+01 -1.675
 7761 1   11.315937  2.616407e+01 -1.675
 7762 1   12.552358  2.686240e+01 -1.675
 7763 1   10.066077  2.404581e+01 -1.675
 7764 1    8.843096  2.476742e+01 -1.675
 7765 1    8.856535  2.618735e+01 -1.675
 7766 1   10.092956  2.688568e+01 -1.675
 7767 1    7.606675  2.406909e+01 -1.675
 7768 1    6.383694  2.479069e+01 -1.675
 7769 1    6.397133  2.621063e+01 -1.675
 7770 1    7.633554  2.690896e+01 -1.675
 7771 1    5.147273  2.409236e+01 -1.675
 7772 1    3.924292  2.481397e+01 -1.675
 7773 1    3.937731  2.623391e+01 -1.675
 7774 1    5.174152  2.693224e+01 -1.675
 7775 1    2.687871  2.411564e+01 -1.675
 7776 1    1.464890  2.483725e+01 -1.675
 7777 1    1.478329  2.625718e+01 -1.675
 7778 1    2.714750  2.695551e+01 -1.675
 7779 1    0.228469  2.413892e+01 -1.675
 7780 1   -0.994512  2.486053e+01 -1.675
 7781 1   -0.981073  2.628046e+01 -1.675
 7782 1    0.255348  2.697879e+01 -1.675
 7783 1   -2.230933  2.416220e+01 -1.675
 7784 1   -3.453914  2.488380e+01 -1.675
 7785 1   -3.440475  2.630374e+01 -1.675
 7786 1   -2.204054  2.700207e+01 -1.675
 7787 1   -4.690335  2.418547e+01 -1.675
 7788 1   -5.913316  2.490708e+01 -1.675
 7789 1   -5.899877  2.632702e+01 -1.675
 7790 1   -4.663456  2.702535e+01 -1.675
 7791 1   -7.149737  2.420875e+01 -1.675
 7792 1   -8.372718  2.493036e+01 -1.675
 7793 1   -8.359279  2.635030e+01 -1.675
 7794 1   -7.122858  2.704862e+01 -1.675
 7795 1   -9.609139  2.423203e+01 -1.675
 7796 1  -10.832120  2.495364e+01 -1.675
 7797 1  -10.818681  2.637357e+01 -1.675
 7798 1   -9.582260  2.707190e+01 -1.675
 7799 1  -12.068541  2.425531e+01 -1.675
 7800 1  -13.291522  2.497691e+01 -1.675
 7801 1  -13.278083  2.639685e+01 -1.675
 7802 1  -12.041662  2.709518e+01 -1.675
 7803 1  -14.527943  2.427858e+01 -1.675
 7804 1  -15.750924  2.500019e+01 -1.675
 7805 1  -15.737485  2.642013e+01 -1.675
 7806 1  -14.501064  2.711846e+01 -1.675
 7807 1  -16.987345  2.430186e+01 -1.675
 7808 1  -18.210326  2.502347e+01 -1.675
 7809 1  -18.196887  2.644341e+01 -1.675
 7810 1  -16.960466  2.714174e+01 -1.675
 7811 1  -19.446747  2.432514e+01 -1.675
 7812 1  -20.669728  2.504675e+01 -1.675
 7813 1  -20.656289  2.646668e+01 -1.675
 7814 1  -19.419868  2.716501e+01 -1.675
 7815 1  -21.906149  2.434842e+01 -1.675
 7816 1  -23.129130  2.507002e+01 -1.675
 7817 1  -23.115691  2.648996e+01 -1.675
 7818 1  -21.879270  2.718829e+01 -1.675
 7819 1  -24.365551  2.437170e+01 -1.675
 7820 1  -25.588532  2.509330e+01 -1.675
 7821 1  -25.575093  2.651324e+01 -1.675
 7822 1  -24.338672  2.721157e+01 -1.675
 7823 1  -26.824953  2.439497e+01 -1.675
 7824 1  -28.047934  2.511658e+01 -1.675
 7825 1  -28.034495  2.653652e+01 -1.675
 7826 1  -26.798074  2.723485e+01 -1.675
 7827 1  -29.284355  2.441825e+01 -1.675
 7828 1  -30.507336  2.513986e+01 -1.675
 7829 1  -30.493897  2.655979e+01 -1.675
 7830 1  -29.257476  2.725812e+01 -1.675
 7831 1  -31.743757  2.444153e+01 -1.675
 7832 1  -32.966738  2.516314e+01 -1.675
 7833 1  -32.953299  2.658307e+01 -1.675
 7834 1  -31.716878  2.728140e+01 -1.675
 7835 1  -34.203159  2.446481e+01 -1.675
 7836 1  -35.426140  2.518641e+01 -1.675
 7837 1  -35.412701  2.660635e+01 -1.675
 7838 1  -34.176280  2.730468e+01 -1.675
 7839 1  -36.662561  2.448808e+01 -1.675
 7840 1  -37.885542  2.520969e+01 -1.675
 7841 1  -37.872103  2.662963e+01 -1.675
 7842 1  -36.635682  2.732796e+01 -1.675
 7843 1  -39.121963  2.451136e+01 -1.675
 7844 1  -40.344944  2.523297e+01 -1.675
 7845 1  -40.331505  2.665290e+01 -1.675
 7846 1  -39.095084  2.735123e+01 -1.675
 7847 1  -41.581365  2.453464e+01 -1.675
 7848 1  -42.804346  2.525625e+01 -1.675
 7849 1  -42.790907  2.667618e+01 -1.675
 7850 1  -41.554486  2.737451e+01 -1.675
 7851 1  -44.040767  2.455792e+01 -1.675
 7852 1  -45.263748  2.527952e+01 -1.675
 7853 1  -45.250309  2.669946e+01 -1.675
 7854 1  -44.013888  2.739779e+01 -1.675
 7855 1  -46.500169  2.458119e+01 -1.675
 7856 1  -47.723150  2.530280e+01 -1.675
 7857 1  -47.709711  2.672274e+01 -1.675
 7858 1  -46.473290  2.742107e+01 -1.675
 7859 1  -48.959571  2.460447e+01 -1.675
 7860 1  -50.182552  2.532608e+01 -1.675
 7861 1  -50.169113  2.674602e+01 -1.675
 7862 1  -48.932692  2.744434e+01 -1.675
 7863 1  -51.418973  2.462775e+01 -1.675
 7864 1  -52.641954  2.534936e+01 -1.675
 7865 1  -52.628515  2.676929e+01 -1.675
 7866 1  -51.392094  2.746762e+01 -1.675
 7867 1  -53.878375  2.465103e+01 -1.675
 7868 1  -55.101356  2.537263e+01 -1.675
 7869 1  -55.087917  2.679257e+01 -1.675
 7870 1  -53.851496  2.749090e+01 -1.675
 7871 1  -56.337777  2.467430e+01 -1.675
 7872 1  -57.560758  2.539591e+01 -1.675
 7873 1  -57.547319  2.681585e+01 -1.675
 7874 1  -56.310898  2.751418e+01 -1.675
 7875 1  -58.797179  2.469758e+01 -1.675
 7876 1  -60.020160  2.541919e+01 -1.675
 7877 1  -60.006721  2.683913e+01 -1.675
 7878 1  -58.770300  2.753746e+01 -1.675
 7879 1  -61.256581  2.472086e+01 -1.675
 7880 1  -62.479562  2.544247e+01 -1.675
 7881 1  -62.466123  2.686240e+01 -1.675
 7882 1  -61.229702  2.756073e+01 -1.675
 7883 1  -63.715983  2.474414e+01 -1.675
 7884 1  -64.938964  2.546574e+01 -1.675
 7885 1  -64.925525  2.688568e+01 -1.675
 7886 1  -63.689104  2.758401e+01 -1.675
 7887 1  -66.175385  2.476742e+01 -1.675
 7888 1  -67.398366  2.548902e+01 -1.675
 7889 1  -67.384927  2.690896e+01 -1.675
 7890 1  -66.148506  2.760729e+01 -1.675
 7891 1  -68.634787  2.479069e+01 -1.675
 7892 1  -69.857768  2.551230e+01 -1.675
 7893 1  -69.844329  2.693224e+01 -1.675
 7894 1  -68.607908  2.763057e+01 -1.675
 7895 1  -71.094189  2.481397e+01 -1.675
 7896 1  -72.317170  2.553558e+01 -1.675
 7897 1  -72.303731  2.695551e+01 -1.675
 7898 1  -71.067310  2.765384e+01 -1.675
 7899 1  -73.553591  2.483725e+01 -1.675
 7900 1  -74.776572  2.555886e+01 -1.675
 7901 1  -74.763133  2.697879e+01 -1.675
 7902 1  -73.526712  2.767712e+01 -1.675
 7903 1  -76.012993  2.486053e+01 -1.675
 7904 1  -77.235974  2.558213e+01 -1.675
 7905 1  -77.222535  2.700207e+01 -1.675
 7906 1  -75.986114  2.770040e+01 -1.675
 7907 1  -78.472395  2.488380e+01 -1.675
 7908 1  -79.695376  2.560541e+01 -1.675
 7909 1  -79.681937  2.702535e+01 -1.675
 7910 1  -78.445516  2.772368e+01 -1.675
 7911 1  -80.931797  2.490708e+01 -1.675
 7912 1  -82.154778  2.562869e+01 -1.675
 7913 1  -82.141339  2.704862e+01 -1.675
 7914 1  -80.904918  2.774695e+01 -1.675
 7915 1  -83.391199  2.493036e+01 -1.675
 7916 1  -84.614180  2.565197e+01 -1.675
 7917 1  -84.600741  2.707190e+01 -1.675
 7918 1  -83.364320  2.777023e+01 -1.675
 7919 1  -85.850601  2.495364e+01 -1.675
 7920 1  -87.073582  2.567524e+01 -1.675
 7921 1  -87.060143  2.709518e+01 -1.675
 7922 1  -85.823722  2.779351e+01 -1.675
 7923 1  -88.310003  2.497691e+01 -1.675
 7924 1  -89.532984  2.569852e+01 -1.675
 7925 1  -89.519545  2.711846e+01 -1.675
 7926 1  -88.283124  2.781679e+01 -1.675
 7927 1  -90.769405  2.500019e+01 -1.675
 7928 1  -91.992386  2.572180e+01 -1.675
 7929 1  -91.978947  2.714174e+01 -1.675
 7930 1  -90.742526  2.784006e+01 -1.675
 7931 1  -93.228807  2.502347e+01 -1.675
 7932 1  -94.451788  2.574508e+01 -1.675
 7933 1  -94.438349  2.716501e+01 -1.675
 7934 1  -93.201928  2.786334e+01 -1.675
 7935 1  -95.688209  2.504675e+01 -1.675
 7936 1  -96.911190  2.576835e+01 -1.675
 7937 1  -96.897751  2.718829e+01 -1.675
 7938 1  -95.661330  2.788662e+01 -1.675
 7939 1  -98.147611  2.507002e+01 -1.675
 7940 1  -99.370592  2.579163e+01 -1.675
 7941 1  -99.357153  2.721157e+01 -1.675
 7942 1  -98.120732  2.790990e+01 -1.675
 7943 1 -100.607013  2.509330e+01 -1.675
 7944 1 -101.829994  2.581491e+01 -1.675
 7945 1 -101.816555  2.723485e+01 -1.675
 7946 1 -100.580134  2.793318e+01 -1.675
 7947 1 -103.066415  2.511658e+01 -1.675
 7948 1 -104.289396  2.583819e+01 -1.675
 7949 1 -104.275957  2.725812e+01 -1.675
 7950 1 -103.039536  2.795645e+01 -1.675
 7951 1 -105.525817  2.513986e+01 -1.675
 7952 1 -106.748798  2.586146e+01 -1.675
 7953 1 -106.735359  2.728140e+01 -1.675
 7954 1 -105.498938  2.797973e+01 -1.675
 7955 1 -107.985219  2.516314e+01 -1.675
 7956 1 -109.208200  2.588474e+01 -1.675
 7957 1 -109.194761  2.730468e+01 -1.675
 7958 1 -107.958340  2.800301e+01 -1.675
 7959 1 -110.444621  2.518641e+01 -1.675
 7960 1 -111.667602  2.590802e+01 -1.675
 7961 1 -111.654163  2.732796e+01 -1.675
 7962 1 -110.417742  2.802629e+01 -1.675
 7963 1  112.178297  2.804956e+01 -1.675
 7964 1  112.191737  2.946950e+01 -1.675
 7965 1  110.941877  2.735123e+01 -1.675
 7966 1  109.718895  2.807284e+01 -1.675
 7967 1  109.732335  2.949278e+01 -1.675
 7968 1  110.968755  3.019111e+01 -1.675
 7969 1  108.482475  2.737451e+01 -1.675
 7970 1  107.259493  2.809612e+01 -1.675
 7971 1  107.272933  2.951606e+01 -1.675
 7972 1  108.509353  3.021438e+01 -1.675
 7973 1  106.023073  2.739779e+01 -1.675
 7974 1  104.800091  2.811940e+01 -1.675
 7975 1  104.813531  2.953933e+01 -1.675
 7976 1  106.049951  3.023766e+01 -1.675
 7977 1  103.563671  2.742107e+01 -1.675
 7978 1  102.340689  2.814267e+01 -1.675
 7979 1  102.354129  2.956261e+01 -1.675
 7980 1  103.590549  3.026094e+01 -1.675
 7981 1  101.104269  2.744434e+01 -1.675
 7982 1   99.881287  2.816595e+01 -1.675
 7983 1   99.894727  2.958589e+01 -1.675
 7984 1  101.131147  3.028422e+01 -1.675
 7985 1   98.644867  2.746762e+01 -1.675
 7986 1   97.421885  2.818923e+01 -1.675
 7987 1   97.435325  2.960917e+01 -1.675
 7988 1   98.671745  3.030749e+01 -1.675
 7989 1   96.185465  2.749090e+01 -1.675
 7990 1   94.962483  2.821251e+01 -1.675
 7991 1   94.975923  2.963244e+01 -1.675
 7992 1   96.212343  3.033077e+01 -1.675
 7993 1   93.726063  2.751418e+01 -1.675
 7994 1   92.503081  2.823578e+01 -1.675
 7995 1   92.516521  2.965572e+01 -1.675
 7996 1   93.752941  3.035405e+01 -1.675
 7997 1   91.266661  2.753746e+01 -1.675
 7998 1   90.043679  2.825906e+01 -1.675
 7999 1   90.057119  2.967900e+01 -1.675
 8000 1   91.293539  3.037733e+01 -1.675
 8001 1   88.807259  2.756073e+01 -1.675
 8002 1   87.584277  2.828234e+01 -1.675
 8003 1   87.597717  2.970228e+01 -1.675
 8004 1   88.834137  3.040061e+01 -1.675
 8005 1   86.347857  2.758401e+01 -1.675
 8006 1   85.124875  2.830562e+01 -1.675
 8007 1   85.138315  2.972555e+01 -1.675
 8008 1   86.374735  3.042388e+01 -1.675
 8009 1   83.888455  2.760729e+01 -1.675
 8010 1   82.665473  2.832890e+01 -1.675
 8011 1   82.678913  2.974883e+01 -1.675
 8012 1   83.915333  3.044716e+01 -1.675
 8013 1   81.429053  2.763057e+01 -1.675
 8014 1   80.206071  2.835217e+01 -1.675
 8015 1   80.219511  2.977211e+01 -1.675
 8016 1   81.455932  3.047044e+01 -1.675
 8017 1   78.969651  2.765384e+01 -1.675
 8018 1   77.746669  2.837545e+01 -1.675
 8019 1   77.760109  2.979539e+01 -1.675
 8020 1   78.996530  3.049372e+01 -1.675
 8021 1   76.510249  2.767712e+01 -1.675
 8022 1   75.287267  2.839873e+01 -1.675
 8023 1   75.300707  2.981866e+01 -1.675
 8024 1   76.537128  3.051699e+01 -1.675
 8025 1   74.050847  2.770040e+01 -1.675
 8026 1   72.827866  2.842201e+01 -1.675
 8027 1   72.841305  2.984194e+01 -1.675
 8028 1   74.077726  3.054027e+01 -1.675
 8029 1   71.591445  2.772368e+01 -1.675
 8030 1   70.368464  2.844528e+01 -1.675
 8031 1   70.381903  2.986522e+01 -1.675
 8032 1   71.618324  3.056355e+01 -1.675
 8033 1   69.132043  2.774695e+01 -1.675
 8034 1   67.909062  2.846856e+01 -1.675
 8035 1   67.922501  2.988850e+01 -1.675
 8036 1   69.158922  3.058683e+01 -1.675
 8037 1   66.672641  2.777023e+01 -1.675
 8038 1   65.449660  2.849184e+01 -1.675
 8039 1   65.463099  2.991178e+01 -1.675
 8040 1   66.699520  3.061010e+01 -1.675
 8041 1   64.213239  2.779351e+01 -1.675
 8042 1   62.990258  2.851512e+01 -1.675
 8043 1   63.003697  2.993505e+01 -1.675
 8044 1   64.240118  3.063338e+01 -1.675
 8045 1   61.753837  2.781679e+01 -1.675
 8046 1   60.530856  2.853839e+01 -1.675
 8047 1   60.544295  2.995833e+01 -1.675
 8048 1   61.780716  3.065666e+01 -1.675
 8049 1   59.294435  2.784006e+01 -1.675
 8050 1   58.071454  2.856167e+01 -1.675
 8051 1   58.084893  2.998161e+01 -1.675
 8052 1   59.321314  3.067994e+01 -1.675
 8053 1   56.835033  2.786334e+01 -1.675
 8054 1   55.612052  2.858495e+01 -1.675
 8055 1   55.625491  3.000489e+01 -1.675
 8056 1   56.861912  3.070321e+01 -1.675
 8057 1   54.375631  2.788662e+01 -1.675
 8058 1   53.152650  2.860823e+01 -1.675
 8059 1   53.166089  3.002816e+01 -1.675
 8060 1   54.402510  3.072649e+01 -1.675
 8061 1   51.916229  2.790990e+01 -1.675
 8062 1   50.693248  2.863150e+01 -1.675
 8063 1   50.706687  3.005144e+01 -1.675
 8064 1   51.943108  3.074977e+01 -1.675
 8065 1   49.456827  2.793318e+01 -1.675
 8066 1   48.233846  2.865478e+01 -1.675
 8067 1   48.247285  3.007472e+01 -1.675
 8068 1   49.483706  3.077305e+01 -1.675
 8069 1   46.997425  2.795645e+01 -1.675
 8070 1   45.774444  2.867806e+01 -1.675
 8071 1   45.787883  3.009800e+01 -1.675
 8072 1   47.024304  3.079633e+01 -1.675
 8073 1   44.538023  2.797973e+01 -1.675
 8074 1   43.315042  2.870134e+01 -1.675
 8075 1   43.328481  3.012127e+01 -1.675
 8076 1   44.564902  3.081960e+01 -1.675
 8077 1   42.078621  2.800301e+01 -1.675
 8078 1   40.855640  2.872462e+01 -1.675
 8079 1   40.869079  3.014455e+01 -1.675
 8080 1   42.105500  3.084288e+01 -1.675
 8081 1   39.619219  2.802629e+01 -1.675
 8082 1   38.396238  2.874789e+01 -1.675
 8083 1   38.409677  3.016783e+01 -1.675
 8084 1   39.646098  3.086616e+01 -1.675
 8085 1   37.159817  2.804956e+01 -1.675
 8086 1   35.936836  2.877117e+01 -1.675
 8087 1   35.950275  3.019111e+01 -1.675
 8088 1   37.186696  3.088944e+01 -1.675
 8089 1   34.700415  2.807284e+01 -1.675
 8090 1   33.477434  2.879445e+01 -1.675
 8091 1   33.490873  3.021438e+01 -1.675
 8092 1   34.727294  3.091271e+01 -1.675
 8093 1   32.241013  2.809612e+01 -1.675
 8094 1   31.018032  2.881773e+01 -1.675
 8095 1   31.031471  3.023766e+01 -1.675
 8096 1   32.267892  3.093599e+01 -1.675
 8097 1   29.781611  2.811940e+01 -1.675
 8098 1   28.558630  2.884100e+01 -1.675
 8099 1   28.572069  3.026094e+01 -1.675
 8100 1   29.808490  3.095927e+01 -1.675
 8101 1   27.322209  2.814267e+01 -1.675
 8102 1   26.099228  2.886428e+01 -1.675
 8103 1   26.112667  3.028422e+01 -1.675
 8104 1   27.349088  3.098255e+01 -1.675
 8105 1   24.862807  2.816595e+01 -1.675
 8106 1   23.639826  2.888756e+01 -1.675
 8107 1   23.653265  3.030749e+01 -1.675
 8108 1   24.889686  3.100582e+01 -1.675
 8109 1   22.403405  2.818923e+01 -1.675
 8110 1   21.180424  2.891084e+01 -1.675
 8111 1   21.193863  3.033077e+01 -1.675
 8112 1   22.430284  3.102910e+01 -1.675
 8113 1   19.944003  2.821251e+01 -1.675
 8114 1   18.721022  2.893411e+01 -1.675
 8115 1   18.734461  3.035405e+01 -1.675
 8116 1   19.970882  3.105238e+01 -1.675
 8117 1   17.484601  2.823578e+01 -1.675
 8118 1   16.261620  2.895739e+01 -1.675
 8119 1   16.275059  3.037733e+01 -1.675
 8120 1   17.511480  3.107566e+01 -1.675
 8121 1   15.025199  2.825906e+01 -1.675
 8122 1   13.802218  2.898067e+01 -1.675
 8123 1   13.815657  3.040061e+01 -1.675
 8124 1   15.052078  3.109893e+01 -1.675
 8125 1   12.565797  2.828234e+01 -1.675
 8126 1   11.342816  2.900395e+01 -1.675
 8127 1   11.356255  3.042388e+01 -1.675
 8128 1   12.592676  3.112221e+01 -1.675
 8129 1   10.106395  2.830562e+01 -1.675
 8130 1    8.883414  2.902722e+01 -1.675
 8131 1    8.896853  3.044716e+01 -1.675
 8132 1   10.133274  3.114549e+01 -1.675
 8133 1    7.646993  2.832890e+01 -1.675
 8134 1    6.424012  2.905050e+01 -1.675
 8135 1    6.437451  3.047044e+01 -1.675
 8136 1    7.673872  3.116877e+01 -1.675
 8137 1    5.187591  2.835217e+01 -1.675
 8138 1    3.964610  2.907378e+01 -1.675
 8139 1    3.978049  3.049372e+01 -1.675
 8140 1    5.214470  3.119205e+01 -1.675
 8141 1    2.728189  2.837545e+01 -1.675
 8142 1    1.505208  2.909706e+01 -1.675
 8143 1    1.518647  3.051699e+01 -1.675
 8144 1    2.755068  3.121532e+01 -1.675
 8145 1    0.268787  2.839873e+01 -1.675
 8146 1   -0.954194  2.912034e+01 -1.675
 8147 1   -0.940755  3.054027e+01 -1.675
 8148 1    0.295666  3.123860e+01 -1.675
 8149 1   -2.190615  2.842201e+01 -1.675
 8150 1   -3.413596  2.914361e+01 -1.675
 8151 1   -3.400157  3.056355e+01 -1.675
 8152 1   -2.163736  3.126188e+01 -1.675
 8153 1   -4.650017  2.844528e+01 -1.675
 8154 1   -5.872998  2.916689e+01 -1.675
 8155 1   -5.859559  3.058683e+01 -1.675
 8156 1   -4.623138  3.128516e+01 -1.675
 8157 1   -7.109419  2.846856e+01 -1.675
 8158 1   -8.332400  2.919017e+01 -1.675
 8159 1   -8.318961  3.061010e+01 -1.675
 8160 1   -7.082540  3.130843e+01 -1.675
 8161 1   -9.568821  2.849184e+01 -1.675
 8162 1  -10.791802  2.921345e+01 -1.675
 8163 1  -10.778363  3.063338e+01 -1.675
 8164 1   -9.541942  3.133171e+01 -1.675
 8165 1  -12.028223  2.851512e+01 -1.675
 8166 1  -13.251204  2.923672e+01 -1.675
 8167 1  -13.237765  3.065666e+01 -1.675
 8168 1  -12.001344  3.135499e+01 -1.675
 8169 1  -14.487625  2.853839e+01 -1.675
 8170 1  -15.710606  2.926000e+01 -1.675
 8171 1  -15.697167  3.067994e+01 -1.675
 8172 1  -14.460746  3.137827e+01 -1.675
 8173 1  -16.947027  2.856167e+01 -1.675
 8174 1  -18.170008  2.928328e+01 -1.675
 8175 1  -18.156569  3.070321e+01 -1.675
 8176 1  -16.920148  3.140154e+01 -1.675
 8177 1  -19.406429  2.858495e+01 -1.675
 8178 1  -20.629410  2.930656e+01 -1.675
 8179 1  -20.615971  3.072649e+01 -1.675
 8180 1  -19.379550  3.142482e+01 -1.675
 8181 1  -21.865831  2.860823e+01 -1.675
 8182 1  -23.088812  2.932983e+01 -1.675
 8183 1  -23.075373  3.074977e+01 -1.675
 8184 1  -21.838952  3.144810e+01 -1.675
 8185 1  -24.325233  2.863150e+01 -1.675
 8186 1  -25.548214  2.935311e+01 -1.675
 8187 1  -25.534775  3.077305e+01 -1.675
 8188 1  -24.298354  3.147138e+01 -1.675
 8189 1  -26.784635  2.865478e+01 -1.675
 8190 1  -28.007616  2.937639e+01 -1.675
 8191 1  -27.994177  3.079633e+01 -1.675
 8192 1  -26.757756  3.149465e+01 -1.675
 8193 1  -29.244037  2.867806e+01 -1.675
 8194 1  -30.467018  2.939967e+01 -1.675
 8195 1  -30.453579  3.081960e+01 -1.675
 8196 1  -29.217158  3.151793e+01 -1.675
 8197 1  -31.703439  2.870134e+01 -1.675
 8198 1  -32.926420  2.942294e+01 -1.675
 8199 1  -32.912981  3.084288e+01 -1.675
 8200 1  -31.676560  3.154121e+01 -1.675
 8201 1  -34.162841  2.872462e+01 -1.675
 8202 1  -35.385822  2.944622e+01 -1.675
 8203 1  -35.372383  3.086616e+01 -1.675
 8204 1  -34.135962  3.156449e+01 -1.675
 8205 1  -36.622243  2.874789e+01 -1.675
 8206 1  -37.845224  2.946950e+01 -1.675
 8207 1  -37.831785  3.088944e+01 -1.675
 8208 1  -36.595364  3.158777e+01 -1.675
 8209 1  -39.081645  2.877117e+01 -1.675
 8210 1  -40.304626  2.949278e+01 -1.675
 8211 1  -40.291187  3.091271e+01 -1.675
 8212 1  -39.054766  3.161104e+01 -1.675
 8213 1  -41.541047  2.879445e+01 -1.675
 8214 1  -42.764028  2.951606e+01 -1.675
 8215 1  -42.750589  3.093599e+01 -1.675
 8216 1  -41.514168  3.163432e+01 -1.675
 8217 1  -44.000449  2.881773e+01 -1.675
 8218 1  -45.223430  2.953933e+01 -1.675
 8219 1  -45.209991  3.095927e+01 -1.675
 8220 1  -43.973570  3.165760e+01 -1.675
 8221 1  -46.459851  2.884100e+01 -1.675
 8222 1  -47.682832  2.956261e+01 -1.675
 8223 1  -47.669393  3.098255e+01 -1.675
 8224 1  -46.432972  3.168088e+01 -1.675
 8225 1  -48.919253  2.886428e+01 -1.675
 8226 1  -50.142234  2.958589e+01 -1.675
 8227 1  -50.128795  3.100582e+01 -1.675
 8228 1  -48.892374  3.170415e+01 -1.675
 8229 1  -51.378655  2.888756e+01 -1.675
 8230 1  -52.601636  2.960917e+01 -1.675
 8231 1  -52.588197  3.102910e+01 -1.675
 8232 1  -51.351776  3.172743e+01 -1.675
 8233 1  -53.838057  2.891084e+01 -1.675
 8234 1  -55.061038  2.963244e+01 -1.675
 8235 1  -55.047599  3.105238e+01 -1.675
 8236 1  -53.811178  3.175071e+01 -1.675
 8237 1  -56.297459  2.893411e+01 -1.675
 8238 1  -57.520440  2.965572e+01 -1.675
 8239 1  -57.507001  3.107566e+01 -1.675
 8240 1  -56.270580  3.177399e+01 -1.675
 8241 1  -58.756861  2.895739e+01 -1.675
 8242 1  -59.979842  2.967900e+01 -1.675
 8243 1  -59.966403  3.109893e+01 -1.675
 8244 1  -58.729982  3.179726e+01 -1.675
 8245 1  -61.216263  2.898067e+01 -1.675
 8246 1  -62.439244  2.970228e+01 -1.675
 8247 1  -62.425805  3.112221e+01 -1.675
 8248 1  -61.189384  3.182054e+01 -1.675
 8249 1  -63.675665  2.900395e+01 -1.675
 8250 1  -64.898646  2.972555e+01 -1.675
 8251 1  -64.885207  3.114549e+01 -1.675
 8252 1  -63.648786  3.184382e+01 -1.675
 8253 1  -66.135067  2.902722e+01 -1.675
 8254 1  -67.358048  2.974883e+01 -1.675
 8255 1  -67.344609  3.116877e+01 -1.675
 8256 1  -66.108188  3.186710e+01 -1.675
 8257 1  -68.594469  2.905050e+01 -1.675
 8258 1  -69.817450  2.977211e+01 -1.675
 8259 1  -69.804011  3.119205e+01 -1.675
 8260 1  -68.567590  3.189037e+01 -1.675
 8261 1  -71.053871  2.907378e+01 -1.675
 8262 1  -72.276852  2.979539e+01 -1.675
 8263 1  -72.263413  3.121532e+01 -1.675
 8264 1  -71.026992  3.191365e+01 -1.675
 8265 1  -73.513273  2.909706e+01 -1.675
 8266 1  -74.736254  2.981866e+01 -1.675
 8267 1  -74.722815  3.123860e+01 -1.675
 8268 1  -73.486394  3.193693e+01 -1.675
 8269 1  -75.972675  2.912034e+01 -1.675
 8270 1  -77.195656  2.984194e+01 -1.675
 8271 1  -77.182217  3.126188e+01 -1.675
 8272 1  -75.945796  3.196021e+01 -1.675
 8273 1  -78.432077  2.914361e+01 -1.675
 8274 1  -79.655058  2.986522e+01 -1.675
 8275 1  -79.641619  3.128516e+01 -1.675
 8276 1  -78.405198  3.198349e+01 -1.675
 8277 1  -80.891479  2.916689e+01 -1.675
 8278 1  -82.114460  2.988850e+01 -1.675
 8279 1  -82.101021  3.130843e+01 -1.675
 8280 1  -80.864600  3.200676e+01 -1.675
 8281 1  -83.350881  2.919017e+01 -1.675
 8282 1  -84.573862  2.991178e+01 -1.675
 8283 1  -84.560423  3.133171e+01 -1.675
 8284 1  -83.324002  3.203004e+01 -1.675
 8285 1  -85.810283  2.921345e+01 -1.675
 8286 1  -87.033264  2.993505e+01 -1.675
 8287 1  -87.019825  3.135499e+01 -1.675
 8288 1  -85.783404  3.205332e+01 -1.675
 8289 1  -88.269685  2.923672e+01 -1.675
 8290 1  -89.492666  2.995833e+01 -1.675
 8291 1  -89.479227  3.137827e+01 -1.675
 8292 1  -88.242806  3.207660e+01 -1.675
 8293 1  -90.729087  2.926000e+01 -1.675
 8294 1  -91.952068  2.998161e+01 -1.675
 8295 1  -91.938629  3.140154e+01 -1.675
 8296 1  -90.702208  3.209987e+01 -1.675
 8297 1  -93.188489  2.928328e+01 -1.675
 8298 1  -94.411470  3.000489e+01 -1.675
 8299 1  -94.398031  3.142482e+01 -1.675
 8300 1  -93.161610  3.212315e+01 -1.675
 8301 1  -95.647891  2.930656e+01 -1.675
 8302 1  -96.870872  3.002816e+01 -1.675
 8303 1  -96.857432  3.144810e+01 -1.675
 8304 1  -95.621012  3.214643e+01 -1.675
 8305 1  -98.107293  2.932983e+01 -1.675
 8306 1  -99.330274  3.005144e+01 -1.675
 8307 1  -99.316834  3.147138e+01 -1.675
 8308 1  -98.080414  3.216971e+01 -1.675
 8309 1 -100.566695  2.935311e+01 -1.675
 8310 1 -101.789676  3.007472e+01 -1.675
 8311 1 -101.776236  3.149465e+01 -1.675
 8312 1 -100.539816  3.219298e+01 -1.675
 8313 1 -103.026097  2.937639e+01 -1.675
 8314 1 -104.249078  3.009800e+01 -1.675
 8315 1 -104.235638  3.151793e+01 -1.675
 8316 1 -102.999218  3.221626e+01 -1.675
 8317 1 -105.485498  2.939967e+01 -1.675
 8318 1 -106.708480  3.012127e+01 -1.675
 8319 1 -106.695040  3.154121e+01 -1.675
 8320 1 -105.458620  3.223954e+01 -1.675
 8321 1 -107.944900  2.942294e+01 -1.675
 8322 1 -109.167882  3.014455e+01 -1.675
 8323 1 -109.154442  3.156449e+01 -1.675
 8324 1 -107.918022  3.226282e+01 -1.675
 8325 1 -110.404302  2.944622e+01 -1.675
 8326 1 -111.627284  3.016783e+01 -1.675
 8327 1 -111.613844  3.158777e+01 -1.675
 8328 1 -110.377424  3.228609e+01 -1.675
 8329 1  112.218615  3.230937e+01 -1.675
 8330 1  112.232055  3.372931e+01 -1.675
 8331 1  110.982195  3.161104e+01 -1.675
 8332 1  109.759213  3.233265e+01 -1.675
 8333 1  109.772653  3.375259e+01 -1.675
 8334 1  111.009073  3.445092e+01 -1.675
 8335 1  108.522793  3.163432e+01 -1.675
 8336 1  107.299811  3.235593e+01 -1.675
 8337 1  107.313251  3.377586e+01 -1.675
 8338 1  108.549671  3.447419e+01 -1.675
 8339 1  106.063391  3.165760e+01 -1.675
 8340 1  104.840409  3.237921e+01 -1.675
 8341 1  104.853849  3.379914e+01 -1.675
 8342 1  106.090269  3.449747e+01 -1.675
 8343 1  103.603989  3.168088e+01 -1.675
 8344 1  102.381007  3.240248e+01 -1.675
 8345 1  102.394447  3.382242e+01 -1.675
 8346 1  103.630867  3.452075e+01 -1.675
 8347 1  101.144587  3.170415e+01 -1.675
 8348 1   99.921605  3.242576e+01 -1.675
 8349 1   99.935045  3.384570e+01 -1.675
 8350 1  101.171465  3.454403e+01 -1.675
 8351 1   98.685185  3.172743e+01 -1.675
 8352 1   97.462203  3.244904e+01 -1.675
 8353 1   97.475643  3.386897e+01 -1.675
 8354 1   98.712064  3.456730e+01 -1.675
 8355 1   96.225783  3.175071e+01 -1.675
 8356 1   95.002801  3.247232e+01 -1.675
 8357 1   95.016241  3.389225e+01 -1.675
 8358 1   96.252662  3.459058e+01 -1.675
 8359 1   93.766381  3.177399e+01 -1.675
 8360 1   92.543399  3.249559e+01 -1.675
 8361 1   92.556839  3.391553e+01 -1.675
 8362 1   93.793260  3.461386e+01 -1.675
 8363 1   91.306979  3.179726e+01 -1.675
 8364 1   90.083998  3.251887e+01 -1.675
 8365 1   90.097437  3.393881e+01 -1.675
 8366 1   91.333858  3.463714e+01 -1.675
 8367 1   88.847577  3.182054e+01 -1.675
 8368 1   87.624596  3.254215e+01 -1.675
 8369 1   87.638035  3.396209e+01 -1.675
 8370 1   88.874456  3.466041e+01 -1.675
 8371 1   86.388175  3.184382e+01 -1.675
 8372 1   85.165194  3.256543e+01 -1.675
 8373 1   85.178633  3.398536e+01 -1.675
 8374 1   86.415054  3.468369e+01 -1.675
 8375 1   83.928773  3.186710e+01 -1.675
 8376 1   82.705792  3.258870e+01 -1.675
 8377 1   82.719231  3.400864e+01 -1.675
 8378 1   83.955652  3.470697e+01 -1.675
 8379 1   81.469371  3.189037e+01 -1.675
 8380 1   80.246390  3.261198e+01 -1.675
 8381 1   80.259829  3.403192e+01 -1.675
 8382 1   81.496250  3.473025e+01 -1.675
 8383 1   79.009969  3.191365e+01 -1.675
 8384 1   77.786988  3.263526e+01 -1.675
 8385 1   77.800427  3.405520e+01 -1.675
 8386 1   79.036848  3.475353e+01 -1.675
 8387 1   76.550567  3.193693e+01 -1.675
 8388 1   75.327586  3.265854e+01 -1.675
 8389 1   75.341025  3.407847e+01 -1.675
 8390 1   76.577446  3.477680e+01 -1.675
 8391 1   74.091165  3.196021e+01 -1.675
 8392 1   72.868184  3.268181e+01 -1.675
 8393 1   72.881623  3.410175e+01 -1.675
 8394 1   74.118044  3.480008e+01 -1.675
 8395 1   71.631763  3.198349e+01 -1.675
 8396 1   70.408782  3.270509e+01 -1.675
 8397 1   70.422221  3.412503e+01 -1.675
 8398 1   71.658642  3.482336e+01 -1.675
 8399 1   69.172361  3.200676e+01 -1.675
 8400 1   67.949380  3.272837e+01 -1.675
 8401 1   67.962819  3.414831e+01 -1.675
 8402 1   69.199240  3.484664e+01 -1.675
 8403 1   66.712959  3.203004e+01 -1.675
 8404 1   65.489978  3.275165e+01 -1.675
 8405 1   65.503417  3.417158e+01 -1.675
 8406 1   66.739838  3.486991e+01 -1.675
 8407 1   64.253557  3.205332e+01 -1.675
 8408 1   63.030576  3.277493e+01 -1.675
 8409 1   63.044015  3.419486e+01 -1.675
 8410 1   64.280436  3.489319e+01 -1.675
 8411 1   61.794155  3.207660e+01 -1.675
 8412 1   60.571174  3.279820e+01 -1.675
 8413 1   60.584613  3.421814e+01 -1.675
 8414 1   61.821034  3.491647e+01 -1.675
 8415 1   59.334753  3.209987e+01 -1.675
 8416 1   58.111772  3.282148e+01 -1.675
 8417 1   58.125211  3.424142e+01 -1.675
 8418 1   59.361632  3.493975e+01 -1.675
 8419 1   56.875351  3.212315e+01 -1.675
 8420 1   55.652370  3.284476e+01 -1.675
 8421 1   55.665809  3.426469e+01 -1.675
 8422 1   56.902230  3.496302e+01 -1.675
 8423 1   54.415949  3.214643e+01 -1.675
 8424 1   53.192968  3.286804e+01 -1.675
 8425 1   53.206407  3.428797e+01 -1.675
 8426 1   54.442828  3.498630e+01 -1.675
 8427 1   51.956547  3.216971e+01 -1.675
 8428 1   50.733566  3.289131e+01 -1.675
 8429 1   50.747005  3.431125e+01 -1.675
 8430 1   51.983426  3.500958e+01 -1.675
 8431 1   49.497145  3.219298e+01 -1.675
 8432 1   48.274164  3.291459e+01 -1.675
 8433 1   48.287603  3.433453e+01 -1.675
 8434 1   49.524024  3.503286e+01 -1.675
 8435 1   47.037743  3.221626e+01 -1.675
 8436 1   45.814762  3.293787e+01 -1.675
 8437 1   45.828201  3.435781e+01 -1.675
 8438 1   47.064622  3.505613e+01 -1.675
 8439 1   44.578341  3.223954e+01 -1.675
 8440 1   43.355360  3.296115e+01 -1.675
 8441 1   43.368799  3.438108e+01 -1.675
 8442 1   44.605220  3.507941e+01 -1.675
 8443 1   42.118939  3.226282e+01 -1.675
 8444 1   40.895958  3.298442e+01 -1.675
 8445 1   40.909397  3.440436e+01 -1.675
 8446 1   42.145818  3.510269e+01 -1.675
 8447 1   39.659537  3.228609e+01 -1.675
 8448 1   38.436556  3.300770e+01 -1.675
 8449 1   38.449995  3.442764e+01 -1.675
 8450 1   39.686416  3.512597e+01 -1.675
 8451 1   37.200135  3.230937e+01 -1.675
 8452 1   35.977154  3.303098e+01 -1.675
 8453 1   35.990593  3.445092e+01 -1.675
 8454 1   37.227014  3.514925e+01 -1.675
 8455 1   34.740733  3.233265e+01 -1.675
 8456 1   33.517752  3.305426e+01 -1.675
 8457 1   33.531191  3.447419e+01 -1.675
 8458 1   34.767612  3.517252e+01 -1.675
 8459 1   32.281331  3.235593e+01 -1.675
 8460 1   31.058350  3.307753e+01 -1.675
 8461 1   31.071789  3.449747e+01 -1.675
 8462 1   32.308210  3.519580e+01 -1.675
 8463 1   29.821929  3.237921e+01 -1.675
 8464 1   28.598948  3.310081e+01 -1.675
 8465 1   28.612387  3.452075e+01 -1.675
 8466 1   29.848808  3.521908e+01 -1.675
 8467 1   27.362527  3.240248e+01 -1.675
 8468 1   26.139546  3.312409e+01 -1.675
 8469 1   26.152985  3.454403e+01 -1.675
 8470 1   27.389406  3.524236e+01 -1.675
 8471 1   24.903125  3.242576e+01 -1.675
 8472 1   23.680144  3.314737e+01 -1.675
 8473 1   23.693583  3.456730e+01 -1.675
 8474 1   24.930004  3.526563e+01 -1.675
 8475 1   22.443723  3.244904e+01 -1.675
 8476 1   21.220742  3.317065e+01 -1.675
 8477 1   21.234181  3.459058e+01 -1.675
 8478 1   22.470602  3.528891e+01 -1.675
 8479 1   19.984321  3.247232e+01 -1.675
 8480 1   18.761340  3.319392e+01 -1.675
 8481 1   18.774779  3.461386e+01 -1.675
 8482 1   20.011200  3.531219e+01 -1.675
 8483 1   17.524919  3.249559e+01 -1.675
 8484 1   16.301938  3.321720e+01 -1.675
 8485 1   16.315377  3.463714e+01 -1.675
 8486 1   17.551798  3.533547e+01 -1.675
 8487 1   15.065517  3.251887e+01 -1.675
 8488 1   13.842536  3.324048e+01 -1.675
 8489 1   13.855975  3.466041e+01 -1.675
 8490 1   15.092396  3.535874e+01 -1.675
 8491 1   12.606115  3.254215e+01 -1.675
 8492 1   11.383134  3.326376e+01 -1.675
 8493 1   11.396573  3.468369e+01 -1.675
 8494 1   12.632994  3.538202e+01 -1.675
 8495 1   10.146713  3.256543e+01 -1.675
 8496 1    8.923732  3.328703e+01 -1.675
 8497 1    8.937171  3.470697e+01 -1.675
 8498 1   10.173592  3.540530e+01 -1.675
 8499 1    7.687311  3.258870e+01 -1.675
 8500 1    6.464330  3.331031e+01 -1.675
 8501 1    6.477769  3.473025e+01 -1.675
 8502 1    7.714190  3.542858e+01 -1.675
 8503 1    5.227909  3.261198e+01 -1.675
 8504 1    4.004928  3.333359e+01 -1.675
 8505 1    4.018367  3.475353e+01 -1.675
 8506 1    5.254788  3.545185e+01 -1.675
 8507 1    2.768507  3.263526e+01 -1.675
 8508 1    1.545526  3.335687e+01 -1.675
 8509 1    1.558965  3.477680e+01 -1.675
 8510 1    2.795386  3.547513e+01 -1.675
 8511 1    0.309105  3.265854e+01 -1.675
 8512 1   -0.913876  3.338014e+01 -1.675
 8513 1   -0.900437  3.480008e+01 -1.675
 8514 1    0.335984  3.549841e+01 -1.675
 8515 1   -2.150297  3.268181e+01 -1.675
 8516 1   -3.373278  3.340342e+01 -1.675
 8517 1   -3.359839  3.482336e+01 -1.675
 8518 1   -2.123418  3.552169e+01 -1.675
 8519 1   -4.609699  3.270509e+01 -1.675
 8520 1   -5.832680  3.342670e+01 -1.675
 8521 1   -5.819241  3.484664e+01 -1.675
 8522 1   -4.582820  3.554497e+01 -1.675
 8523 1   -7.069101  3.272837e+01 -1.675
 8524 1   -8.292082  3.344998e+01 -1.675
 8525 1   -8.278643  3.486991e+01 -1.675
 8526 1   -7.042222  3.556824e+01 -1.675
 8527 1   -9.528503  3.275165e+01 -1.675
 8528 1  -10.751484  3.347325e+01 -1.675
 8529 1  -10.738045  3.489319e+01 -1.675
 8530 1   -9.501624  3.559152e+01 -1.675
 8531 1  -11.987905  3.277493e+01 -1.675
 8532 1  -13.210886  3.349653e+01 -1.675
 8533 1  -13.197447  3.491647e+01 -1.675
 8534 1  -11.961026  3.561480e+01 -1.675
 8535 1  -14.447307  3.279820e+01 -1.675
 8536 1  -15.670288  3.351981e+01 -1.675
 8537 1  -15.656849  3.493975e+01 -1.675
 8538 1  -14.420428  3.563808e+01 -1.675
 8539 1  -16.906709  3.282148e+01 -1.675
 8540 1  -18.129690  3.354309e+01 -1.675
 8541 1  -18.116251  3.496302e+01 -1.675
 8542 1  -16.879830  3.566135e+01 -1.675
 8543 1  -19.366111  3.284476e+01 -1.675
 8544 1  -20.589092  3.356637e+01 -1.675
 8545 1  -20.575653  3.498630e+01 -1.675
 8546 1  -19.339232  3.568463e+01 -1.675
 8547 1  -21.825513  3.286804e+01 -1.675
 8548 1  -23.048494  3.358964e+01 -1.675
 8549 1  -23.035055  3.500958e+01 -1.675
 8550 1  -21.798634  3.570791e+01 -1.675
 8551 1  -24.284915  3.289131e+01 -1.675
 8552 1  -25.507896  3.361292e+01 -1.675
 8553 1  -25.494457  3.503286e+01 -1.675
 8554 1  -24.258036  3.573119e+01 -1.675
 8555 1  -26.744317  3.291459e+01 -1.675
 8556 1  -27.967298  3.363620e+01 -1.675
 8557 1  -27.953859  3.505613e+01 -1.675
 8558 1  -26.717438  3.575446e+01 -1.675
 8559 1  -29.203719  3.293787e+01 -1.675
 8560 1  -30.426700  3.365948e+01 -1.675
 8561 1  -30.413261  3.507941e+01 -1.675
 8562 1  -29.176840  3.577774e+01 -1.675
 8563 1  -31.663121  3.296115e+01 -1.675
 8564 1  -32.886102  3.368275e+01 -1.675
 8565 1  -32.872663  3.510269e+01 -1.675
 8566 1  -31.636242  3.580102e+01 -1.675
 8567 1  -34.122523  3.298442e+01 -1.675
 8568 1  -35.345504  3.370603e+01 -1.675
 8569 1  -35.332065  3.512597e+01 -1.675
 8570 1  -34.095644  3.582430e+01 -1.675
 8571 1  -36.581925  3.300770e+01 -1.675
 8572 1  -37.804906  3.372931e+01 -1.675
 8573 1  -37.791467  3.514925e+01 -1.675
 8574 1  -36.555046  3.584757e+01 -1.675
 8575 1  -39.041327  3.303098e+01 -1.675
 8576 1  -40.264308  3.375259e+01 -1.675
 8577 1  -40.250869  3.517252e+01 -1.675
 8578 1  -39.014448  3.587085e+01 -1.675
 8579 1  -41.500729  3.305426e+01 -1.675
 8580 1  -42.723710  3.377586e+01 -1.675
 8581 1  -42.710271  3.519580e+01 -1.675
 8582 1  -41.473850  3.589413e+01 -1.675
 8583 1  -43.960131  3.307753e+01 -1.675
 8584 1  -45.183112  3.379914e+01 -1.675
 8585 1  -45.169673  3.521908e+01 -1.675
 8586 1  -43.933252  3.591741e+01 -1.675
 8587 1  -46.419533  3.310081e+01 -1.675
 8588 1  -47.642514  3.382242e+01 -1.675
 8589 1  -47.629075  3.524236e+01 -1.675
 8590 1  -46.392654  3.594069e+01 -1.675
 8591 1  -48.878935  3.312409e+01 -1.675
 8592 1  -50.101916  3.384570e+01 -1.675
 8593 1  -50.088477  3.526563e+01 -1.675
 8594 1  -48.852056  3.596396e+01 -1.675
 8595 1  -51.338337  3.314737e+01 -1.675
 8596 1  -52.561318  3.386897e+01 -1.675
 8597 1  -52.547879  3.528891e+01 -1.675
 8598 1  -51.311458  3.598724e+01 -1.675
 8599 1  -53.797739  3.317065e+01 -1.675
 8600 1  -55.020720  3.389225e+01 -1.675
 8601 1  -55.007281  3.531219e+01 -1.675
 8602 1  -53.770860  3.601052e+01 -1.675
 8603 1  -56.257141  3.319392e+01 -1.675
 8604 1  -57.480122  3.391553e+01 -1.675
 8605 1  -57.466683  3.533547e+01 -1.675
 8606 1  -56.230262  3.603380e+01 -1.675
 8607 1  -58.716543  3.321720e+01 -1.675
 8608 1  -59.939524  3.393881e+01 -1.675
 8609 1  -59.926085  3.535874e+01 -1.675
 8610 1  -58.689664  3.605707e+01 -1.675
 8611 1  -61.175945  3.324048e+01 -1.675
 8612 1  -62.398926  3.396209e+01 -1.675
 8613 1  -62.385487  3.538202e+01 -1.675
 8614 1  -61.149066  3.608035e+01 -1.675
 8615 1  -63.635347  3.326376e+01 -1.675
 8616 1  -64.858328  3.398536e+01 -1.675
 8617 1  -64.844889  3.540530e+01 -1.675
 8618 1  -63.608468  3.610363e+01 -1.675
 8619 1  -66.094749  3.328703e+01 -1.675
 8620 1  -67.317730  3.400864e+01 -1.675
 8621 1  -67.304291  3.542858e+01 -1.675
 8622 1  -66.067870  3.612691e+01 -1.675
 8623 1  -68.554151  3.331031e+01 -1.675
 8624 1  -69.777132  3.403192e+01 -1.675
 8625 1  -69.763693  3.545185e+01 -1.675
 8626 1  -68.527272  3.615018e+01 -1.675
 8627 1  -71.013553  3.333359e+01 -1.675
 8628 1  -72.236534  3.405520e+01 -1.675
 8629 1  -72.223095  3.547513e+01 -1.675
 8630 1  -70.986674  3.617346e+01 -1.675
 8631 1  -73.472955  3.335687e+01 -1.675
 8632 1  -74.695936  3.407847e+01 -1.675
 8633 1  -74.682497  3.549841e+01 -1.675
 8634 1  -73.446076  3.619674e+01 -1.675
 8635 1  -75.932357  3.338014e+01 -1.675
 8636 1  -77.155338  3.410175e+01 -1.675
 8637 1  -77.141899  3.552169e+01 -1.675
 8638 1  -75.905478  3.622002e+01 -1.675
 8639 1  -78.391759  3.340342e+01 -1.675
 8640 1  -79.614740  3.412503e+01 -1.675
 8641 1  -79.601300  3.554497e+01 -1.675
 8642 1  -78.364880  3.624329e+01 -1.675
 8643 1  -80.851161  3.342670e+01 -1.675
 8644 1  -82.074142  3.414831e+01 -1.675
 8645 1  -82.060702  3.556824e+01 -1.675
 8646 1  -80.824282  3.626657e+01 -1.675
 8647 1  -83.310563  3.344998e+01 -1.675
 8648 1  -84.533544  3.417158e+01 -1.675
 8649 1  -84.520104  3.559152e+01 -1.675
 8650 1  -83.283684  3.628985e+01 -1.675
 8651 1  -85.769965  3.347325e+01 -1.675
 8652 1  -86.992946  3.419486e+01 -1.675
 8653 1  -86.979506  3.561480e+01 -1.675
 8654 1  -85.743086  3.631313e+01 -1.675
 8655 1  -88.229366  3.349653e+01 -1.675
 8656 1  -89.452348  3.421814e+01 -1.675
 8657 1  -89.438908  3.563808e+01 -1.675
 8658 1  -88.202488  3.633641e+01 -1.675
 8659 1  -90.688768  3.351981e+01 -1.675
 8660 1  -91.911750  3.424142e+01 -1.675
 8661 1  -91.898310  3.566135e+01 -1.675
 8662 1  -90.661890  3.635968e+01 -1.675
 8663 1  -93.148170  3.354309e+01 -1.675
 8664 1  -94.371152  3.426469e+01 -1.675
 8665 1  -94.357712  3.568463e+01 -1.675
 8666 1  -93.121292  3.638296e+01 -1.675
 8667 1  -95.607572  3.356637e+01 -1.675
 8668 1  -96.830554  3.428797e+01 -1.675
 8669 1  -96.817114  3.570791e+01 -1.675
 8670 1  -95.580694  3.640624e+01 -1.675
 8671 1  -98.066974  3.358964e+01 -1.675
 8672 1  -99.289956  3.431125e+01 -1.675
 8673 1  -99.276516  3.573119e+01 -1.675
 8674 1  -98.040096  3.642952e+01 -1.675
 8675 1 -100.526376  3.361292e+01 -1.675
 8676 1 -101.749358  3.433453e+01 -1.675
 8677 1 -101.735918  3.575446e+01 -1.675
 8678 1 -100.499498  3.645279e+01 -1.675
 8679 1 -102.985778  3.363620e+01 -1.675
 8680 1 -104.208760  3.435781e+01 -1.675
 8681 1 -104.195320  3.577774e+01 -1.675
 8682 1 -102.958900  3.647607e+01 -1.675
 8683 1 -105.445180  3.365948e+01 -1.675
 8684 1 -106.668162  3.438108e+01 -1.675
 8685 1 -106.654722  3.580102e+01 -1.675
 8686 1 -105.418302  3.649935e+01 -1.675
 8687 1 -107.904582  3.368275e+01 -1.675
 8688 1 -109.127564  3.440436e+01 -1.675
 8689 1 -109.114124  3.582430e+01 -1.675
 8690 1 -107.877704  3.652263e+01 -1.675
 8691 1 -110.363984  3.370603e+01 -1.675
 8692 1 -111.586966  3.442764e+01 -1.675
 8693 1 -111.573526  3.584757e+01 -1.675
 8694 1 -110.337106  3.654590e+01 -1.675
 8695 1  112.258933  3.656918e+01 -1.675
 8696 1  112.272373  3.798912e+01 -1.675
 8697 1  111.022513  3.587085e+01 -1.675
 8698 1  109.799531  3.659246e+01 -1.675
 8699 1  109.812971  3.801240e+01 -1.675
 8700 1  111.049392  3.871073e+01 -1.675
 8701 1  108.563111  3.589413e+01 -1.675
 8702 1  107.340130  3.661574e+01 -1.675
 8703 1  107.353569  3.803567e+01 -1.675
 8704 1  108.589990  3.873400e+01 -1.675
 8705 1  106.103709  3.591741e+01 -1.675
 8706 1  104.880728  3.663901e+01 -1.675
 8707 1  104.894167  3.805895e+01 -1.675
 8708 1  106.130588  3.875728e+01 -1.675
 8709 1  103.644307  3.594069e+01 -1.675
 8710 1  102.421326  3.666229e+01 -1.675
 8711 1  102.434765  3.808223e+01 -1.675
 8712 1  103.671186  3.878056e+01 -1.675
 8713 1  101.184905  3.596396e+01 -1.675
 8714 1   99.961924  3.668557e+01 -1.675
 8715 1   99.975363  3.810551e+01 -1.675
 8716 1  101.211784  3.880384e+01 -1.675
 8717 1   98.725503  3.598724e+01 -1.675
 8718 1   97.502522  3.670885e+01 -1.675
 8719 1   97.515961  3.812878e+01 -1.675
 8720 1   98.752382  3.882711e+01 -1.675
 8721 1   96.266101  3.601052e+01 -1.675
 8722 1   95.043120  3.673213e+01 -1.675
 8723 1   95.056559  3.815206e+01 -1.675
 8724 1   96.292980  3.885039e+01 -1.675
 8725 1   93.806699  3.603380e+01 -1.675
 8726 1   92.583718  3.675540e+01 -1.675
 8727 1   92.597157  3.817534e+01 -1.675
 8728 1   93.833578  3.887367e+01 -1.675
 8729 1   91.347297  3.605707e+01 -1.675
 8730 1   90.124316  3.677868e+01 -1.675
 8731 1   90.137755  3.819862e+01 -1.675
 8732 1   91.374176  3.889695e+01 -1.675
 8733 1   88.887895  3.608035e+01 -1.675
 8734 1   87.664914  3.680196e+01 -1.675
 8735 1   87.678353  3.822189e+01 -1.675
 8736 1   88.914774  3.892022e+01 -1.675
 8737 1   86.428493  3.610363e+01 -1.675
 8738 1   85.205512  3.682524e+01 -1.675
 8739 1   85.218951  3.824517e+01 -1.675
 8740 1   86.455372  3.894350e+01 -1.675
 8741 1   83.969091  3.612691e+01 -1.675
 8742 1   82.746110  3.684851e+01 -1.675
 8743 1   82.759549  3.826845e+01 -1.675
 8744 1   83.995970  3.896678e+01 -1.675
 8745 1   81.509689  3.615018e+01 -1.675
 8746 1   80.286708  3.687179e+01 -1.675
 8747 1   80.300147  3.829173e+01 -1.675
 8748 1   81.536568  3.899006e+01 -1.675
 8749 1   79.050287  3.617346e+01 -1.675
 8750 1   77.827306  3.689507e+01 -1.675
 8751 1   77.840745  3.831501e+01 -1.675
 8752 1   79.077166  3.901333e+01 -1.675
 8753 1   76.590885  3.619674e+01 -1.675
 8754 1   75.367904  3.691835e+01 -1.675
 8755 1   75.381343  3.833828e+01 -1.675
 8756 1   76.617764  3.903661e+01 -1.675
 8757 1   74.131483  3.622002e+01 -1.675
 8758 1   72.908502  3.694162e+01 -1.675
 8759 1   72.921941  3.836156e+01 -1.675
 8760 1   74.158362  3.905989e+01 -1.675
 8761 1   71.672081  3.624329e+01 -1.675
 8762 1   70.449100  3.696490e+01 -1.675
 8763 1   70.462539  3.838484e+01 -1.675
 8764 1   71.698960  3.908317e+01 -1.675
 8765 1   69.212679  3.626657e+01 -1.675
 8766 1   67.989698  3.698818e+01 -1.675
 8767 1   68.003137  3.840812e+01 -1.675
 8768 1   69.239558  3.910645e+01 -1.675
 8769 1   66.753277  3.628985e+01 -1.675
 8770 1   65.530296  3.701146e+01 -1.675
 8771 1   65.543735  3.843139e+01 -1.675
 8772 1   66.780156  3.912972e+01 -1.675
 8773 1   64.293875  3.631313e+01 -1.675
 8774 1   63.070894  3.703473e+01 -1.675
 8775 1   63.084333  3.845467e+01 -1.675
 8776 1   64.320754  3.915300e+01 -1.675
 8777 1   61.834473  3.633641e+01 -1.675
 8778 1   60.611492  3.705801e+01 -1.675
 8779 1   60.624931  3.847795e+01 -1.675
 8780 1   61.861352  3.917628e+01 -1.675
 8781 1   59.375071  3.635968e+01 -1.675
 8782 1   58.152090  3.708129e+01 -1.675
 8783 1   58.165529  3.850123e+01 -1.675
 8784 1   59.401950  3.919956e+01 -1.675
 8785 1   56.915669  3.638296e+01 -1.675
 8786 1   55.692688  3.710457e+01 -1.675
 8787 1   55.706127  3.852450e+01 -1.675
 8788 1   56.942548  3.922283e+01 -1.675
 8789 1   54.456267  3.640624e+01 -1.675
 8790 1   53.233286  3.712785e+01 -1.675
 8791 1   53.246725  3.854778e+01 -1.675
 8792 1   54.483146  3.924611e+01 -1.675
 8793 1   51.996865  3.642952e+01 -1.675
 8794 1   50.773884  3.715112e+01 -1.675
 8795 1   50.787323  3.857106e+01 -1.675
 8796 1   52.023744  3.926939e+01 -1.675
 8797 1   49.537463  3.645279e+01 -1.675
 8798 1   48.314482  3.717440e+01 -1.675
 8799 1   48.327921  3.859434e+01 -1.675
 8800 1   49.564342  3.929267e+01 -1.675
 8801 1   47.078061  3.647607e+01 -1.675
 8802 1   45.855080  3.719768e+01 -1.675
 8803 1   45.868519  3.861761e+01 -1.675
 8804 1   47.104940  3.931594e+01 -1.675
 8805 1   44.618659  3.649935e+01 -1.675
 8806 1   43.395678  3.722096e+01 -1.675
 8807 1   43.409117  3.864089e+01 -1.675
 8808 1   44.645538  3.933922e+01 -1.675
 8809 1   42.159257  3.652263e+01 -1.675
 8810 1   40.936276  3.724423e+01 -1.675
 8811 1   40.949715  3.866417e+01 -1.675
 8812 1   42.186136  3.936250e+01 -1.675
 8813 1   39.699855  3.654590e+01 -1.675
 8814 1   38.476874  3.726751e+01 -1.675
 8815 1   38.490313  3.868745e+01 -1.675
 8816 1   39.726734  3.938578e+01 -1.675
 8817 1   37.240453  3.656918e+01 -1.675
 8818 1   36.017472  3.729079e+01 -1.675
 8819 1   36.030911  3.871073e+01 -1.675
 8820 1   37.267332  3.940905e+01 -1.675
 8821 1   34.781051  3.659246e+01 -1.675
 8822 1   33.558070  3.731407e+01 -1.675
 8823 1   33.571509  3.873400e+01 -1.675
 8824 1   34.807930  3.943233e+01 -1.675
 8825 1   32.321649  3.661574e+01 -1.675
 8826 1   31.098668  3.733734e+01 -1.675
 8827 1   31.112107  3.875728e+01 -1.675
 8828 1   32.348528  3.945561e+01 -1.675
 8829 1   29.862247  3.663901e+01 -1.675
 8830 1   28.639266  3.736062e+01 -1.675
 8831 1   28.652705  3.878056e+01 -1.675
 8832 1   29.889126  3.947889e+01 -1.675
 8833 1   27.402845  3.666229e+01 -1.675
 8834 1   26.179864  3.738390e+01 -1.675
 8835 1   26.193303  3.880384e+01 -1.675
 8836 1   27.429724  3.950217e+01 -1.675
 8837 1   24.943443  3.668557e+01 -1.675
 8838 1   23.720462  3.740718e+01 -1.675
 8839 1   23.733901  3.882711e+01 -1.675
 8840 1   24.970322  3.952544e+01 -1.675
 8841 1   22.484041  3.670885e+01 -1.675
 8842 1   21.261060  3.743045e+01 -1.675
 8843 1   21.274499  3.885039e+01 -1.675
 8844 1   22.510920  3.954872e+01 -1.675
 8845 1   20.024639  3.673213e+01 -1.675
 8846 1   18.801658  3.745373e+01 -1.675
 8847 1   18.815097  3.887367e+01 -1.675
 8848 1   20.051518  3.957200e+01 -1.675
 8849 1   17.565237  3.675540e+01 -1.675
 8850 1   16.342256  3.747701e+01 -1.675
 8851 1   16.355695  3.889695e+01 -1.675
 8852 1   17.592116  3.959528e+01 -1.675
 8853 1   15.105835  3.677868e+01 -1.675
 8854 1   13.882854  3.750029e+01 -1.675
 8855 1   13.896293  3.892022e+01 -1.675
 8856 1   15.132714  3.961855e+01 -1.675
 8857 1   12.646433  3.680196e+01 -1.675
 8858 1   11.423452  3.752357e+01 -1.675
 8859 1   11.436891  3.894350e+01 -1.675
 8860 1   12.673312  3.964183e+01 -1.675
 8861 1   10.187031  3.682524e+01 -1.675
 8862 1    8.964050  3.754684e+01 -1.675
 8863 1    8.977489  3.896678e+01 -1.675
 8864 1   10.213910  3.966511e+01 -1.675
 8865 1    7.727629  3.684851e+01 -1.675
 8866 1    6.504648  3.757012e+01 -1.675
 8867 1    6.518087  3.899006e+01 -1.675
 8868 1    7.754508  3.968839e+01 -1.675
 8869 1    5.268227  3.687179e+01 -1.675
 8870 1    4.045246  3.759340e+01 -1.675
 8871 1    4.058685  3.901333e+01 -1.675
 8872 1    5.295106  3.971166e+01 -1.675
 8873 1    2.808825  3.689507e+01 -1.675
 8874 1    1.585844  3.761668e+01 -1.675
 8875 1    1.599283  3.903661e+01 -1.675
 8876 1    2.835704  3.973494e+01 -1.675
 8877 1    0.349423  3.691835e+01 -1.675
 8878 1   -0.873558  3.763995e+01 -1.675
 8879 1   -0.860119  3.905989e+01 -1.675
 8880 1    0.376302  3.975822e+01 -1.675
 8881 1   -2.109979  3.694162e+01 -1.675
 8882 1   -3.332960  3.766323e+01 -1.675
 8883 1   -3.319521  3.908317e+01 -1.675
 8884 1   -2.083100  3.978150e+01 -1.675
 8885 1   -4.569381  3.696490e+01 -1.675
 8886 1   -5.792362  3.768651e+01 -1.675
 8887 1   -5.778923  3.910645e+01 -1.675
 8888 1   -4.542502  3.980477e+01 -1.675
 8889 1   -7.028783  3.698818e+01 -1.675
 8890 1   -8.251764  3.770979e+01 -1.675
 8891 1   -8.238325  3.912972e+01 -1.675
 8892 1   -7.001904  3.982805e+01 -1.675
 8893 1   -9.488185  3.701146e+01 -1.675
 8894 1  -10.711166  3.773306e+01 -1.675
 8895 1  -10.697727  3.915300e+01 -1.675
 8896 1   -9.461306  3.985133e+01 -1.675
 8897 1  -11.947587  3.703473e+01 -1.675
 8898 1  -13.170568  3.775634e+01 -1.675
 8899 1  -13.157129  3.917628e+01 -1.675
 8900 1  -11.920708  3.987461e+01 -1.675
 8901 1  -14.406989  3.705801e+01 -1.675
 8902 1  -15.629970  3.777962e+01 -1.675
 8903 1  -15.616531  3.919956e+01 -1.675
 8904 1  -14.380110  3.989789e+01 -1.675
 8905 1  -16.866391  3.708129e+01 -1.675
 8906 1  -18.089372  3.780290e+01 -1.675
 8907 1  -18.075933  3.922283e+01 -1.675
 8908 1  -16.839512  3.992116e+01 -1.675
 8909 1  -19.325793  3.710457e+01 -1.675
 8910 1  -20.548774  3.782617e+01 -1.675
 8911 1  -20.535335  3.924611e+01 -1.675
 8912 1  -19.298914  3.994444e+01 -1.675
 8913 1  -21.785195  3.712785e+01 -1.675
 8914 1  -23.008176  3.784945e+01 -1.675
 8915 1  -22.994737  3.926939e+01 -1.675
 8916 1  -21.758316  3.996772e+01 -1.675
 8917 1  -24.244597  3.715112e+01 -1.675
 8918 1  -25.467578  3.787273e+01 -1.675
 8919 1  -25.454139  3.929267e+01 -1.675
 8920 1  -24.217718  3.999100e+01 -1.675
 8921 1  -26.703999  3.717440e+01 -1.675
 8922 1  -27.926980  3.789601e+01 -1.675
 8923 1  -27.913541  3.931594e+01 -1.675
 8924 1  -26.677120  4.001427e+01 -1.675
 8925 1  -29.163401  3.719768e+01 -1.675
 8926 1  -30.386382  3.791929e+01 -1.675
 8927 1  -30.372943  3.933922e+01 -1.675
 8928 1  -29.136522  4.003755e+01 -1.675
 8929 1  -31.622803  3.722096e+01 -1.675
 8930 1  -32.845784  3.794256e+01 -1.675
 8931 1  -32.832345  3.936250e+01 -1.675
 8932 1  -31.595924  4.006083e+01 -1.675
 8933 1  -34.082205  3.724423e+01 -1.675
 8934 1  -35.305186  3.796584e+01 -1.675
 8935 1  -35.291747  3.938578e+01 -1.675
 8936 1  -34.055326  4.008411e+01 -1.675
 8937 1  -36.541607  3.726751e+01 -1.675
 8938 1  -37.764588  3.798912e+01 -1.675
 8939 1  -37.751149  3.940905e+01 -1.675
 8940 1  -36.514728  4.010738e+01 -1.675
 8941 1  -39.001009  3.729079e+01 -1.675
 8942 1  -40.223990  3.801240e+01 -1.675
 8943 1  -40.210551  3.943233e+01 -1.675
 8944 1  -38.974130  4.013066e+01 -1.675
 8945 1  -41.460411  3.731407e+01 -1.675
 8946 1  -42.683392  3.803567e+01 -1.675
 8947 1  -42.669953  3.945561e+01 -1.675
 8948 1  -41.433532  4.015394e+01 -1.675
 8949 1  -43.919813  3.733734e+01 -1.675
 8950 1  -45.142794  3.805895e+01 -1.675
 8951 1  -45.129355  3.947889e+01 -1.675
 8952 1  -43.892934  4.017722e+01 -1.675
 8953 1  -46.379215  3.736062e+01 -1.675
 8954 1  -47.602196  3.808223e+01 -1.675
 8955 1  -47.588757  3.950217e+01 -1.675
 8956 1  -46.352336  4.020049e+01 -1.675
 8957 1  -48.838617  3.738390e+01 -1.675
 8958 1  -50.061598  3.810551e+01 -1.675
 8959 1  -50.048159  3.952544e+01 -1.675
 8960 1  -48.811738  4.022377e+01 -1.675
 8961 1  -51.298019  3.740718e+01 -1.675
 8962 1  -52.521000  3.812878e+01 -1.675
 8963 1  -52.507561  3.954872e+01 -1.675
 8964 1  -51.271140  4.024705e+01 -1.675
 8965 1  -53.757421  3.743045e+01 -1.675
 8966 1  -54.980402  3.815206e+01 -1.675
 8967 1  -54.966963  3.957200e+01 -1.675
 8968 1  -53.730542  4.027033e+01 -1.675
 8969 1  -56.216823  3.745373e+01 -1.675
 8970 1  -57.439804  3.817534e+01 -1.675
 8971 1  -57.426365  3.959528e+01 -1.675
 8972 1  -56.189944  4.029361e+01 -1.675
 8973 1  -58.676225  3.747701e+01 -1.675
 8974 1  -59.899206  3.819862e+01 -1.675
 8975 1  -59.885767  3.961855e+01 -1.675
 8976 1  -58.649346  4.031688e+01 -1.675
 8977 1  -61.135627  3.750029e+01 -1.675
 8978 1  -62.358608  3.822189e+01 -1.675
 8979 1  -62.345168  3.964183e+01 -1.675
 8980 1  -61.108748  4.034016e+01 -1.675
 8981 1  -63.595029  3.752357e+01 -1.675
 8982 1  -64.818010  3.824517e+01 -1.675
 8983 1  -64.804570  3.966511e+01 -1.675
 8984 1  -63.568150  4.036344e+01 -1.675
 8985 1  -66.054431  3.754684e+01 -1.675
 8986 1  -67.277412  3.826845e+01 -1.675
 8987 1  -67.263972  3.968839e+01 -1.675
 8988 1  -66.027552  4.038672e+01 -1.675
 8989 1  -68.513833  3.757012e+01 -1.675
 8990 1  -69.736814  3.829173e+01 -1.675
 8991 1  -69.723374  3.971166e+01 -1.675
 8992 1  -68.486954  4.040999e+01 -1.675
 8993 1  -70.973234  3.759340e+01 -1.675
 8994 1  -72.196216  3.831501e+01 -1.675
 8995 1  -72.182776  3.973494e+01 -1.675
 8996 1  -70.946356  4.043327e+01 -1.675
 8997 1  -73.432636  3.761668e+01 -1.675
 8998 1  -74.655618  3.833828e+01 -1.675
 8999 1  -74.642178  3.975822e+01 -1.675
 9000 1  -73.405758  4.045655e+01 -1.675
 9001 1  -75.892038  3.763995e+01 -1.675
 9002 1  -77.115020  3.836156e+01 -1.675
 9003 1  -77.101580  3.978150e+01 -1.675
 9004 1  -75.865160  4.047983e+01 -1.675
 9005 1  -78.351440  3.766323e+01 -1.675
 9006 1  -79.574422  3.838484e+01 -1.675
 9007 1  -79.560982  3.980477e+01 -1.675
 9008 1  -78.324562  4.050310e+01 -1.675
 9009 1  -80.810842  3.768651e+01 -1.675
 9010 1  -82.033824  3.840812e+01 -1.675
 9011 1  -82.020384  3.982805e+01 -1.675
 9012 1  -80.783964  4.052638e+01 -1.675
 9013 1  -83.270244  3.770979e+01 -1.675
 9014 1  -84.493226  3.843139e+01 -1.675
 9015 1  -84.479786  3.985133e+01 -1.675
 9016 1  -83.243366  4.054966e+01 -1.675
 9017 1  -85.729646  3.773306e+01 -1.675
 9018 1  -86.952628  3.845467e+01 -1.675
 9019 1  -86.939188  3.987461e+01 -1.675
 9020 1  -85.702768  4.057294e+01 -1.675
 9021 1  -88.189048  3.775634e+01 -1.675
 9022 1  -89.412030  3.847795e+01 -1.675
 9023 1  -89.398590  3.989789e+01 -1.675
 9024 1  -88.162170  4.059621e+01 -1.675
 9025 1  -90.648450  3.777962e+01 -1.675
 9026 1  -91.871432  3.850123e+01 -1.675
 9027 1  -91.857992  3.992116e+01 -1.675
 9028 1  -90.621572  4.061949e+01 -1.675
 9029 1  -93.107852  3.780290e+01 -1.675
 9030 1  -94.330834  3.852450e+01 -1.675
 9031 1  -94.317394  3.994444e+01 -1.675
 9032 1  -93.080974  4.064277e+01 -1.675
 9033 1  -95.567254  3.782617e+01 -1.675
 9034 1  -96.790236  3.854778e+01 -1.675
 9035 1  -96.776796  3.996772e+01 -1.675
 9036 1  -95.540376  4.066605e+01 -1.675
 9037 1  -98.026656  3.784945e+01 -1.675
 9038 1  -99.249638  3.857106e+01 -1.675
 9039 1  -99.236198  3.999100e+01 -1.675
 9040 1  -97.999778  4.068933e+01 -1.675
 9041 1 -100.486058  3.787273e+01 -1.675
 9042 1 -101.709040  3.859434e+01 -1.675
 9043 1 -101.695600  4.001427e+01 -1.675
 9044 1 -100.459180  4.071260e+01 -1.675
 9045 1 -102.945460  3.789601e+01 -1.675
 9046 1 -104.168442  3.861761e+01 -1.675
 9047 1 -104.155002  4.003755e+01 -1.675
 9048 1 -102.918582  4.073588e+01 -1.675
 9049 1 -105.404862  3.791929e+01 -1.675
 9050 1 -106.627844  3.864089e+01 -1.675
 9051 1 -106.614404  4.006083e+01 -1.675
 9052 1 -105.377984  4.075916e+01 -1.675
 9053 1 -107.864264  3.794256e+01 -1.675
 9054 1 -109.087246  3.866417e+01 -1.675
 9055 1 -109.073806  4.008411e+01 -1.675
 9056 1 -107.837386  4.078244e+01 -1.675
 9057 1 -110.323666  3.796584e+01 -1.675
 9058 1 -111.546648  3.868745e+01 -1.675
 9059 1 -111.533208  4.010738e+01 -1.675
 9060 1 -110.296788  4.080571e+01 -1.675
 9061 1  112.299252  4.082899e+01 -1.675
 9062 1  112.312691  4.224893e+01 -1.675
 9063 1  111.062831  4.013066e+01 -1.675
 9064 1  109.839850  4.085227e+01 -1.675
 9065 1  109.853289  4.227220e+01 -1.675
 9066 1  111.089710  4.297053e+01 -1.675
 9067 1  108.603429  4.015394e+01 -1.675
 9068 1  107.380448  4.087555e+01 -1.675
 9069 1  107.393887  4.229548e+01 -1.675
 9070 1  108.630308  4.299381e+01 -1.675
 9071 1  106.144027  4.017722e+01 -1.675
 9072 1  104.921046  4.089882e+01 -1.675
 9073 1  104.934485  4.231876e+01 -1.675
 9074 1  106.170906  4.301709e+01 -1.675
 9075 1  103.684625  4.020049e+01 -1.675
 9076 1  102.461644  4.092210e+01 -1.675
 9077 1  102.475083  4.234204e+01 -1.675
 9078 1  103.711504  4.304037e+01 -1.675
 9079 1  101.225223  4.022377e+01 -1.675
 9080 1  100.002242  4.094538e+01 -1.675
 9081 1  100.015681  4.236532e+01 -1.675
 9082 1  101.252102  4.306364e+01 -1.675
 9083 1   98.765821  4.024705e+01 -1.675
 9084 1   97.542840  4.096866e+01 -1.675
 9085 1   97.556279  4.238859e+01 -1.675
 9086 1   98.792700  4.308692e+01 -1.675
 9087 1   96.306419  4.027033e+01 -1.675
 9088 1   95.083438  4.099193e+01 -1.675
 9089 1   95.096877  4.241187e+01 -1.675
 9090 1   96.333298  4.311020e+01 -1.675
 9091 1   93.847017  4.029361e+01 -1.675
 9092 1   92.624036  4.101521e+01 -1.675
 9093 1   92.637475  4.243515e+01 -1.675
 9094 1   93.873896  4.313348e+01 -1.675
 9095 1   91.387615  4.031688e+01 -1.675
 9096 1   90.164634  4.103849e+01 -1.675
 9097 1   90.178073  4.245843e+01 -1.675
 9098 1   91.414494  4.315676e+01 -1.675
 9099 1   88.928213  4.034016e+01 -1.675
 9100 1   87.705232  4.106177e+01 -1.675
 9101 1   87.718671  4.248170e+01 -1.675
 9102 1   88.955092  4.318003e+01 -1.675
 9103 1   86.468811  4.036344e+01 -1.675
 9104 1   85.245830  4.108505e+01 -1.675
 9105 1   85.259269  4.250498e+01 -1.675
 9106 1   86.495690  4.320331e+01 -1.675
 9107 1   84.009409  4.038672e+01 -1.675
 9108 1   82.786428  4.110832e+01 -1.675
 9109 1   82.799867  4.252826e+01 -1.675
 9110 1   84.036288  4.322659e+01 -1.675
 9111 1   81.550007  4.040999e+01 -1.675
 9112 1   80.327026  4.113160e+01 -1.675
 9113 1   80.340465  4.255154e+01 -1.675
 9114 1   81.576886  4.324987e+01 -1.675
 9115 1   79.090605  4.043327e+01 -1.675
 9116 1   77.867624  4.115488e+01 -1.675
 9117 1   77.881063  4.257481e+01 -1.675
 9118 1   79.117484  4.327314e+01 -1.675
 9119 1   76.631203  4.045655e+01 -1.675
 9120 1   75.408222  4.117816e+01 -1.675
 9121 1   75.421661  4.259809e+01 -1.675
 9122 1   76.658082  4.329642e+01 -1.675
 9123 1   74.171801  4.047983e+01 -1.675
 9124 1   72.948820  4.120143e+01 -1.675
 9125 1   72.962259  4.262137e+01 -1.675
 9126 1   74.198680  4.331970e+01 -1.675
 9127 1   71.712399  4.050310e+01 -1.675
 9128 1   70.489418  4.122471e+01 -1.675
 9129 1   70.502857  4.264465e+01 -1.675
 9130 1   71.739278  4.334298e+01 -1.675
 9131 1   69.252997  4.052638e+01 -1.675
 9132 1   68.030016  4.124799e+01 -1.675
 9133 1   68.043455  4.266792e+01 -1.675
 9134 1   69.279876  4.336625e+01 -1.675
 9135 1   66.793595  4.054966e+01 -1.675
 9136 1   65.570614  4.127127e+01 -1.675
 9137 1   65.584053  4.269120e+01 -1.675
 9138 1   66.820474  4.338953e+01 -1.675
 9139 1   64.334193  4.057294e+01 -1.675
 9140 1   63.111212  4.129454e+01 -1.675
 9141 1   63.124651  4.271448e+01 -1.675
 9142 1   64.361072  4.341281e+01 -1.675
 9143 1   61.874791  4.059621e+01 -1.675
 9144 1   60.651810  4.131782e+01 -1.675
 9145 1   60.665249  4.273776e+01 -1.675
 9146 1   61.901670  4.343609e+01 -1.675
 9147 1   59.415389  4.061949e+01 -1.675
 9148 1   58.192408  4.134110e+01 -1.675
 9149 1   58.205847  4.276104e+01 -1.675
 9150 1   59.442268  4.345936e+01 -1.675
 9151 1   56.955987  4.064277e+01 -1.675
 9152 1   55.733006  4.136438e+01 -1.675
 9153 1   55.746445  4.278431e+01 -1.675
 9154 1   56.982866  4.348264e+01 -1.675
 9155 1   54.496585  4.066605e+01 -1.675
 9156 1   53.273604  4.138765e+01 -1.675
 9157 1   53.287043  4.280759e+01 -1.675
 9158 1   54.523464  4.350592e+01 -1.675
 9159 1   52.037183  4.068933e+01 -1.675
 9160 1   50.814202  4.141093e+01 -1.675
 9161 1   50.827641  4.283087e+01 -1.675
 9162 1   52.064062  4.352920e+01 -1.675
 9163 1   49.577781  4.071260e+01 -1.675
 9164 1   48.354800  4.143421e+01 -1.675
 9165 1   48.368239  4.285415e+01 -1.675
 9166 1   49.604660  4.355248e+01 -1.675
 9167 1   47.118379  4.073588e+01 -1.675
 9168 1   45.895398  4.145749e+01 -1.675
 9169 1   45.908837  4.287742e+01 -1.675
 9170 1   47.145258  4.357575e+01 -1.675
 9171 1   44.658977  4.075916e+01 -1.675
 9172 1   43.435996  4.148077e+01 -1.675
 9173 1   43.449435  4.290070e+01 -1.675
 9174 1   44.685856  4.359903e+01 -1.675
 9175 1   42.199575  4.078244e+01 -1.675
 9176 1   40.976594  4.150404e+01 -1.675
 9177 1   40.990033  4.292398e+01 -1.675
 9178 1   42.226454  4.362231e+01 -1.675
 9179 1   39.740173  4.080571e+01 -1.675
 9180 1   38.517192  4.152732e+01 -1.675
 9181 1   38.530631  4.294726e+01 -1.675
 9182 1   39.767052  4.364559e+01 -1.675
 9183 1   37.280771  4.082899e+01 -1.675
 9184 1   36.057790  4.155060e+01 -1.675
 9185 1   36.071229  4.297053e+01 -1.675
 9186 1   37.307650  4.366886e+01 -1.675
 9187 1   34.821369  4.085227e+01 -1.675
 9188 1   33.598388  4.157388e+01 -1.675
 9189 1   33.611827  4.299381e+01 -1.675
 9190 1   34.848248  4.369214e+01 -1.675
 9191 1   32.361967  4.087555e+01 -1.675
 9192 1   31.138986  4.159715e+01 -1.675
 9193 1   31.152425  4.301709e+01 -1.675
 9194 1   32.388846  4.371542e+01 -1.675
 9195 1   29.902565  4.089882e+01 -1.675
 9196 1   28.679584  4.162043e+01 -1.675
 9197 1   28.693023  4.304037e+01 -1.675
 9198 1   29.929444  4.373870e+01 -1.675
 9199 1   27.443163  4.092210e+01 -1.675
 9200 1   26.220182  4.164371e+01 -1.675
 9201 1   26.233621  4.306364e+01 -1.675
 9202 1   27.470042  4.376197e+01 -1.675
 9203 1   24.983761  4.094538e+01 -1.675
 9204 1   23.760780  4.166699e+01 -1.675
 9205 1   23.774219  4.308692e+01 -1.675
 9206 1   25.010640  4.378525e+01 -1.675
 9207 1   22.524359  4.096866e+01 -1.675
 9208 1   21.301378  4.169026e+01 -1.675
 9209 1   21.314817  4.311020e+01 -1.675
 9210 1   22.551238  4.380853e+01 -1.675
 9211 1   20.064957  4.099193e+01 -1.675
 9212 1   18.841976  4.171354e+01 -1.675
 9213 1   18.855415  4.313348e+01 -1.675
 9214 1   20.091836  4.383181e+01 -1.675
 9215 1   17.605555  4.101521e+01 -1.675
 9216 1   16.382574  4.173682e+01 -1.675
 9217 1   16.396013  4.315676e+01 -1.675
 9218 1   17.632434  4.385508e+01 -1.675
 9219 1   15.146153  4.103849e+01 -1.675
 9220 1   13.923172  4.176010e+01 -1.675
 9221 1   13.936611  4.318003e+01 -1.675
 9222 1   15.173032  4.387836e+01 -1.675
 9223 1   12.686751  4.106177e+01 -1.675
 9224 1   11.463770  4.178337e+01 -1.675
 9225 1   11.477209  4.320331e+01 -1.675
 9226 1   12.713630  4.390164e+01 -1.675
 9227 1   10.227349  4.108505e+01 -1.675
 9228 1    9.004368  4.180665e+01 -1.675
 9229 1    9.017807  4.322659e+01 -1.675
 9230 1   10.254228  4.392492e+01 -1.675
 9231 1    7.767947  4.110832e+01 -1.675
 9232 1    6.544966  4.182993e+01 -1.675
 9233 1    6.558405  4.324987e+01 -1.675
 9234 1    7.794826  4.394820e+01 -1.675
 9235 1    5.308545  4.113160e+01 -1.675
 9236 1    4.085564  4.185321e+01 -1.675
 9237 1    4.099003  4.327314e+01 -1.675
 9238 1    5.335424  4.397147e+01 -1.675
 9239 1    2.849143  4.115488e+01 -1.675
 9240 1    1.626162  4.187649e+01 -1.675
 9241 1    1.639601  4.329642e+01 -1.675
 9242 1    2.876022  4.399475e+01 -1.675
 9243 1    0.389741  4.117816e+01 -1.675
 9244 1   -0.833240  4.189976e+01 -1.675
 9245 1   -0.819801  4.331970e+01 -1.675
 9246 1    0.416620  4.401803e+01 -1.675
 9247 1   -2.069661  4.120143e+01 -1.675
 9248 1   -3.292642  4.192304e+01 -1.675
 9249 1   -3.279203  4.334298e+01 -1.675
 9250 1   -2.042782  4.404131e+01 -1.675
 9251 1   -4.529063  4.122471e+01 -1.675
 9252 1   -5.752044  4.194632e+01 -1.675
 9253 1   -5.738605  4.336625e+01 -1.675
 9254 1   -4.502184  4.406458e+01 -1.675
 9255 1   -6.988465  4.124799e+01 -1.675
 9256 1   -8.211446  4.196960e+01 -1.675
 9257 1   -8.198007  4.338953e+01 -1.675
 9258 1   -6.961586  4.408786e+01 -1.675
 9259 1   -9.447867  4.127127e+01 -1.675
 9260 1  -10.670848  4.199287e+01 -1.675
 9261 1  -10.657409  4.341281e+01 -1.675
 9262 1   -9.420988  4.411114e+01 -1.675
 9263 1  -11.907269  4.129454e+01 -1.675
 9264 1  -13.130250  4.201615e+01 -1.675
 9265 1  -13.116811  4.343609e+01 -1.675
 9266 1  -11.880390  4.413442e+01 -1.675
 9267 1  -14.366671  4.131782e+01 -1.675
 9268 1  -15.589652  4.203943e+01 -1.675
 9269 1  -15.576213  4.345936e+01 -1.675
 9270 1  -14.339792  4.415769e+01 -1.675
 9271 1  -16.826073  4.134110e+01 -1.675
 9272 1  -18.049054  4.206271e+01 -1.675
 9273 1  -18.035615  4.348264e+01 -1.675
 9274 1  -16.799194  4.418097e+01 -1.675
 9275 1  -19.285475  4.136438e+01 -1.675
 9276 1  -20.508456  4.208598e+01 -1.675
 9277 1  -20.495017  4.350592e+01 -1.675
 9278 1  -19.258596  4.420425e+01 -1.675
 9279 1  -21.744877  4.138765e+01 -1.675
 9280 1  -22.967858  4.210926e+01 -1.675
 9281 1  -22.954419  4.352920e+01 -1.675
 9282 1  -21.717998  4.422753e+01 -1.675
 9283 1  -24.204279  4.141093e+01 -1.675
 9284 1  -25.427260  4.213254e+01 -1.675
 9285 1  -25.413821  4.355248e+01 -1.675
 9286 1  -24.177400  4.425080e+01 -1.675
 9287 1  -26.663681  4.143421e+01 -1.675
 9288 1  -27.886662  4.215582e+01 -1.675
 9289 1  -27.873223  4.357575e+01 -1.675
 9290 1  -26.636802  4.427408e+01 -1.675
 9291 1  -29.123083  4.145749e+01 -1.675
 9292 1  -30.346064  4.217909e+01 -1.675
 9293 1  -30.332625  4.359903e+01 -1.675
 9294 1  -29.096204  4.429736e+01 -1.675
 9295 1  -31.582485  4.148077e+01 -1.675
 9296 1  -32.805466  4.220237e+01 -1.675
 9297 1  -32.792027  4.362231e+01 -1.675
 9298 1  -31.555606  4.432064e+01 -1.675
 9299 1  -34.041887  4.150404e+01 -1.675
 9300 1  -35.264868  4.222565e+01 -1.675
 9301 1  -35.251429  4.364559e+01 -1.675
 9302 1  -34.015008  4.434392e+01 -1.675
 9303 1  -36.501289  4.152732e+01 -1.675
 9304 1  -37.724270  4.224893e+01 -1.675
 9305 1  -37.710831  4.366886e+01 -1.675
 9306 1  -36.474410  4.436719e+01 -1.675
 9307 1  -38.960691  4.155060e+01 -1.675
 9308 1  -40.183672  4.227220e+01 -1.675
 9309 1  -40.170233  4.369214e+01 -1.675
 9310 1  -38.933812  4.439047e+01 -1.675
 9311 1  -41.420093  4.157388e+01 -1.675
 9312 1  -42.643074  4.229548e+01 -1.675
 9313 1  -42.629635  4.371542e+01 -1.675
 9314 1  -41.393214  4.441375e+01 -1.675
 9315 1  -43.879495  4.159715e+01 -1.675
 9316 1  -45.102476  4.231876e+01 -1.675
 9317 1  -45.089036  4.373870e+01 -1.675
 9318 1  -43.852616  4.443703e+01 -1.675
 9319 1  -46.338897  4.162043e+01 -1.675
 9320 1  -47.561878  4.234204e+01 -1.675
 9321 1  -47.548438  4.376197e+01 -1.675
 9322 1  -46.312018  4.446030e+01 -1.675
 9323 1  -48.798299  4.164371e+01 -1.675
 9324 1  -50.021280  4.236532e+01 -1.675
 9325 1  -50.007840  4.378525e+01 -1.675
 9326 1  -48.771420  4.448358e+01 -1.675
 9327 1  -51.257701  4.166699e+01 -1.675
 9328 1  -52.480682  4.238859e+01 -1.675
 9329 1  -52.467242  4.380853e+01 -1.675
 9330 1  -51.230822  4.450686e+01 -1.675
 9331 1  -53.717102  4.169026e+01 -1.675
 9332 1  -54.940084  4.241187e+01 -1.675
 9333 1  -54.926644  4.383181e+01 -1.675
 9334 1  -53.690224  4.453014e+01 -1.675
 9335 1  -56.176504  4.171354e+01 -1.675
 9336 1  -57.399486  4.243515e+01 -1.675
 9337 1  -57.386046  4.385508e+01 -1.675
 9338 1  -56.149626  4.455341e+01 -1.675
 9339 1  -58.635906  4.173682e+01 -1.675
 9340 1  -59.858888  4.245843e+01 -1.675
 9341 1  -59.845448  4.387836e+01 -1.675
 9342 1  -58.609028  4.457669e+01 -1.675
 9343 1  -61.095308  4.176010e+01 -1.675
 9344 1  -62.318290  4.248170e+01 -1.675
 9345 1  -62.304850  4.390164e+01 -1.675
 9346 1  -61.068430  4.459997e+01 -1.675
 9347 1  -63.554710  4.178337e+01 -1.675
 9348 1  -64.777692  4.250498e+01 -1.675
 9349 1  -64.764252  4.392492e+01 -1.675
 9350 1  -63.527832  4.462325e+01 -1.675
 9351 1  -66.014112  4.180665e+01 -1.675
 9352 1  -67.237094  4.252826e+01 -1.675
 9353 1  -67.223654  4.394820e+01 -1.675
 9354 1  -65.987234  4.464652e+01 -1.675
 9355 1  -68.473514  4.182993e+01 -1.675
 9356 1  -69.696496  4.255154e+01 -1.675
 9357 1  -69.683056  4.397147e+01 -1.675
 9358 1  -68.446636  4.466980e+01 -1.675
 9359 1  -70.932916  4.185321e+01 -1.675
 9360 1  -72.155898  4.257481e+01 -1.675
 9361 1  -72.142458  4.399475e+01 -1.675
 9362 1  -70.906038  4.469308e+01 -1.675
 9363 1  -73.392318  4.187649e+01 -1.675
 9364 1  -74.615300  4.259809e+01 -1.675
 9365 1  -74.601860  4.401803e+01 -1.675
 9366 1  -73.365440  4.471636e+01 -1.675
 9367 1  -75.851720  4.189976e+01 -1.675
 9368 1  -77.074702  4.262137e+01 -1.675
 9369 1  -77.061262  4.404131e+01 -1.675
 9370 1  -75.824842  4.473964e+01 -1.675
 9371 1  -78.311122  4.192304e+01 -1.675
 9372 1  -79.534104  4.264465e+01 -1.675
 9373 1  -79.520664  4.406458e+01 -1.675
 9374 1  -78.284244  4.476291e+01 -1.675
 9375 1  -80.770524  4.194632e+01 -1.675
 9376 1  -81.993506  4.266792e+01 -1.675
 9377 1  -81.980066  4.408786e+01 -1.675
 9378 1  -80.743646  4.478619e+01 -1.675
 9379 1  -83.229926  4.196960e+01 -1.675
 9380 1  -84.452908  4.269120e+01 -1.675
 9381 1  -84.439468  4.411114e+01 -1.675
 9382 1  -83.203048  4.480947e+01 -1.675
 9383 1  -85.689328  4.199287e+01 -1.675
 9384 1  -86.912310  4.271448e+01 -1.675
 9385 1  -86.898870  4.413442e+01 -1.675
 9386 1  -85.662450  4.483275e+01 -1.675
 9387 1  -88.148730  4.201615e+01 -1.675
 9388 1  -89.371712  4.273776e+01 -1.675
 9389 1  -89.358272  4.415769e+01 -1.675
 9390 1  -88.121852  4.485602e+01 -1.675
 9391 1  -90.608132  4.203943e+01 -1.675
 9392 1  -91.831114  4.276104e+01 -1.675
 9393 1  -91.817674  4.418097e+01 -1.675
 9394 1  -90.581254  4.487930e+01 -1.675
 9395 1  -93.067534  4.206271e+01 -1.675
 9396 1  -94.290516  4.278431e+01 -1.675
 9397 1  -94.277076  4.420425e+01 -1.675
 9398 1  -93.040656  4.490258e+01 -1.675
 9399 1  -95.526936  4.208598e+01 -1.675
 9400 1  -96.749918  4.280759e+01 -1.675
 9401 1  -96.736478  4.422753e+01 -1.675
 9402 1  -95.500058  4.492586e+01 -1.675
 9403 1  -97.986338  4.210926e+01 -1.675
 9404 1  -99.209320  4.283087e+01 -1.675
 9405 1  -99.195880  4.425080e+01 -1.675
 9406 1  -97.959460  4.494913e+01 -1.675
 9407 1 -100.445740  4.213254e+01 -1.675
 9408 1 -101.668722  4.285415e+01 -1.675
 9409 1 -101.655282  4.427408e+01 -1.675
 9410 1 -100.418862  4.497241e+01 -1.675
 9411 1 -102.905142  4.215582e+01 -1.675
 9412 1 -104.128124  4.287742e+01 -1.675
 9413 1 -104.114684  4.429736e+01 -1.675
 9414 1 -102.878264  4.499569e+01 -1.675
 9415 1 -105.364544  4.217909e+01 -1.675
 9416 1 -106.587526  4.290070e+01 -1.675
 9417 1 -106.574086  4.432064e+01 -1.675
 9418 1 -105.337666  4.501897e+01 -1.675
 9419 1 -107.823946  4.220237e+01 -1.675
 9420 1 -109.046928  4.292398e+01 -1.675
 9421 1 -109.033488  4.434392e+01 -1.675
 9422 1 -107.797068  4.504224e+01 -1.675
 9423 1 -110.283348  4.222565e+01 -1.675
 9424 1 -111.506330  4.294726e+01 -1.675
 9425 1 -111.492890  4.436719e+01 -1.675
 9426 1 -110.256470  4.506552e+01 -1.675
 9427 1  112.339570  4.508880e+01 -1.675
 9428 1  112.353009  4.650874e+01 -1.675
 9429 1  111.103149  4.439047e+01 -1.675
 9430 1  109.880168  4.511208e+01 -1.675
 9431 1  109.893607  4.653201e+01 -1.675
 9432 1  111.130028  4.723034e+01 -1.675
 9433 1  108.643747  4.441375e+01 -1.675
 9434 1  107.420766  4.513536e+01 -1.675
 9435 1  107.434205  4.655529e+01 -1.675
 9436 1  108.670626  4.725362e+01 -1.675
 9437 1  106.184345  4.443703e+01 -1.675
 9438 1  104.961364  4.515863e+01 -1.675
 9439 1  104.974803  4.657857e+01 -1.675
 9440 1  106.211224  4.727690e+01 -1.675
 9441 1  103.724943  4.446030e+01 -1.675
 9442 1  102.501962  4.518191e+01 -1.675
 9443 1  102.515401  4.660185e+01 -1.675
 9444 1  103.751822  4.730018e+01 -1.675
 9445 1  101.265541  4.448358e+01 -1.675
 9446 1  100.042560  4.520519e+01 -1.675
 9447 1  100.055999  4.662512e+01 -1.675
 9448 1  101.292420  4.732345e+01 -1.675
 9449 1   98.806139  4.450686e+01 -1.675
 9450 1   97.583158  4.522847e+01 -1.675
 9451 1   97.596597  4.664840e+01 -1.675
 9452 1   98.833018  4.734673e+01 -1.675
 9453 1   96.346737  4.453014e+01 -1.675
 9454 1   95.123756  4.525174e+01 -1.675
 9455 1   95.137195  4.667168e+01 -1.675
 9456 1   96.373616  4.737001e+01 -1.675
 9457 1   93.887335  4.455341e+01 -1.675
 9458 1   92.664354  4.527502e+01 -1.675
 9459 1   92.677793  4.669496e+01 -1.675
 9460 1   93.914214  4.739329e+01 -1.675
 9461 1   91.427933  4.457669e+01 -1.675
 9462 1   90.204952  4.529830e+01 -1.675
 9463 1   90.218391  4.671824e+01 -1.675
 9464 1   91.454812  4.741656e+01 -1.675
 9465 1   88.968531  4.459997e+01 -1.675
 9466 1   87.745550  4.532158e+01 -1.675
 9467 1   87.758989  4.674151e+01 -1.675
 9468 1   88.995410  4.743984e+01 -1.675
 9469 1   86.509129  4.462325e+01 -1.675
 9470 1   85.286148  4.534485e+01 -1.675
 9471 1   85.299587  4.676479e+01 -1.675
 9472 1   86.536008  4.746312e+01 -1.675
 9473 1   84.049727  4.464652e+01 -1.675
 9474 1   82.826746  4.536813e+01 -1.675
 9475 1   82.840185  4.678807e+01 -1.675
 9476 1   84.076606  4.748640e+01 -1.675
 9477 1   81.590325  4.466980e+01 -1.675
 9478 1   80.367344  4.539141e+01 -1.675
 9479 1   80.380783  4.681135e+01 -1.675
 9480 1   81.617204  4.750968e+01 -1.675
 9481 1   79.130923  4.469308e+01 -1.675
 9482 1   77.907942  4.541469e+01 -1.675
 9483 1   77.921381  4.683462e+01 -1.675
 9484 1   79.157802  4.753295e+01 -1.675
 9485 1   76.671521  4.471636e+01 -1.675
 9486 1   75.448540  4.543796e+01 -1.675
 9487 1   75.461979  4.685790e+01 -1.675
 9488 1   76.698400  4.755623e+01 -1.675
 9489 1   74.212119  4.473964e+01 -1.675
 9490 1   72.989138  4.546124e+01 -1.675
 9491 1   73.002577  4.688118e+01 -1.675
 9492 1   74.238998  4.757951e+01 -1.675
 9493 1   71.752717  4.476291e+01 -1.675
 9494 1   70.529736  4.548452e+01 -1.675
 9495 1   70.543175  4.690446e+01 -1.675
 9496 1   71.779596  4.760279e+01 -1.675
 9497 1   69.293315  4.478619e+01 -1.675
 9498 1   68.070334  4.550780e+01 -1.675
 9499 1   68.083773  4.692773e+01 -1.675
 9500 1   69.320194  4.762606e+01 -1.675
 9501 1   66.833913  4.480947e+01 -1.675
 9502 1   65.610932  4.553108e+01 -1.675
 9503 1   65.624371  4.695101e+01 -1.675
 9504 1   66.860792  4.764934e+01 -1.675
 9505 1   64.374511  4.483275e+01 -1.675
 9506 1   63.151530  4.555435e+01 -1.675
 9507 1   63.164969  4.697429e+01 -1.675
 9508 1   64.401390  4.767262e+01 -1.675
 9509 1   61.915109  4.485602e+01 -1.675
 9510 1   60.692128  4.557763e+01 -1.675
 9511 1   60.705567  4.699757e+01 -1.675
 9512 1   61.941988  4.769590e+01 -1.675
 9513 1   59.455707  4.487930e+01 -1.675
 9514 1   58.232726  4.560091e+01 -1.675
 9515 1   58.246165  4.702084e+01 -1.675
 9516 1   59.482586  4.771917e+01 -1.675
 9517 1   56.996305  4.490258e+01 -1.675
 9518 1   55.773324  4.562419e+01 -1.675
 9519 1   55.786763  4.704412e+01 -1.675
 9520 1   57.023184  4.774245e+01 -1.675
 9521 1   54.536903  4.492586e+01 -1.675
 9522 1   53.313922  4.564746e+01 -1.675
 9523 1   53.327361  4.706740e+01 -1.675
 9524 1   54.563782  4.776573e+01 -1.675
 9525 1   52.077501  4.494913e+01 -1.675
 9526 1   50.854520  4.567074e+01 -1.675
 9527 1   50.867959  4.709068e+01 -1.675
 9528 1   52.104380  4.778901e+01 -1.675
 9529 1   49.618099  4.497241e+01 -1.675
 9530 1   48.395118  4.569402e+01 -1.675
 9531 1   48.408557  4.711396e+01 -1.675
 9532 1   49.644978  4.781228e+01 -1.675
 9533 1   47.158697  4.499569e+01 -1.675
 9534 1   45.935716  4.571730e+01 -1.675
 9535 1   45.949155  4.713723e+01 -1.675
 9536 1   47.185576  4.783556e+01 -1.675
 9537 1   44.699295  4.501897e+01 -1.675
 9538 1   43.476314  4.574057e+01 -1.675
 9539 1   43.489753  4.716051e+01 -1.675
 9540 1   44.726174  4.785884e+01 -1.675
 9541 1   42.239893  4.504224e+01 -1.675
 9542 1   41.016912  4.576385e+01 -1.675
 9543 1   41.030351  4.718379e+01 -1.675
 9544 1   42.266772  4.788212e+01 -1.675
 9545 1   39.780491  4.506552e+01 -1.675
 9546 1   38.557510  4.578713e+01 -1.675
 9547 1   38.570949  4.720707e+01 -1.675
 9548 1   39.807370  4.790540e+01 -1.675
 9549 1   37.321089  4.508880e+01 -1.675
 9550 1   36.098108  4.581041e+01 -1.675
 9551 1   36.111547  4.723034e+01 -1.675
 9552 1   37.347968  4.792867e+01 -1.675
 9553 1   34.861687  4.511208e+01 -1.675
 9554 1   33.638706  4.583368e+01 -1.675
 9555 1   33.652145  4.725362e+01 -1.675
 9556 1   34.888566  4.795195e+01 -1.675
 9557 1   32.402285  4.513536e+01 -1.675
 9558 1   31.179304  4.585696e+01 -1.675
 9559 1   31.192743  4.727690e+01 -1.675
 9560 1   32.429164  4.797523e+01 -1.675
 9561 1   29.942883  4.515863e+01 -1.675
 9562 1   28.719902  4.588024e+01 -1.675
 9563 1   28.733341  4.730018e+01 -1.675
 9564 1   29.969762  4.799851e+01 -1.675
 9565 1   27.483481  4.518191e+01 -1.675
 9566 1   26.260500  4.590352e+01 -1.675
 9567 1   26.273939  4.732345e+01 -1.675
 9568 1   27.510360  4.802178e+01 -1.675
 9569 1   25.024079  4.520519e+01 -1.675
 9570 1   23.801098  4.592680e+01 -1.675
 9571 1   23.814537  4.734673e+01 -1.675
 9572 1   25.050958  4.804506e+01 -1.675
 9573 1   22.564677  4.522847e+01 -1.675
 9574 1   21.341696  4.595007e+01 -1.675
 9575 1   21.355135  4.737001e+01 -1.675
 9576 1   22.591556  4.806834e+01 -1.675
 9577 1   20.105275  4.525174e+01 -1.675
 9578 1   18.882294  4.597335e+01 -1.675
 9579 1   18.895733  4.739329e+01 -1.675
 9580 1   20.132154  4.809162e+01 -1.675
 9581 1   17.645873  4.527502e+01 -1.675
 9582 1   16.422892  4.599663e+01 -1.675
 9583 1   16.436331  4.741656e+01 -1.675
 9584 1   17.672752  4.811489e+01 -1.675
 9585 1   15.186471  4.529830e+01 -1.675
 9586 1   13.963490  4.601991e+01 -1.675
 9587 1   13.976929  4.743984e+01 -1.675
 9588 1   15.213350  4.813817e+01 -1.675
 9589 1   12.727069  4.532158e+01 -1.675
 9590 1   11.504088  4.604318e+01 -1.675
 9591 1   11.517527  4.746312e+01 -1.675
 9592 1   12.753948  4.816145e+01 -1.675
 9593 1   10.267667  4.534485e+01 -1.675
 9594 1    9.044686  4.606646e+01 -1.675
 9595 1    9.058125  4.748640e+01 -1.675
 9596 1   10.294546  4.818473e+01 -1.675
 9597 1    7.808265  4.536813e+01 -1.675
 9598 1    6.585284  4.608974e+01 -1.675
 9599 1    6.598723  4.750968e+01 -1.675
 9600 1    7.835144  4.820800e+01 -1.675
 9601 1    5.348863  4.539141e+01 -1.675
 9602 1    4.125882  4.611302e+01 -1.675
 9603 1    4.139321  4.753295e+01 -1.675
 9604 1    5.375742  4.823128e+01 -1.675
 9605 1    2.889461  4.541469e+01 -1.675
 9606 1    1.666480  4.613629e+01 -1.675
 9607 1    1.679919  4.755623e+01 -1.675
 9608 1    2.916340  4.825456e+01 -1.675
 9609 1    0.430059  4.543796e+01 -1.675
 9610 1   -0.792922  4.615957e+01 -1.675
 9611 1   -0.779483  4.757951e+01 -1.675
 9612 1    0.456938  4.827784e+01 -1.675
 9613 1   -2.029343  4.546124e+01 -1.675
 9614 1   -3.252324  4.618285e+01 -1.675
 9615 1   -3.238885  4.760279e+01 -1.675
 9616 1   -2.002464  4.830112e+01 -1.675
 9617 1   -4.488745  4.548452e+01 -1.675
 9618 1   -5.711726  4.620613e+01 -1.675
 9619 1   -5.698287  4.762606e+01 -1.675
 9620 1   -4.461866  4.832439e+01 -1.675
 9621 1   -6.948147  4.550780e+01 -1.675
 9622 1   -8.171128  4.622940e+01 -1.675
 9623 1   -8.157689  4.764934e+01 -1.675
 9624 1   -6.921268  4.834767e+01 -1.675
 9625 1   -9.407549  4.553108e+01 -1.675
 9626 1  -10.630530  4.625268e+01 -1.675
 9627 1  -10.617091  4.767262e+01 -1.675
 9628 1   -9.380670  4.837095e+01 -1.675
 9629 1  -11.866951  4.555435e+01 -1.675
 9630 1  -13.089932  4.627596e+01 -1.675
 9631 1  -13.076493  4.769590e+01 -1.675
 9632 1  -11.840072  4.839423e+01 -1.675
 9633 1  -14.326353  4.557763e+01 -1.675
 9634 1  -15.549334  4.629924e+01 -1.675
 9635 1  -15.535895  4.771917e+01 -1.675
 9636 1  -14.299474  4.841750e+01 -1.675
 9637 1  -16.785755  4.560091e+01 -1.675
 9638 1  -18.008736  4.632252e+01 -1.675
 9639 1  -17.995297  4.774245e+01 -1.675
 9640 1  -16.758876  4.844078e+01 -1.675
 9641 1  -19.245157  4.562419e+01 -1.675
 9642 1  -20.468138  4.634579e+01 -1.675
 9643 1  -20.454699  4.776573e+01 -1.675
 9644 1  -19.218278  4.846406e+01 -1.675
 9645 1  -21.704559  4.564746e+01 -1.675
 9646 1  -22.927540  4.636907e+01 -1.675
 9647 1  -22.914101  4.778901e+01 -1.675
 9648 1  -21.677680  4.848734e+01 -1.675
 9649 1  -24.163961  4.567074e+01 -1.675
 9650 1  -25.386942  4.639235e+01 -1.675
 9651 1  -25.373503  4.781228e+01 -1.675
 9652 1  -24.137082  4.851061e+01 -1.675
 9653 1  -26.623363  4.569402e+01 -1.675
 9654 1  -27.846344  4.641563e+01 -1.675
 9655 1  -27.832904  4.783556e+01 -1.675
 9656 1  -26.596484  4.853389e+01 -1.675
 9657 1  -29.082765  4.571730e+01 -1.675
 9658 1  -30.305746  4.643890e+01 -1.675
 9659 1  -30.292306  4.785884e+01 -1.675
 9660 1  -29.055886  4.855717e+01 -1.675
 9661 1  -31.542167  4.574057e+01 -1.675
 9662 1  -32.765148  4.646218e+01 -1.675
 9663 1  -32.751708  4.788212e+01 -1.675
 9664 1  -31.515288  4.858045e+01 -1.675
 9665 1  -34.001569  4.576385e+01 -1.675
 9666 1  -35.224550  4.648546e+01 -1.675
 9667 1  -35.211110  4.790540e+01 -1.675
 9668 1  -33.974690  4.860372e+01 -1.675
 9669 1  -36.460970  4.578713e+01 -1.675
 9670 1  -37.683952  4.650874e+01 -1.675
 9671 1  -37.670512  4.792867e+01 -1.675
 9672 1  -36.434092  4.862700e+01 -1.675
 9673 1  -38.920372  4.581041e+01 -1.675
 9674 1  -40.143354  4.653201e+01 -1.675
 9675 1  -40.129914  4.795195e+01 -1.675
 9676 1  -38.893494  4.865028e+01 -1.675
 9677 1  -41.379774  4.583368e+01 -1.675
 9678 1  -42.602756  4.655529e+01 -1.675
 9679 1  -42.589316  4.797523e+01 -1.675
 9680 1  -41.352896  4.867356e+01 -1.675
 9681 1  -43.839176  4.585696e+01 -1.675
 9682 1  -45.062158  4.657857e+01 -1.675
 9683 1  -45.048718  4.799851e+01 -1.675
 9684 1  -43.812298  4.869684e+01 -1.675
 9685 1  -46.298578  4.588024e+01 -1.675
 9686 1  -47.521560  4.660185e+01 -1.675
 9687 1  -47.508120  4.802178e+01 -1.675
 9688 1  -46.271700  4.872011e+01 -1.675
 9689 1  -48.757980  4.590352e+01 -1.675
 9690 1  -49.980962  4.662512e+01 -1.675
 9691 1  -49.967522  4.804506e+01 -1.675
 9692 1  -48.731102  4.874339e+01 -1.675
 9693 1  -51.217382  4.592680e+01 -1.675
 9694 1  -52.440364  4.664840e+01 -1.675
 9695 1  -52.426924  4.806834e+01 -1.675
 9696 1  -51.190504  4.876667e+01 -1.675
 9697 1  -53.676784  4.595007e+01 -1.675
 9698 1  -54.899766  4.667168e+01 -1.675
 9699 1  -54.886326  4.809162e+01 -1.675
 9700 1  -53.649906  4.878995e+01 -1.675
 9701 1  -56.136186  4.597335e+01 -1.675
 9702 1  -57.359168  4.669496e+01 -1.675
 9703 1  -57.345728  4.811489e+01 -1.675
 9704 1  -56.109308  4.881322e+01 -1.675
 9705 1  -58.595588  4.599663e+01 -1.675
 9706 1  -59.818570  4.671824e+01 -1.675
 9707 1  -59.805130  4.813817e+01 -1.675
 9708 1  -58.568710  4.883650e+01 -1.675
 9709 1  -61.054990  4.601991e+01 -1.675
 9710 1  -62.277972  4.674151e+01 -1.675
 9711 1  -62.264532  4.816145e+01 -1.675
 9712 1  -61.028112  4.885978e+01 -1.675
 9713 1  -63.514392  4.604318e+01 -1.675
 9714 1  -64.737374  4.676479e+01 -1.675
 9715 1  -64.723934  4.818473e+01 -1.675
 9716 1  -63.487514  4.888306e+01 -1.675
 9717 1  -65.973794  4.606646e+01 -1.675
 9718 1  -67.196776  4.678807e+01 -1.675
 9719 1  -67.183336  4.820800e+01 -1.675
 9720 1  -65.946916  4.890633e+01 -1.675
 9721 1  -68.433196  4.608974e+01 -1.675
 9722 1  -69.656178  4.681135e+01 -1.675
 9723 1  -69.642738  4.823128e+01 -1.675
 9724 1  -68.406318  4.892961e+01 -1.675
 9725 1  -70.892598  4.611302e+01 -1.675
 9726 1  -72.115580  4.683462e+01 -1.675
 9727 1  -72.102140  4.825456e+01 -1.675
 9728 1  -70.865720  4.895289e+01 -1.675
 9729 1  -73.352000  4.613629e+01 -1.675
 9730 1  -74.574982  4.685790e+01 -1.675
 9731 1  -74.561542  4.827784e+01 -1.675
 9732 1  -73.325122  4.897617e+01 -1.675
 9733 1  -75.811402  4.615957e+01 -1.675
 9734 1  -77.034384  4.688118e+01 -1.675
 9735 1  -77.020944  4.830112e+01 -1.675
 9736 1  -75.784524  4.899944e+01 -1.675
 9737 1  -78.270804  4.618285e+01 -1.675
 9738 1  -79.493786  4.690446e+01 -1.675
 9739 1  -79.480346  4.832439e+01 -1.675
 9740 1  -78.243926  4.902272e+01 -1.675
 9741 1  -80.730206  4.620613e+01 -1.675
 9742 1  -81.953188  4.692773e+01 -1.675
 9743 1  -81.939748  4.834767e+01 -1.675
 9744 1  -80.703328  4.904600e+01 -1.675
 9745 1  -83.189608  4.622940e+01 -1.675
 9746 1  -84.412590  4.695101e+01 -1.675
 9747 1  -84.399150  4.837095e+01 -1.675
 9748 1  -83.162730  4.906928e+01 -1.675
 9749 1  -85.649010  4.625268e+01 -1.675
 9750 1  -86.871992  4.697429e+01 -1.675
 9751 1  -86.858552  4.839423e+01 -1.675
 9752 1  -85.622132  4.909256e+01 -1.675
 9753 1  -88.108412  4.627596e+01 -1.675
 9754 1  -89.331394  4.699757e+01 -1.675
 9755 1  -89.317954  4.841750e+01 -1.675
 9756 1  -88.081534  4.911583e+01 -1.675
 9757 1  -90.567814  4.629924e+01 -1.675
 9758 1  -91.790796  4.702084e+01 -1.675
 9759 1  -91.777356  4.844078e+01 -1.675
 9760 1  -90.540936  4.913911e+01 -1.675
 9761 1  -93.027216  4.632252e+01 -1.675
 9762 1  -94.250198  4.704412e+01 -1.675
 9763 1  -94.236758  4.846406e+01 -1.675
 9764 1  -93.000338  4.916239e+01 -1.675
 9765 1  -95.486618  4.634579e+01 -1.675
 9766 1  -96.709600  4.706740e+01 -1.675
 9767 1  -96.696160  4.848734e+01 -1.675
 9768 1  -95.459740  4.918567e+01 -1.675
 9769 1  -97.946020  4.636907e+01 -1.675
 9770 1  -99.169002  4.709068e+01 -1.675
 9771 1  -99.155562  4.851061e+01 -1.675
 9772 1  -97.919142  4.920894e+01 -1.675
 9773 1 -100.405422  4.639235e+01 -1.675
 9774 1 -101.628404  4.711396e+01 -1.675
 9775 1 -101.614964  4.853389e+01 -1.675
 9776 1 -100.378544  4.923222e+01 -1.675
 9777 1 -102.864824  4.641563e+01 -1.675
 9778 1 -104.087806  4.713723e+01 -1.675
 9779 1 -104.074366  4.855717e+01 -1.675
 9780 1 -102.837946  4.925550e+01 -1.675
 9781 1 -105.324226  4.643890e+01 -1.675
 9782 1 -106.547208  4.716051e+01 -1.675
 9783 1 -106.533768  4.858045e+01 -1.675
 9784 1 -105.297348  4.927878e+01 -1.675
 9785 1 -107.783628  4.646218e+01 -1.675
 9786 1 -109.006610  4.718379e+01 -1.675
 9787 1 -108.993170  4.860372e+01 -1.675
 9788 1 -107.756750  4.930205e+01 -1.675
 9789 1 -110.243030  4.648546e+01 -1.675
 9790 1 -111.466012  4.720707e+01 -1.675
 9791 1 -111.452572  4.862700e+01 -1.675
 9792 1 -110.216152  4.932533e+01 -1.675
 9793 1  112.379888  4.934861e+01 -1.675
 9794 1  112.393327  5.076855e+01 -1.675
 9795 1  111.143467  4.865028e+01 -1.675
 9796 1  109.920486  4.937189e+01 -1.675
 9797 1  109.933925  5.079182e+01 -1.675
 9798 1  111.170346  5.149015e+01 -1.675
 9799 1  108.684065  4.867356e+01 -1.675
 9800 1  107.461084  4.939516e+01 -1.675
 9801 1  107.474523  5.081510e+01 -1.675
 9802 1  108.710944  5.151343e+01 -1.675
 9803 1  106.224663  4.869684e+01 -1.675
 9804 1  105.001682  4.941844e+01 -1.675
 9805 1  105.015121  5.083838e+01 -1.675
 9806 1  106.251542  5.153671e+01 -1.675
 9807 1  103.765261  4.872011e+01 -1.675
 9808 1  102.542280  4.944172e+01 -1.675
 9809 1  102.555719  5.086166e+01 -1.675
 9810 1  103.792140  5.155999e+01 -1.675
 9811 1  101.305859  4.874339e+01 -1.675
 9812 1  100.082878  4.946500e+01 -1.675
 9813 1  100.096317  5.088493e+01 -1.675
 9814 1  101.332738  5.158326e+01 -1.675
 9815 1   98.846457  4.876667e+01 -1.675
 9816 1   97.623476  4.948828e+01 -1.675
 9817 1   97.636915  5.090821e+01 -1.675
 9818 1   98.873336  5.160654e+01 -1.675
 9819 1   96.387055  4.878995e+01 -1.675
 9820 1   95.164074  4.951155e+01 -1.675
 9821 1   95.177513  5.093149e+01 -1.675
 9822 1   96.413934  5.162982e+01 -1.675
 9823 1   93.927653  4.881322e+01 -1.675
 9824 1   92.704672  4.953483e+01 -1.675
 9825 1   92.718111  5.095477e+01 -1.675
 9826 1   93.954532  5.165310e+01 -1.675
 9827 1   91.468251  4.883650e+01 -1.675
 9828 1   90.245270  4.955811e+01 -1.675
 9829 1   90.258709  5.097804e+01 -1.675
 9830 1   91.495130  5.167637e+01 -1.675
 9831 1   89.008849  4.885978e+01 -1.675
 9832 1   87.785868  4.958139e+01 -1.675
 9833 1   87.799307  5.100132e+01 -1.675
 9834 1   89.035728  5.169965e+01 -1.675
 9835 1   86.549447  4.888306e+01 -1.675
 9836 1   85.326466  4.960466e+01 -1.675
 9837 1   85.339905  5.102460e+01 -1.675
 9838 1   86.576326  5.172293e+01 -1.675
 9839 1   84.090045  4.890633e+01 -1.675
 9840 1   82.867064  4.962794e+01 -1.675
 9841 1   82.880503  5.104788e+01 -1.675
 9842 1   84.116924  5.174621e+01 -1.675
 9843 1   81.630643  4.892961e+01 -1.675
 9844 1   80.407662  4.965122e+01 -1.675
 9845 1   80.421101  5.107116e+01 -1.675
 9846 1   81.657522  5.176948e+01 -1.675
 9847 1   79.171241  4.895289e+01 -1.675
 9848 1   77.948260  4.967450e+01 -1.675
 9849 1   77.961699  5.109443e+01 -1.675
 9850 1   79.198120  5.179276e+01 -1.675
 9851 1   76.711839  4.897617e+01 -1.675
 9852 1   75.488858  4.969777e+01 -1.675
 9853 1   75.502297  5.111771e+01 -1.675
 9854 1   76.738718  5.181604e+01 -1.675
 9855 1   74.252437  4.899944e+01 -1.675
 9856 1   73.029456  4.972105e+01 -1.675
 9857 1   73.042895  5.114099e+01 -1.675
 9858 1   74.279316  5.183932e+01 -1.675
 9859 1   71.793035  4.902272e+01 -1.675
 9860 1   70.570054  4.974433e+01 -1.675
 9861 1   70.583493  5.116427e+01 -1.675
 9862 1   71.819914  5.186260e+01 -1.675
 9863 1   69.333633  4.904600e+01 -1.675
 9864 1   68.110652  4.976761e+01 -1.675
 9865 1   68.124091  5.118754e+01 -1.675
 9866 1   69.360512  5.188587e+01 -1.675
 9867 1   66.874231  4.906928e+01 -1.675
 9868 1   65.651250  4.979088e+01 -1.675
 9869 1   65.664689  5.121082e+01 -1.675
 9870 1   66.901110  5.190915e+01 -1.675
 9871 1   64.414829  4.909256e+01 -1.675
 9872 1   63.191848  4.981416e+01 -1.675
 9873 1   63.205287  5.123410e+01 -1.675
 9874 1   64.441708  5.193243e+01 -1.675
 9875 1   61.955427  4.911583e+01 -1.675
 9876 1   60.732446  4.983744e+01 -1.675
 9877 1   60.745885  5.125738e+01 -1.675
 9878 1   61.982306  5.195571e+01 -1.675
 9879 1   59.496025  4.913911e+01 -1.675
 9880 1   58.273044  4.986072e+01 -1.675
 9881 1   58.286483  5.128065e+01 -1.675
 9882 1   59.522904  5.197898e+01 -1.675
 9883 1   57.036623  4.916239e+01 -1.675
 9884 1   55.813642  4.988400e+01 -1.675
 9885 1   55.827081  5.130393e+01 -1.675
 9886 1   57.063502  5.200226e+01 -1.675
 9887 1   54.577221  4.918567e+01 -1.675
 9888 1   53.354240  4.990727e+01 -1.675
 9889 1   53.367679  5.132721e+01 -1.675
 9890 1   54.604100  5.202554e+01 -1.675
 9891 1   52.117819  4.920894e+01 -1.675
 9892 1   50.894838  4.993055e+01 -1.675
 9893 1   50.908277  5.135049e+01 -1.675
 9894 1   52.144698  5.204882e+01 -1.675
 9895 1   49.658417  4.923222e+01 -1.675
 9896 1   48.435436  4.995383e+01 -1.675
 9897 1   48.448875  5.137376e+01 -1.675
 9898 1   49.685296  5.207209e+01 -1.675
 9899 1   47.199015  4.925550e+01 -1.675
 9900 1   45.976034  4.997711e+01 -1.675
 9901 1   45.989473  5.139704e+01 -1.675
 9902 1   47.225894  5.209537e+01 -1.675
 9903 1   44.739613  4.927878e+01 -1.675
 9904 1   43.516632  5.000038e+01 -1.675
 9905 1   43.530071  5.142032e+01 -1.675
 9906 1   44.766492  5.211865e+01 -1.675
 9907 1   42.280211  4.930205e+01 -1.675
 9908 1   41.057230  5.002366e+01 -1.675
 9909 1   41.070669  5.144360e+01 -1.675
 9910 1   42.307090  5.214193e+01 -1.675
 9911 1   39.820809  4.932533e+01 -1.675
 9912 1   38.597828  5.004694e+01 -1.675
 9913 1   38.611267  5.146688e+01 -1.675
 9914 1   39.847688  5.216520e+01 -1.675
 9915 1   37.361407  4.934861e+01 -1.675
 9916 1   36.138426  5.007022e+01 -1.675
 9917 1   36.151865  5.149015e+01 -1.675
 9918 1   37.388286  5.218848e+01 -1.675
 9919 1   34.902005  4.937189e+01 -1.675
 9920 1   33.679024  5.009349e+01 -1.675
 9921 1   33.692463  5.151343e+01 -1.675
 9922 1   34.928884  5.221176e+01 -1.675
 9923 1   32.442603  4.939516e+01 -1.675
 9924 1   31.219622  5.011677e+01 -1.675
 9925 1   31.233061  5.153671e+01 -1.675
 9926 1   32.469482  5.223504e+01 -1.675
 9927 1   29.983201  4.941844e+01 -1.675
 9928 1   28.760220  5.014005e+01 -1.675
 9929 1   28.773659  5.155999e+01 -1.675
 9930 1   30.010080  5.225832e+01 -1.675
 9931 1   27.523799  4.944172e+01 -1.675
 9932 1   26.300818  5.016333e+01 -1.675
 9933 1   26.314257  5.158326e+01 -1.675
 9934 1   27.550678  5.228159e+01 -1.675
 9935 1   25.064397  4.946500e+01 -1.675
 9936 1   23.841416  5.018660e+01 -1.675
 9937 1   23.854855  5.160654e+01 -1.675
 9938 1   25.091276  5.230487e+01 -1.675
 9939 1   22.604995  4.948828e+01 -1.675
 9940 1   21.382014  5.020988e+01 -1.675
 9941 1   21.395453  5.162982e+01 -1.675
 9942 1   22.631874  5.232815e+01 -1.675
 9943 1   20.145593  4.951155e+01 -1.675
 9944 1   18.922612  5.023316e+01 -1.675
 9945 1   18.936051  5.165310e+01 -1.675
 9946 1   20.172472  5.235143e+01 -1.675
 9947 1   17.686191  4.953483e+01 -1.675
 9948 1   16.463210  5.025644e+01 -1.675
 9949 1   16.476649  5.167637e+01 -1.675
 9950 1   17.713070  5.237470e+01 -1.675
 9951 1   15.226789  4.955811e+01 -1.675
 9952 1   14.003808  5.027972e+01 -1.675
 9953 1   14.017247  5.169965e+01 -1.675
 9954 1   15.253668  5.239798e+01 -1.675
 9955 1   12.767387  4.958139e+01 -1.675
 9956 1   11.544406  5.030299e+01 -1.675
 9957 1   11.557845  5.172293e+01 -1.675
 9958 1   12.794266  5.242126e+01 -1.675
 9959 1   10.307985  4.960466e+01 -1.675
 9960 1    9.085004  5.032627e+01 -1.675
 9961 1    9.098443  5.174621e+01 -1.675
 9962 1   10.334864  5.244454e+01 -1.675
 9963 1    7.848583  4.962794e+01 -1.675
 9964 1    6.625602  5.034955e+01 -1.675
 9965 1    6.639041  5.176948e+01 -1.675
 9966 1    7.875462  5.246781e+01 -1.675
 9967 1    5.389181  4.965122e+01 -1.675
 9968 1    4.166200  5.037283e+01 -1.675
 9969 1    4.179639  5.179276e+01 -1.675
 9970 1    5.416060  5.249109e+01 -1.675
 9971 1    2.929779  4.967450e+01 -1.675
 9972 1    1.706798  5.039610e+01 -1.675
 9973 1    1.720237  5.181604e+01 -1.675
 9974 1    2.956658  5.251437e+01 -1.675
 9975 1    0.470377  4.969777e+01 -1.675
 9976 1   -0.752604  5.041938e+01 -1.675
 9977 1   -0.739165  5.183932e+01 -1.675
 9978 1    0.497256  5.253765e+01 -1.675
 9979 1   -1.989025  4.972105e+01 -1.675
 9980 1   -3.212006  5.044266e+01 -1.675
 9981 1   -3.198567  5.186260e+01 -1.675
 9982 1   -1.962146  5.256092e+01 -1.675
 9983 1   -4.448427  4.974433e+01 -1.675
 9984 1   -5.671408  5.046594e+01 -1.675
 9985 1   -5.657969  5.188587e+01 -1.675
 9986 1   -4.421548  5.258420e+01 -1.675
 9987 1   -6.907829  4.976761e+01 -1.675
 9988 1   -8.130810  5.048921e+01 -1.675
 9989 1   -8.117371  5.190915e+01 -1.675
 9990 1   -6.880950  5.260748e+01 -1.675
 9991 1   -9.367231  4.979088e+01 -1.675
 9992 1  -10.590212  5.051249e+01 -1.675
 9993 1  -10.576772  5.193243e+01 -1.675
 9994 1   -9.340352  5.263076e+01 -1.675
 9995 1  -11.826633  4.981416e+01 -1.675
 9996 1  -13.049614  5.053577e+01 -1.675
 9997 1  -13.036174  5.195571e+01 -1.675
 9998 1  -11.799754  5.265404e+01 -1.675
 9999 1  -14.286035  4.983744e+01 -1.675
10000 1  -15.509016  5.055905e+01 -1.675
10001 1  -15.495576  5.197898e+01 -1.675
10002 1  -14.259156  5.267731e+01 -1.675
10003 1  -16.745437  4.986072e+01 -1.675
10004 1  -17.968418  5.058232e+01 -1.675
10005 1  -17.954978  5.200226e+01 -1.675
10006 1  -16.718558  5.270059e+01 -1.675
10007 1  -19.204838  4.988400e+01 -1.675
10008 1  -20.427820  5.060560e+01 -1.675
10009 1  -20.414380  5.202554e+01 -1.675
10010 1  -19.177960  5.272387e+01 -1.675
10011 1  -21.664240  4.990727e+01 -1.675
10012 1  -22.887222  5.062888e+01 -1.675
10013 1  -22.873782  5.204882e+01 -1.675
10014 1  -21.637362  5.274715e+01 -1.675
10015 1  -24.123642  4.993055e+01 -1.675
10016 1  -25.346624  5.065216e+01 -1.675
10017 1  -25.333184  5.207209e+01 -1.675
10018 1  -24.096764  5.277042e+01 -1.675
10019 1  -26.583044  4.995383e+01 -1.675
10020 1  -27.806026  5.067544e+01 -1.675
10021 1  -27.792586  5.209537e+01 -1.675
10022 1  -26.556166  5.279370e+01 -1.675
10023 1  -29.042446  4.997711e+01 -1.675
10024 1  -30.265428  5.069871e+01 -1.675
10025 1  -30.251988  5.211865e+01 -1.675
10026 1  -29.015568  5.281698e+01 -1.675
10027 1  -31.501848  5.000038e+01 -1.675
10028 1  -32.724830  5.072199e+01 -1.675
10029 1  -32.711390  5.214193e+01 -1.675
10030 1  -31.474970  5.284026e+01 -1.675
10031 1  -33.961250  5.002366e+01 -1.675
10032 1  -35.184232  5.074527e+01 -1.675
10033 1  -35.170792  5.216520e+01 -1.675
10034 1  -33.934372  5.286353e+01 -1.675
10035 1  -36.420652  5.004694e+01 -1.675
10036 1  -37.643634  5.076855e+01 -1.675
10037 1  -37.630194  5.218848e+01 -1.675
10038 1  -36.393774  5.288681e+01 -1.675
10039 1  -38.880054  5.007022e+01 -1.675
10040 1  -40.103036  5.079182e+01 -1.675
10041 1  -40.089596  5.221176e+01 -1.675
10042 1  -38.853176  5.291009e+01 -1.675
10043 1  -41.339456  5.009349e+01 -1.675
10044 1  -42.562438  5.081510e+01 -1.675
10045 1  -42.548998  5.223504e+01 -1.675
10046 1  -41.312578  5.293337e+01 -1.675
10047 1  -43.798858  5.011677e+01 -1.675
10048 1  -45.021840  5.083838e+01 -1.675
10049 1  -45.008400  5.225832e+01 -1.675
10050 1  -43.771980  5.295664e+01 -1.675
10051 1  -46.258260  5.014005e+01 -1.675
10052 1  -47.481242  5.086166e+01 -1.675
10053 1  -47.467802  5.228159e+01 -1.675
10054 1  -46.231382  5.297992e+01 -1.675
10055 1  -48.717662  5.016333e+01 -1.675
10056 1  -49.940644  5.088493e+01 -1.675
10057 1  -49.927204  5.230487e+01 -1.675
10058 1  -48.690784  5.300320e+01 -1.675
10059 1  -51.177064  5.018660e+01 -1.675
10060 1  -52.400046  5.090821e+01 -1.675
10061 1  -52.386606  5.232815e+01 -1.675
10062 1  -51.150186  5.302648e+01 -1.675
10063 1  -53.636466  5.020988e+01 -1.675
10064 1  -54.859448  5.093149e+01 -1.675
10065 1  -54.846008  5.235143e+01 -1.675
10066 1  -53.609588  5.304976e+01 -1.675
10067 1  -56.095868  5.023316e+01 -1.675
10068 1  -57.318850  5.095477e+01 -1.675
10069 1  -57.305410  5.237470e+01 -1.675
10070 1  -56.068990  5.307303e+01 -1.675
10071 1  -58.555270  5.025644e+01 -1.675
10072 1  -59.778252  5.097804e+01 -1.675
10073 1  -59.764812  5.239798e+01 -1.675
10074 1  -58.528392  5.309631e+01 -1.675
10075 1  -61.014672  5.027972e+01 -1.675
10076 1  -62.237654  5.100132e+01 -1.675
10077 1  -62.224214  5.242126e+01 -1.675
10078 1  -60.987794  5.311959e+01 -1.675
10079 1  -63.474074  5.030299e+01 -1.675
10080 1  -64.697056  5.102460e+01 -1.675
10081 1  -64.683616  5.244454e+01 -1.675
10082 1  -63.447196  5.314287e+01 -1.675
10083 1  -65.933476  5.032627e+01 -1.675
10084 1  -67.156458  5.104788e+01 -1.675
10085 1  -67.143018  5.246781e+01 -1.675
10086 1  -65.906598  5.316614e+01 -1.675
10087 1  -68.392878  5.034955e+01 -1.675
10088 1  -69.615860  5.107116e+01 -1.675
10089 1  -69.602420  5.249109e+01 -1.675
10090 1  -68.366000  5.318942e+01 -1.675
10091 1  -70.852280  5.037283e+01 -1.675
10092 1  -72.075262  5.109443e+01 -1.675
10093 1  -72.061822  5.251437e+01 -1.675
10094 1  -70.825402  5.321270e+01 -1.675
10095 1  -73.311682  5.039610e+01 -1.675
10096 1  -74.534664  5.111771e+01 -1.675
10097 1  -74.521224  5.253765e+01 -1.675
10098 1  -73.284804  5.323598e+01 -1.675
10099 1  -75.771084  5.041938e+01 -1.675
10100 1  -76.994066  5.114099e+01 -1.675
10101 1  -76.980626  5.256092e+01 -1.675
10102 1  -75.744206  5.325925e+01 -1.675
10103 1  -78.230486  5.044266e+01 -1.675
10104 1  -79.453468  5.116427e+01 -1.675
10105 1  -79.440028  5.258420e+01 -1.675
10106 1  -78.203608  5.328253e+01 -1.675
10107 1  -80.689888  5.046594e+01 -1.675
10108 1  -81.912870  5.118754e+01 -1.675
10109 1  -81.899430  5.260748e+01 -1.675
10110 1  -80.663010  5.330581e+01 -1.675
10111 1  -83.149290  5.048921e+01 -1.675
10112 1  -84.372272  5.121082e+01 -1.675
10113 1  -84.358832  5.263076e+01 -1.675
10114 1  -83.122412  5.332909e+01 -1.675
10115 1  -85.608692  5.051249e+01 -1.675
10116 1  -86.831674  5.123410e+01 -1.675
10117 1  -86.818234  5.265404e+01 -1.675
10118 1  -85.581814  5.335236e+01 -1.675
10119 1  -88.068094  5.053577e+01 -1.675
10120 1  -89.291076  5.125738e+01 -1.675
10121 1  -89.277636  5.267731e+01 -1.675
10122 1  -88.041216  5.337564e+01 -1.675
10123 1  -90.527496  5.055905e+01 -1.675
10124 1  -91.750478  5.128065e+01 -1.675
10125 1  -91.737038  5.270059e+01 -1.675
10126 1  -90.500618  5.339892e+01 -1.675
10127 1  -92.986898  5.058232e+01 -1.675
10128 1  -94.209880  5.130393e+01 -1.675
10129 1  -94.196440  5.272387e+01 -1.675
10130 1  -92.960020  5.342220e+01 -1.675
10131 1  -95.446300  5.060560e+01 -1.675
10132 1  -96.669282  5.132721e+01 -1.675
10133 1  -96.655842  5.274715e+01 -1.675
10134 1  -95.419421  5.344548e+01 -1.675
10135 1  -97.905702  5.062888e+01 -1.675
10136 1  -99.128684  5.135049e+01 -1.675
10137 1  -99.115244  5.277042e+01 -1.675
10138 1  -97.878823  5.346875e+01 -1.675
10139 1 -100.365104  5.065216e+01 -1.675
10140 1 -101.588086  5.137376e+01 -1.675
10141 1 -101.574646  5.279370e+01 -1.675
10142 1 -100.338225  5.349203e+01 -1.675
10143 1 -102.824506  5.067544e+01 -1.675
10144 1 -104.047487  5.139704e+01 -1.675
10145 1 -104.034048  5.281698e+01 -1.675
10146 1 -102.797627  5.351531e+01 -1.675
10147 1 -105.283908  5.069871e+01 -1.675
10148 1 -106.506889  5.142032e+01 -1.675
10149 1 -106.493450  5.284026e+01 -1.675
10150 1 -105.257029  5.353859e+01 -1.675
10151 1 -107.743310  5.072199e+01 -1.675
10152 1 -108.966291  5.144360e+01 -1.675
10153 1 -108.952852  5.286353e+01 -1.675
10154 1 -107.716431  5.356186e+01 -1.675
10155 1 -110.202712  5.074527e+01 -1.675
10156 1 -111.425693  5.146688e+01 -1.675
10157 1 -111.412254  5.288681e+01 -1.675
10158 1 -110.175833  5.358514e+01 -1.675
10159 1  112.420206  5.360842e+01 -1.675
10160 1  112.433645  5.502835e+01 -1.675
10161 1  111.183785  5.291009e+01 -1.675
10162 1  109.960804  5.363170e+01 -1.675
10163 1  109.974243  5.505163e+01 -1.675
10164 1  111.210664  5.574996e+01 -1.675
10165 1  108.724383  5.293337e+01 -1.675
10166 1  107.501402  5.365497e+01 -1.675
10167 1  107.514841  5.507491e+01 -1.675
10168 1  108.751262  5.577324e+01 -1.675
10169 1  106.264981  5.295664e+01 -1.675
10170 1  105.042000  5.367825e+01 -1.675
10171 1  105.055439  5.509819e+01 -1.675
10172 1  106.291860  5.579652e+01 -1.675
10173 1  103.805579  5.297992e+01 -1.675
10174 1  102.582598  5.370153e+01 -1.675
10175 1  102.596037  5.512147e+01 -1.675
10176 1  103.832458  5.581979e+01 -1.675
10177 1  101.346177  5.300320e+01 -1.675
10178 1  100.123196  5.372481e+01 -1.675
10179 1  100.136635  5.514474e+01 -1.675
10180 1  101.373056  5.584307e+01 -1.675
10181 1   98.886775  5.302648e+01 -1.675
10182 1   97.663794  5.374808e+01 -1.675
10183 1   97.677233  5.516802e+01 -1.675
10184 1   98.913654  5.586635e+01 -1.675
10185 1   96.427373  5.304976e+01 -1.675
10186 1   95.204392  5.377136e+01 -1.675
10187 1   95.217831  5.519130e+01 -1.675
10188 1   96.454252  5.588963e+01 -1.675
10189 1   93.967971  5.307303e+01 -1.675
10190 1   92.744990  5.379464e+01 -1.675
10191 1   92.758429  5.521458e+01 -1.675
10192 1   93.994850  5.591291e+01 -1.675
10193 1   91.508569  5.309631e+01 -1.675
10194 1   90.285588  5.381792e+01 -1.675
10195 1   90.299027  5.523785e+01 -1.675
10196 1   91.535448  5.593618e+01 -1.675
10197 1   89.049167  5.311959e+01 -1.675
10198 1   87.826186  5.384120e+01 -1.675
10199 1   87.839625  5.526113e+01 -1.675
10200 1   89.076046  5.595946e+01 -1.675
10201 1   86.589765  5.314287e+01 -1.675
10202 1   85.366784  5.386447e+01 -1.675
10203 1   85.380223  5.528441e+01 -1.675
10204 1   86.616644  5.598274e+01 -1.675
10205 1   84.130363  5.316614e+01 -1.675
10206 1   82.907382  5.388775e+01 -1.675
10207 1   82.920821  5.530769e+01 -1.675
10208 1   84.157242  5.600602e+01 -1.675
10209 1   81.670961  5.318942e+01 -1.675
10210 1   80.447980  5.391103e+01 -1.675
10211 1   80.461419  5.533096e+01 -1.675
10212 1   81.697840  5.602929e+01 -1.675
10213 1   79.211559  5.321270e+01 -1.675
10214 1   77.988578  5.393431e+01 -1.675
10215 1   78.002017  5.535424e+01 -1.675
10216 1   79.238438  5.605257e+01 -1.675
10217 1   76.752157  5.323598e+01 -1.675
10218 1   75.529176  5.395758e+01 -1.675
10219 1   75.542615  5.537752e+01 -1.675
10220 1   76.779036  5.607585e+01 -1.675
10221 1   74.292755  5.325925e+01 -1.675
10222 1   73.069774  5.398086e+01 -1.675
10223 1   73.083213  5.540080e+01 -1.675
10224 1   74.319634  5.609913e+01 -1.675
10225 1   71.833353  5.328253e+01 -1.675
10226 1   70.610372  5.400414e+01 -1.675
10227 1   70.623811  5.542407e+01 -1.675
10228 1   71.860232  5.612240e+01 -1.675
10229 1   69.373951  5.330581e+01 -1.675
10230 1   68.150970  5.402742e+01 -1.675
10231 1   68.164409  5.544735e+01 -1.675
10232 1   69.400830  5.614568e+01 -1.675
10233 1   66.914549  5.332909e+01 -1.675
10234 1   65.691568  5.405069e+01 -1.675
10235 1   65.705007  5.547063e+01 -1.675
10236 1   66.941428  5.616896e+01 -1.675
10237 1   64.455147  5.335236e+01 -1.675
10238 1   63.232166  5.407397e+01 -1.675
10239 1   63.245605  5.549391e+01 -1.675
10240 1   64.482026  5.619224e+01 -1.675
10241 1   61.995745  5.337564e+01 -1.675
10242 1   60.772764  5.409725e+01 -1.675
10243 1   60.786203  5.551719e+01 -1.675
10244 1   62.022624  5.621551e+01 -1.675
10245 1   59.536343  5.339892e+01 -1.675
10246 1   58.313362  5.412053e+01 -1.675
10247 1   58.326801  5.554046e+01 -1.675
10248 1   59.563222  5.623879e+01 -1.675
10249 1   57.076941  5.342220e+01 -1.675
10250 1   55.853960  5.414380e+01 -1.675
10251 1   55.867399  5.556374e+01 -1.675
10252 1   57.103820  5.626207e+01 -1.675
10253 1   54.617539  5.344548e+01 -1.675
10254 1   53.394558  5.416708e+01 -1.675
10255 1   53.407997  5.558702e+01 -1.675
10256 1   54.644418  5.628535e+01 -1.675
10257 1   52.158137  5.346875e+01 -1.675
10258 1   50.935156  5.419036e+01 -1.675
10259 1   50.948595  5.561030e+01 -1.675
10260 1   52.185016  5.630863e+01 -1.675
10261 1   49.698735  5.349203e+01 -1.675
10262 1   48.475754  5.421364e+01 -1.675
10263 1   48.489193  5.563357e+01 -1.675
10264 1   49.725614  5.633190e+01 -1.675
10265 1   47.239333  5.351531e+01 -1.675
10266 1   46.016352  5.423692e+01 -1.675
10267 1   46.029791  5.565685e+01 -1.675
10268 1   47.266212  5.635518e+01 -1.675
10269 1   44.779931  5.353859e+01 -1.675
10270 1   43.556950  5.426019e+01 -1.675
10271 1   43.570389  5.568013e+01 -1.675
10272 1   44.806810  5.637846e+01 -1.675
10273 1   42.320529  5.356186e+01 -1.675
10274 1   41.097548  5.428347e+01 -1.675
10275 1   41.110987  5.570341e+01 -1.675
10276 1   42.347408  5.640174e+01 -1.675
10277 1   39.861127  5.358514e+01 -1.675
10278 1   38.638146  5.430675e+01 -1.675
10279 1   38.651585  5.572668e+01 -1.675
10280 1   39.888006  5.642501e+01 -1.675
10281 1   37.401725  5.360842e+01 -1.675
10282 1   36.178744  5.433003e+01 -1.675
10283 1   36.192183  5.574996e+01 -1.675
10284 1   37.428604  5.644829e+01 -1.675
10285 1   34.942323  5.363170e+01 -1.675
10286 1   33.719342  5.435330e+01 -1.675
10287 1   33.732781  5.577324e+01 -1.675
10288 1   34.969202  5.647157e+01 -1.675
10289 1   32.482921  5.365497e+01 -1.675
10290 1   31.259940  5.437658e+01 -1.675
10291 1   31.273379  5.579652e+01 -1.675
10292 1   32.509800  5.649485e+01 -1.675
10293 1   30.023519  5.367825e+01 -1.675
10294 1   28.800538  5.439986e+01 -1.675
10295 1   28.813977  5.581979e+01 -1.675
10296 1   30.050398  5.651812e+01 -1.675
10297 1   27.564117  5.370153e+01 -1.675
10298 1   26.341136  5.442314e+01 -1.675
10299 1   26.354575  5.584307e+01 -1.675
10300 1   27.590996  5.654140e+01 -1.675
10301 1   25.104715  5.372481e+01 -1.675
10302 1   23.881734  5.444641e+01 -1.675
10303 1   23.895173  5.586635e+01 -1.675
10304 1   25.131594  5.656468e+01 -1.675
10305 1   22.645313  5.374808e+01 -1.675
10306 1   21.422332  5.446969e+01 -1.675
10307 1   21.435771  5.588963e+01 -1.675
10308 1   22.672192  5.658796e+01 -1.675
10309 1   20.185911  5.377136e+01 -1.675
10310 1   18.962930  5.449297e+01 -1.675
10311 1   18.976369  5.591291e+01 -1.675
10312 1   20.212790  5.661123e+01 -1.675
10313 1   17.726509  5.379464e+01 -1.675
10314 1   16.503528  5.451625e+01 -1.675
10315 1   16.516967  5.593618e+01 -1.675
10316 1   17.753388  5.663451e+01 -1.675
10317 1   15.267107  5.381792e+01 -1.675
10318 1   14.044126  5.453952e+01 -1.675
10319 1   14.057565  5.595946e+01 -1.675
10320 1   15.293986  5.665779e+01 -1.675
10321 1   12.807705  5.384120e+01 -1.675
10322 1   11.584724  5.456280e+01 -1.675
10323 1   11.598163  5.598274e+01 -1.675
10324 1   12.834584  5.668107e+01 -1.675
10325 1   10.348303  5.386447e+01 -1.675
10326 1    9.125322  5.458608e+01 -1.675
10327 1    9.138761  5.600602e+01 -1.675
10328 1   10.375182  5.670435e+01 -1.675
10329 1    7.888901  5.388775e+01 -1.675
10330 1    6.665920  5.460936e+01 -1.675
10331 1    6.679360  5.602929e+01 -1.675
10332 1    7.915780  5.672762e+01 -1.675
10333 1    5.429499  5.391103e+01 -1.675
10334 1    4.206518  5.463263e+01 -1.675
10335 1    4.219958  5.605257e+01 -1.675
10336 1    5.456378  5.675090e+01 -1.675
10337 1    2.970097  5.393431e+01 -1.675
10338 1    1.747116  5.465591e+01 -1.675
10339 1    1.760556  5.607585e+01 -1.675
10340 1    2.996976  5.677418e+01 -1.675
10341 1    0.510695  5.395758e+01 -1.675
10342 1   -0.712286  5.467919e+01 -1.675
10343 1   -0.698846  5.609913e+01 -1.675
10344 1    0.537574  5.679746e+01 -1.675
10345 1   -1.948706  5.398086e+01 -1.675
10346 1   -3.171688  5.470247e+01 -1.675
10347 1   -3.158248  5.612240e+01 -1.675
10348 1   -1.921828  5.682073e+01 -1.675
10349 1   -4.408108  5.400414e+01 -1.675
10350 1   -5.631090  5.472575e+01 -1.675
10351 1   -5.617650  5.614568e+01 -1.675
10352 1   -4.381230  5.684401e+01 -1.675
10353 1   -6.867510  5.402742e+01 -1.675
10354 1   -8.090492  5.474902e+01 -1.675
10355 1   -8.077052  5.616896e+01 -1.675
10356 1   -6.840632  5.686729e+01 -1.675
10357 1   -9.326912  5.405069e+01 -1.675
10358 1  -10.549894  5.477230e+01 -1.675
10359 1  -10.536454  5.619224e+01 -1.675
10360 1   -9.300034  5.689057e+01 -1.675
10361 1  -11.786314  5.407397e+01 -1.675
10362 1  -13.009296  5.479558e+01 -1.675
10363 1  -12.995856  5.621551e+01 -1.675
10364 1  -11.759436  5.691384e+01 -1.675
10365 1  -14.245716  5.409725e+01 -1.675
10366 1  -15.468698  5.481886e+01 -1.675
10367 1  -15.455258  5.623879e+01 -1.675
10368 1  -14.218838  5.693712e+01 -1.675
10369 1  -16.705118  5.412053e+01 -1.675
10370 1  -17.928100  5.484213e+01 -1.675
10371 1  -17.914660  5.626207e+01 -1.675
10372 1  -16.678240  5.696040e+01 -1.675
10373 1  -19.164520  5.414380e+01 -1.675
10374 1  -20.387502  5.486541e+01 -1.675
10375 1  -20.374062  5.628535e+01 -1.675
10376 1  -19.137642  5.698368e+01 -1.675
10377 1  -21.623922  5.416708e+01 -1.675
10378 1  -22.846904  5.488869e+01 -1.675
10379 1  -22.833464  5.630863e+01 -1.675
10380 1  -21.597044  5.700695e+01 -1.675
10381 1  -24.083324  5.419036e+01 -1.675
10382 1  -25.306306  5.491197e+01 -1.675
10383 1  -25.292866  5.633190e+01 -1.675
10384 1  -24.056446  5.703023e+01 -1.675
10385 1  -26.542726  5.421364e+01 -1.675
10386 1  -27.765708  5.493524e+01 -1.675
10387 1  -27.752268  5.635518e+01 -1.675
10388 1  -26.515848  5.705351e+01 -1.675
10389 1  -29.002128  5.423692e+01 -1.675
10390 1  -30.225110  5.495852e+01 -1.675
10391 1  -30.211670  5.637846e+01 -1.675
10392 1  -28.975250  5.707679e+01 -1.675
10393 1  -31.461530  5.426019e+01 -1.675
10394 1  -32.684512  5.498180e+01 -1.675
10395 1  -32.671072  5.640174e+01 -1.675
10396 1  -31.434652  5.710007e+01 -1.675
10397 1  -33.920932  5.428347e+01 -1.675
10398 1  -35.143914  5.500508e+01 -1.675
10399 1  -35.130474  5.642501e+01 -1.675
10400 1  -33.894054  5.712334e+01 -1.675
10401 1  -36.380334  5.430675e+01 -1.675
10402 1  -37.603316  5.502835e+01 -1.675
10403 1  -37.589876  5.644829e+01 -1.675
10404 1  -36.353456  5.714662e+01 -1.675
10405 1  -38.839736  5.433003e+01 -1.675
10406 1  -40.062718  5.505163e+01 -1.675
10407 1  -40.049278  5.647157e+01 -1.675
10408 1  -38.812858  5.716990e+01 -1.675
10409 1  -41.299138  5.435330e+01 -1.675
10410 1  -42.522120  5.507491e+01 -1.675
10411 1  -42.508680  5.649485e+01 -1.675
10412 1  -41.272260  5.719318e+01 -1.675
10413 1  -43.758540  5.437658e+01 -1.675
10414 1  -44.981522  5.509819e+01 -1.675
10415 1  -44.968082  5.651812e+01 -1.675
10416 1  -43.731662  5.721645e+01 -1.675
10417 1  -46.217942  5.439986e+01 -1.675
10418 1  -47.440924  5.512147e+01 -1.675
10419 1  -47.427484  5.654140e+01 -1.675
10420 1  -46.191064  5.723973e+01 -1.675
10421 1  -48.677344  5.442314e+01 -1.675
10422 1  -49.900326  5.514474e+01 -1.675
10423 1  -49.886886  5.656468e+01 -1.675
10424 1  -48.650466  5.726301e+01 -1.675
10425 1  -51.136746  5.444641e+01 -1.675
10426 1  -52.359728  5.516802e+01 -1.675
10427 1  -52.346288  5.658796e+01 -1.675
10428 1  -51.109868  5.728629e+01 -1.675
10429 1  -53.596148  5.446969e+01 -1.675
10430 1  -54.819130  5.519130e+01 -1.675
10431 1  -54.805690  5.661123e+01 -1.675
10432 1  -53.569270  5.730956e+01 -1.675
10433 1  -56.055550  5.449297e+01 -1.675
10434 1  -57.278532  5.521458e+01 -1.675
10435 1  -57.265092  5.663451e+01 -1.675
10436 1  -56.028672  5.733284e+01 -1.675
10437 1  -58.514952  5.451625e+01 -1.675
10438 1  -59.737934  5.523785e+01 -1.675
10439 1  -59.724494  5.665779e+01 -1.675
10440 1  -58.488074  5.735612e+01 -1.675
10441 1  -60.974354  5.453952e+01 -1.675
10442 1  -62.197336  5.526113e+01 -1.675
10443 1  -62.183896  5.668107e+01 -1.675
10444 1  -60.947476  5.737940e+01 -1.675
10445 1  -63.433756  5.456280e+01 -1.675
10446 1  -64.656738  5.528441e+01 -1.675
10447 1  -64.643298  5.670435e+01 -1.675
10448 1  -63.406878  5.740267e+01 -1.675
10449 1  -65.893158  5.458608e+01 -1.675
10450 1  -67.116140  5.530769e+01 -1.675
10451 1  -67.102700  5.672762e+01 -1.675
10452 1  -65.866280  5.742595e+01 -1.675
10453 1  -68.352560  5.460936e+01 -1.675
10454 1  -69.575542  5.533096e+01 -1.675
10455 1  -69.562102  5.675090e+01 -1.675
10456 1  -68.325682  5.744923e+01 -1.675
10457 1  -70.811962  5.463263e+01 -1.675
10458 1  -72.034944  5.535424e+01 -1.675
10459 1  -72.021504  5.677418e+01 -1.675
10460 1  -70.785084  5.747251e+01 -1.675
10461 1  -73.271364  5.465591e+01 -1.675
10462 1  -74.494346  5.537752e+01 -1.675
10463 1  -74.480906  5.679746e+01 -1.675
10464 1  -73.244486  5.749579e+01 -1.675
10465 1  -75.730766  5.467919e+01 -1.675
10466 1  -76.953748  5.540080e+01 -1.675
10467 1  -76.940308  5.682073e+01 -1.675
10468 1  -75.703888  5.751906e+01 -1.675
10469 1  -78.190168  5.470247e+01 -1.675
10470 1  -79.413150  5.542407e+01 -1.675
10471 1  -79.399710  5.684401e+01 -1.675
10472 1  -78.163289  5.754234e+01 -1.675
10473 1  -80.649570  5.472575e+01 -1.675
10474 1  -81.872552  5.544735e+01 -1.675
10475 1  -81.859112  5.686729e+01 -1.675
10476 1  -80.622691  5.756562e+01 -1.675
10477 1  -83.108972  5.474902e+01 -1.675
10478 1  -84.331954  5.547063e+01 -1.675
10479 1  -84.318514  5.689057e+01 -1.675
10480 1  -83.082093  5.758890e+01 -1.675
10481 1  -85.568374  5.477230e+01 -1.675
10482 1  -86.791355  5.549391e+01 -1.675
10483 1  -86.777916  5.691384e+01 -1.675
10484 1  -85.541495  5.761217e+01 -1.675
10485 1  -88.027776  5.479558e+01 -1.675
10486 1  -89.250757  5.551719e+01 -1.675
10487 1  -89.237318  5.693712e+01 -1.675
10488 1  -88.000897  5.763545e+01 -1.675
10489 1  -90.487178  5.481886e+01 -1.675
10490 1  -91.710159  5.554046e+01 -1.675
10491 1  -91.696720  5.696040e+01 -1.675
10492 1  -90.460299  5.765873e+01 -1.675
10493 1  -92.946580  5.484213e+01 -1.675
10494 1  -94.169561  5.556374e+01 -1.675
10495 1  -94.156122  5.698368e+01 -1.675
10496 1  -92.919701  5.768201e+01 -1.675
10497 1  -95.405982  5.486541e+01 -1.675
10498 1  -96.628963  5.558702e+01 -1.675
10499 1  -96.615524  5.700695e+01 -1.675
10500 1  -95.379103  5.770528e+01 -1.675
10501 1  -97.865384  5.488869e+01 -1.675
10502 1  -99.088365  5.561030e+01 -1.675
10503 1  -99.074926  5.703023e+01 -1.675
10504 1  -97.838505  5.772856e+01 -1.675
10505 1 -100.324786  5.491197e+01 -1.675
10506 1 -101.547767  5.563357e+01 -1.675
10507 1 -101.534328  5.705351e+01 -1.675
10508 1 -100.297907  5.775184e+01 -1.675
10509 1 -102.784188  5.493524e+01 -1.675
10510 1 -104.007169  5.565685e+01 -1.675
10511 1 -103.993730  5.707679e+01 -1.675
10512 1 -102.757309  5.777512e+01 -1.675
10513 1 -105.243590  5.495852e+01 -1.675
10514 1 -106.466571  5.568013e+01 -1.675
10515 1 -106.453132  5.710007e+01 -1.675
10516 1 -105.216711  5.779839e+01 -1.675
10517 1 -107.702992  5.498180e+01 -1.675
10518 1 -108.925973  5.570341e+01 -1.675
10519 1 -108.912534  5.712334e+01 -1.675
10520 1 -107.676113  5.782167e+01 -1.675
10521 1 -110.162394  5.500508e+01 -1.675
10522 1 -111.385375  5.572668e+01 -1.675
10523 1 -111.371936  5.714662e+01 -1.675
10524 1 -110.135515  5.784495e+01 -1.675
10525 1  112.460524  5.786823e+01 -1.675
10526 1  112.473963  5.928816e+01 -1.675
10527 1  111.224103  5.716990e+01 -1.675
10528 1  110.001122  5.789151e+01 -1.675
10529 1  110.014561  5.931144e+01 -1.675
10530 1  111.250982  6.000977e+01 -1.675
10531 1  108.764701  5.719318e+01 -1.675
10532 1  107.541720  5.791478e+01 -1.675
10533 1  107.555159  5.933472e+01 -1.675
10534 1  108.791580  6.003305e+01 -1.675
10535 1  106.305299  5.721645e+01 -1.675
10536 1  105.082318  5.793806e+01 -1.675
10537 1  105.095757  5.935800e+01 -1.675
10538 1  106.332178  6.005633e+01 -1.675
10539 1  103.845897  5.723973e+01 -1.675
10540 1  102.622916  5.796134e+01 -1.675
10541 1  102.636355  5.938127e+01 -1.675
10542 1  103.872776  6.007960e+01 -1.675
10543 1  101.386495  5.726301e+01 -1.675
10544 1  100.163514  5.798462e+01 -1.675
10545 1  100.176953  5.940455e+01 -1.675
10546 1  101.413374  6.010288e+01 -1.675
10547 1   98.927093  5.728629e+01 -1.675
10548 1   97.704112  5.800789e+01 -1.675
10549 1   97.717551  5.942783e+01 -1.675
10550 1   98.953972  6.012616e+01 -1.675
10551 1   96.467691  5.730956e+01 -1.675
10552 1   95.244710  5.803117e+01 -1.675
10553 1   95.258149  5.945111e+01 -1.675
10554 1   96.494570  6.014944e+01 -1.675
10555 1   94.008289  5.733284e+01 -1.675
10556 1   92.785308  5.805445e+01 -1.675
10557 1   92.798747  5.947439e+01 -1.675
10558 1   94.035168  6.017271e+01 -1.675
10559 1   91.548887  5.735612e+01 -1.675
10560 1   90.325906  5.807773e+01 -1.675
10561 1   90.339345  5.949766e+01 -1.675
10562 1   91.575766  6.019599e+01 -1.675
10563 1   89.089485  5.737940e+01 -1.675
10564 1   87.866504  5.810100e+01 -1.675
10565 1   87.879943  5.952094e+01 -1.675
10566 1   89.116364  6.021927e+01 -1.675
10567 1   86.630083  5.740267e+01 -1.675
10568 1   85.407102  5.812428e+01 -1.675
10569 1   85.420541  5.954422e+01 -1.675
10570 1   86.656962  6.024255e+01 -1.675
10571 1   84.170681  5.742595e+01 -1.675
10572 1   82.947700  5.814756e+01 -1.675
10573 1   82.961139  5.956750e+01 -1.675
10574 1   84.197560  6.026583e+01 -1.675
10575 1   81.711279  5.744923e+01 -1.675
10576 1   80.488298  5.817084e+01 -1.675
10577 1   80.501737  5.959077e+01 -1.675
10578 1   81.738158  6.028910e+01 -1.675
10579 1   79.251877  5.747251e+01 -1.675
10580 1   78.028896  5.819411e+01 -1.675
10581 1   78.042335  5.961405e+01 -1.675
10582 1   79.278756  6.031238e+01 -1.675
10583 1   76.792475  5.749579e+01 -1.675
10584 1   75.569494  5.821739e+01 -1.675
10585 1   75.582933  5.963733e+01 -1.675
10586 1   76.819354  6.033566e+01 -1.675
10587 1   74.333073  5.751906e+01 -1.675
10588 1   73.110092  5.824067e+01 -1.675
10589 1   73.123531  5.966061e+01 -1.675
10590 1   74.359952  6.035894e+01 -1.675
10591 1   71.873671  5.754234e+01 -1.675
10592 1   70.650690  5.826395e+01 -1.675
10593 1   70.664129  5.968388e+01 -1.675
10594 1   71.900550  6.038221e+01 -1.675
10595 1   69.414269  5.756562e+01 -1.675
10596 1   68.191288  5.828723e+01 -1.675
10597 1   68.204727  5.970716e+01 -1.675
10598 1   69.441148  6.040549e+01 -1.675
10599 1   66.954867  5.758890e+01 -1.675
10600 1   65.731886  5.831050e+01 -1.675
10601 1   65.745325  5.973044e+01 -1.675
10602 1   66.981746  6.042877e+01 -1.675
10603 1   64.495465  5.761217e+01 -1.675
10604 1   63.272484  5.833378e+01 -1.675
10605 1   63.285923  5.975372e+01 -1.675
10606 1   64.522344  6.045205e+01 -1.675
10607 1   62.036063  5.763545e+01 -1.675
10608 1   60.813082  5.835706e+01 -1.675
10609 1   60.826521  5.977699e+01 -1.675
10610 1   62.062942  6.047532e+01 -1.675
10611 1   59.576661  5.765873e+01 -1.675
10612 1   58.353680  5.838034e+01 -1.675
10613 1   58.367119  5.980027e+01 -1.675
10614 1   59.603540  6.049860e+01 -1.675
10615 1   57.117259  5.768201e+01 -1.675
10616 1   55.894278  5.840361e+01 -1.675
10617 1   55.907717  5.982355e+01 -1.675
10618 1   57.144138  6.052188e+01 -1.675
10619 1   54.657857  5.770528e+01 -1.675
10620 1   53.434876  5.842689e+01 -1.675
10621 1   53.448315  5.984683e+01 -1.675
10622 1   54.684736  6.054516e+01 -1.675
10623 1   52.198455  5.772856e+01 -1.675
10624 1   50.975474  5.845017e+01 -1.675
10625 1   50.988913  5.987011e+01 -1.675
10626 1   52.225334  6.056843e+01 -1.675
10627 1   49.739053  5.775184e+01 -1.675
10628 1   48.516072  5.847345e+01 -1.675
10629 1   48.529511  5.989338e+01 -1.675
10630 1   49.765932  6.059171e+01 -1.675
10631 1   47.279651  5.777512e+01 -1.675
10632 1   46.056670  5.849672e+01 -1.675
10633 1   46.070109  5.991666e+01 -1.675
10634 1   47.306530  6.061499e+01 -1.675
10635 1   44.820249  5.779839e+01 -1.675
10636 1   43.597268  5.852000e+01 -1.675
10637 1   43.610707  5.993994e+01 -1.675
10638 1   44.847128  6.063827e+01 -1.675
10639 1   42.360847  5.782167e+01 -1.675
10640 1   41.137866  5.854328e+01 -1.675
10641 1   41.151305  5.996322e+01 -1.675
10642 1   42.387726  6.066155e+01 -1.675
10643 1   39.901445  5.784495e+01 -1.675
10644 1   38.678464  5.856656e+01 -1.675
10645 1   38.691903  5.998649e+01 -1.675
10646 1   39.928324  6.068482e+01 -1.675
10647 1   37.442043  5.786823e+01 -1.675
10648 1   36.219062  5.858983e+01 -1.675
10649 1   36.232501  6.000977e+01 -1.675
10650 1   37.468922  6.070810e+01 -1.675
10651 1   34.982641  5.789151e+01 -1.675
10652 1   33.759660  5.861311e+01 -1.675
10653 1   33.773099  6.003305e+01 -1.675
10654 1   35.009520  6.073138e+01 -1.675
10655 1   32.523239  5.791478e+01 -1.675
10656 1   31.300258  5.863639e+01 -1.675
10657 1   31.313697  6.005633e+01 -1.675
10658 1   32.550118  6.075466e+01 -1.675
10659 1   30.063837  5.793806e+01 -1.675
10660 1   28.840856  5.865967e+01 -1.675
10661 1   28.854295  6.007960e+01 -1.675
10662 1   30.090716  6.077793e+01 -1.675
10663 1   27.604435  5.796134e+01 -1.675
10664 1   26.381454  5.868295e+01 -1.675
10665 1   26.394893  6.010288e+01 -1.675
10666 1   27.631314  6.080121e+01 -1.675
10667 1   25.145033  5.798462e+01 -1.675
10668 1   23.922052  5.870622e+01 -1.675
10669 1   23.935492  6.012616e+01 -1.675
10670 1   25.171912  6.082449e+01 -1.675
10671 1   22.685631  5.800789e+01 -1.675
10672 1   21.462650  5.872950e+01 -1.675
10673 1   21.476090  6.014944e+01 -1.675
10674 1   22.712510  6.084777e+01 -1.675
10675 1   20.226229  5.803117e+01 -1.675
10676 1   19.003248  5.875278e+01 -1.675
10677 1   19.016688  6.017271e+01 -1.675
10678 1   20.253108  6.087104e+01 -1.675
10679 1   17.766827  5.805445e+01 -1.675
10680 1   16.543846  5.877606e+01 -1.675
10681 1   16.557286  6.019599e+01 -1.675
10682 1   17.793706  6.089432e+01 -1.675
10683 1   15.307426  5.807773e+01 -1.675
10684 1   14.084444  5.879933e+01 -1.675
10685 1   14.097884  6.021927e+01 -1.675
10686 1   15.334304  6.091760e+01 -1.675
10687 1   12.848024  5.810100e+01 -1.675
10688 1   11.625042  5.882261e+01 -1.675
10689 1   11.638482  6.024255e+01 -1.675
10690 1   12.874902  6.094088e+01 -1.675
10691 1   10.388622  5.812428e+01 -1.675
10692 1    9.165640  5.884589e+01 -1.675
10693 1    9.179080  6.026583e+01 -1.675
10694 1   10.415500  6.096415e+01 -1.675
10695 1    7.929220  5.814756e+01 -1.675
10696 1    6.706238  5.886917e+01 -1.675
10697 1    6.719678  6.028910e+01 -1.675
10698 1    7.956098  6.098743e+01 -1.675
10699 1    5.469818  5.817084e+01 -1.675
10700 1    4.246836  5.889244e+01 -1.675
10701 1    4.260276  6.031238e+01 -1.675
10702 1    5.496696  6.101071e+01 -1.675
10703 1    3.010416  5.819411e+01 -1.675
10704 1    1.787434  5.891572e+01 -1.675
10705 1    1.800874  6.033566e+01 -1.675
10706 1    3.037294  6.103399e+01 -1.675
10707 1    0.551014  5.821739e+01 -1.675
10708 1   -0.671968  5.893900e+01 -1.675
10709 1   -0.658528  6.035894e+01 -1.675
10710 1    0.577892  6.105727e+01 -1.675
10711 1   -1.908388  5.824067e+01 -1.675
10712 1   -3.131370  5.896228e+01 -1.675
10713 1   -3.117930  6.038221e+01 -1.675
10714 1   -1.881510  6.108054e+01 -1.675
10715 1   -4.367790  5.826395e+01 -1.675
10716 1   -5.590772  5.898555e+01 -1.675
10717 1   -5.577332  6.040549e+01 -1.675
10718 1   -4.340912  6.110382e+01 -1.675
10719 1   -6.827192  5.828723e+01 -1.675
10720 1   -8.050174  5.900883e+01 -1.675
10721 1   -8.036734  6.042877e+01 -1.675
10722 1   -6.800314  6.112710e+01 -1.675
10723 1   -9.286594  5.831050e+01 -1.675
10724 1  -10.509576  5.903211e+01 -1.675
10725 1  -10.496136  6.045205e+01 -1.675
10726 1   -9.259716  6.115038e+01 -1.675
10727 1  -11.745996  5.833378e+01 -1.675
10728 1  -12.968978  5.905539e+01 -1.675
10729 1  -12.955538  6.047532e+01 -1.675
10730 1  -11.719118  6.117365e+01 -1.675
10731 1  -14.205398  5.835706e+01 -1.675
10732 1  -15.428380  5.907867e+01 -1.675
10733 1  -15.414940  6.049860e+01 -1.675
10734 1  -14.178520  6.119693e+01 -1.675
10735 1  -16.664800  5.838034e+01 -1.675
10736 1  -17.887782  5.910194e+01 -1.675
10737 1  -17.874342  6.052188e+01 -1.675
10738 1  -16.637922  6.122021e+01 -1.675
10739 1  -19.124202  5.840361e+01 -1.675
10740 1  -20.347184  5.912522e+01 -1.675
10741 1  -20.333744  6.054516e+01 -1.675
10742 1  -19.097324  6.124349e+01 -1.675
10743 1  -21.583604  5.842689e+01 -1.675
10744 1  -22.806586  5.914850e+01 -1.675
10745 1  -22.793146  6.056843e+01 -1.675
10746 1  -21.556726  6.126676e+01 -1.675
10747 1  -24.043006  5.845017e+01 -1.675
10748 1  -25.265988  5.917178e+01 -1.675
10749 1  -25.252548  6.059171e+01 -1.675
10750 1  -24.016128  6.129004e+01 -1.675
10751 1  -26.502408  5.847345e+01 -1.675
10752 1  -27.725390  5.919505e+01 -1.675
10753 1  -27.711950  6.061499e+01 -1.675
10754 1  -26.475530  6.131332e+01 -1.675
10755 1  -28.961810  5.849672e+01 -1.675
10756 1  -30.184792  5.921833e+01 -1.675
10757 1  -30.171352  6.063827e+01 -1.675
10758 1  -28.934932  6.133660e+01 -1.675
10759 1  -31.421212  5.852000e+01 -1.675
10760 1  -32.644194  5.924161e+01 -1.675
10761 1  -32.630754  6.066155e+01 -1.675
10762 1  -31.394334  6.135987e+01 -1.675
10763 1  -33.880614  5.854328e+01 -1.675
10764 1  -35.103596  5.926489e+01 -1.675
10765 1  -35.090156  6.068482e+01 -1.675
10766 1  -33.853736  6.138315e+01 -1.675
10767 1  -36.340016  5.856656e+01 -1.675
10768 1  -37.562998  5.928816e+01 -1.675
10769 1  -37.549558  6.070810e+01 -1.675
10770 1  -36.313138  6.140643e+01 -1.675
10771 1  -38.799418  5.858983e+01 -1.675
10772 1  -40.022400  5.931144e+01 -1.675
10773 1  -40.008960  6.073138e+01 -1.675
10774 1  -38.772540  6.142971e+01 -1.675
10775 1  -41.258820  5.861311e+01 -1.675
10776 1  -42.481802  5.933472e+01 -1.675
10777 1  -42.468362  6.075466e+01 -1.675
10778 1  -41.231942  6.145299e+01 -1.675
10779 1  -43.718222  5.863639e+01 -1.675
10780 1  -44.941204  5.935800e+01 -1.675
10781 1  -44.927764  6.077793e+01 -1.675
10782 1  -43.691344  6.147626e+01 -1.675
10783 1  -46.177624  5.865967e+01 -1.675
10784 1  -47.400606  5.938127e+01 -1.675
10785 1  -47.387166  6.080121e+01 -1.675
10786 1  -46.150746  6.149954e+01 -1.675
10787 1  -48.637026  5.868295e+01 -1.675
10788 1  -49.860008  5.940455e+01 -1.675
10789 1  -49.846568  6.082449e+01 -1.675
10790 1  -48.610148  6.152282e+01 -1.675
10791 1  -51.096428  5.870622e+01 -1.675
10792 1  -52.319410  5.942783e+01 -1.675
10793 1  -52.305970  6.084777e+01 -1.675
10794 1  -51.069550  6.154610e+01 -1.675
10795 1  -53.555830  5.872950e+01 -1.675
10796 1  -54.778812  5.945111e+01 -1.675
10797 1  -54.765372  6.087104e+01 -1.675
10798 1  -53.528952  6.156937e+01 -1.675
10799 1  -56.015232  5.875278e+01 -1.675
10800 1  -57.238214  5.947439e+01 -1.675
10801 1  -57.224774  6.089432e+01 -1.675
10802 1  -55.988354  6.159265e+01 -1.675
10803 1  -58.474634  5.877606e+01 -1.675
10804 1  -59.697616  5.949766e+01 -1.675
10805 1  -59.684176  6.091760e+01 -1.675
10806 1  -58.447756  6.161593e+01 -1.675
10807 1  -60.934036  5.879933e+01 -1.675
10808 1  -62.157018  5.952094e+01 -1.675
10809 1  -62.143578  6.094088e+01 -1.675
10810 1  -60.907157  6.163921e+01 -1.675
10811 1  -63.393438  5.882261e+01 -1.675
10812 1  -64.616420  5.954422e+01 -1.675
10813 1  -64.602980  6.096415e+01 -1.675
10814 1  -63.366559  6.166248e+01 -1.675
10815 1  -65.852840  5.884589e+01 -1.675
10816 1  -67.075822  5.956750e+01 -1.675
10817 1  -67.062382  6.098743e+01 -1.675
10818 1  -65.825961  6.168576e+01 -1.675
10819 1  -68.312242  5.886917e+01 -1.675
10820 1  -69.535223  5.959077e+01 -1.675
10821 1  -69.521784  6.101071e+01 -1.675
10822 1  -68.285363  6.170904e+01 -1.675
10823 1  -70.771644  5.889244e+01 -1.675
10824 1  -71.994625  5.961405e+01 -1.675
10825 1  -71.981186  6.103399e+01 -1.675
10826 1  -70.744765  6.173232e+01 -1.675
10827 1  -73.231046  5.891572e+01 -1.675
10828 1  -74.454027  5.963733e+01 -1.675
10829 1  -74.440588  6.105727e+01 -1.675
10830 1  -73.204167  6.175559e+01 -1.675
10831 1  -75.690448  5.893900e+01 -1.675
10832 1  -76.913429  5.966061e+01 -1.675
10833 1  -76.899990  6.108054e+01 -1.675
10834 1  -75.663569  6.177887e+01 -1.675
10835 1  -78.149850  5.896228e+01 -1.675
10836 1  -79.372831  5.968388e+01 -1.675
10837 1  -79.359392  6.110382e+01 -1.675
10838 1  -78.122971  6.180215e+01 -1.675
10839 1  -80.609252  5.898555e+01 -1.675
10840 1  -81.832233  5.970716e+01 -1.675
10841 1  -81.818794  6.112710e+01 -1.675
10842 1  -80.582373  6.182543e+01 -1.675
10843 1  -83.068654  5.900883e+01 -1.675
10844 1  -84.291635  5.973044e+01 -1.675
10845 1  -84.278196  6.115038e+01 -1.675
10846 1  -83.041775  6.184871e+01 -1.675
10847 1  -85.528056  5.903211e+01 -1.675
10848 1  -86.751037  5.975372e+01 -1.675
10849 1  -86.737598  6.117365e+01 -1.675
10850 1  -85.501177  6.187198e+01 -1.675
10851 1  -87.987458  5.905539e+01 -1.675
10852 1  -89.210439  5.977699e+01 -1.675
10853 1  -89.197000  6.119693e+01 -1.675
10854 1  -87.960579  6.189526e+01 -1.675
10855 1  -90.446860  5.907867e+01 -1.675
10856 1  -91.669841  5.980027e+01 -1.675
10857 1  -91.656402  6.122021e+01 -1.675
10858 1  -90.419981  6.191854e+01 -1.675
10859 1  -92.906262  5.910194e+01 -1.675
10860 1  -94.129243  5.982355e+01 -1.675
10861 1  -94.115804  6.124349e+01 -1.675
10862 1  -92.879383  6.194182e+01 -1.675
10863 1  -95.365664  5.912522e+01 -1.675
10864 1  -96.588645  5.984683e+01 -1.675
10865 1  -96.575206  6.126676e+01 -1.675
10866 1  -95.338785  6.196509e+01 -1.675
10867 1  -97.825066  5.914850e+01 -1.675
10868 1  -99.048047  5.987011e+01 -1.675
10869 1  -99.034608  6.129004e+01 -1.675
10870 1  -97.798187  6.198837e+01 -1.675
10871 1 -100.284468  5.917178e+01 -1.675
10872 1 -101.507449  5.989338e+01 -1.675
10873 1 -101.494010  6.131332e+01 -1.675
10874 1 -100.257589  6.201165e+01 -1.675
10875 1 -102.743870  5.919505e+01 -1.675
10876 1 -103.966851  5.991666e+01 -1.675
10877 1 -103.953412  6.133660e+01 -1.675
10878 1 -102.716991  6.203493e+01 -1.675
10879 1 -105.203272  5.921833e+01 -1.675
10880 1 -106.426253  5.993994e+01 -1.675
10881 1 -106.412814  6.135987e+01 -1.675
10882 1 -105.176393  6.205820e+01 -1.675
10883 1 -107.662674  5.924161e+01 -1.675
10884 1 -108.885655  5.996322e+01 -1.675
10885 1 -108.872216  6.138315e+01 -1.675
10886 1 -107.635795  6.208148e+01 -1.675
10887 1 -110.122076  5.926489e+01 -1.675
10888 1 -111.345057  5.998649e+01 -1.675
10889 1 -111.331618  6.140643e+01 -1.675
10890 1 -110.095197  6.210476e+01 -1.675
10891 1  112.500842  6.212804e+01 -1.675
10892 1  112.514281  6.354797e+01 -1.675
10893 1  111.264421  6.142971e+01 -1.675
10894 1  110.041440  6.215131e+01 -1.675
10895 1  110.054879  6.357125e+01 -1.675
10896 1  111.291300  6.426958e+01 -1.675
10897 1  108.805019  6.145299e+01 -1.675
10898 1  107.582038  6.217459e+01 -1.675
10899 1  107.595477  6.359453e+01 -1.675
10900 1  108.831898  6.429286e+01 -1.675
10901 1  106.345617  6.147626e+01 -1.675
10902 1  105.122636  6.219787e+01 -1.675
10903 1  105.136075  6.361781e+01 -1.675
10904 1  106.372496  6.431614e+01 -1.675
10905 1  103.886215  6.149954e+01 -1.675
10906 1  102.663234  6.222115e+01 -1.675
10907 1  102.676673  6.364108e+01 -1.675
10908 1  103.913094  6.433941e+01 -1.675
10909 1  101.426813  6.152282e+01 -1.675
10910 1  100.203832  6.224443e+01 -1.675
10911 1  100.217271  6.366436e+01 -1.675
10912 1  101.453692  6.436269e+01 -1.675
10913 1   98.967411  6.154610e+01 -1.675
10914 1   97.744430  6.226770e+01 -1.675
10915 1   97.757869  6.368764e+01 -1.675
10916 1   98.994290  6.438597e+01 -1.675
10917 1   96.508009  6.156937e+01 -1.675
10918 1   95.285028  6.229098e+01 -1.675
10919 1   95.298467  6.371092e+01 -1.675
10920 1   96.534888  6.440925e+01 -1.675
10921 1   94.048607  6.159265e+01 -1.675
10922 1   92.825626  6.231426e+01 -1.675
10923 1   92.839065  6.373419e+01 -1.675
10924 1   94.075486  6.443252e+01 -1.675
10925 1   91.589205  6.161593e+01 -1.675
10926 1   90.366224  6.233754e+01 -1.675
10927 1   90.379663  6.375747e+01 -1.675
10928 1   91.616084  6.445580e+01 -1.675
10929 1   89.129803  6.163921e+01 -1.675
10930 1   87.906822  6.236081e+01 -1.675
10931 1   87.920261  6.378075e+01 -1.675
10932 1   89.156682  6.447908e+01 -1.675
10933 1   86.670401  6.166248e+01 -1.675
10934 1   85.447420  6.238409e+01 -1.675
10935 1   85.460859  6.380403e+01 -1.675
10936 1   86.697280  6.450236e+01 -1.675
10937 1   84.210999  6.168576e+01 -1.675
10938 1   82.988018  6.240737e+01 -1.675
10939 1   83.001457  6.382731e+01 -1.675
10940 1   84.237878  6.452563e+01 -1.675
10941 1   81.751597  6.170904e+01 -1.675
10942 1   80.528616  6.243065e+01 -1.675
10943 1   80.542055  6.385058e+01 -1.675
10944 1   81.778476  6.454891e+01 -1.675
10945 1   79.292195  6.173232e+01 -1.675
10946 1   78.069214  6.245392e+01 -1.675
10947 1   78.082653  6.387386e+01 -1.675
10948 1   79.319074  6.457219e+01 -1.675
10949 1   76.832793  6.175559e+01 -1.675
10950 1   75.609812  6.247720e+01 -1.675
10951 1   75.623251  6.389714e+01 -1.675
10952 1   76.859672  6.459547e+01 -1.675
10953 1   74.373391  6.177887e+01 -1.675
10954 1   73.150410  6.250048e+01 -1.675
10955 1   73.163849  6.392042e+01 -1.675
10956 1   74.400270  6.461875e+01 -1.675
10957 1   71.913989  6.180215e+01 -1.675
10958 1   70.691008  6.252376e+01 -1.675
10959 1   70.704447  6.394369e+01 -1.675
10960 1   71.940868  6.464202e+01 -1.675
10961 1   69.454587  6.182543e+01 -1.675
10962 1   68.231606  6.254703e+01 -1.675
10963 1   68.245045  6.396697e+01 -1.675
10964 1   69.481466  6.466530e+01 -1.675
10965 1   66.995185  6.184871e+01 -1.675
10966 1   65.772204  6.257031e+01 -1.675
10967 1   65.785643  6.399025e+01 -1.675
10968 1   67.022064  6.468858e+01 -1.675
10969 1   64.535783  6.187198e+01 -1.675
10970 1   63.312802  6.259359e+01 -1.675
10971 1   63.326241  6.401353e+01 -1.675
10972 1   64.562662  6.471186e+01 -1.675
10973 1   62.076381  6.189526e+01 -1.675
10974 1   60.853400  6.261687e+01 -1.675
10975 1   60.866839  6.403680e+01 -1.675
10976 1   62.103260  6.473513e+01 -1.675
10977 1   59.616979  6.191854e+01 -1.675
10978 1   58.393998  6.264015e+01 -1.675
10979 1   58.407437  6.406008e+01 -1.675
10980 1   59.643858  6.475841e+01 -1.675
10981 1   57.157577  6.194182e+01 -1.675
10982 1   55.934596  6.266342e+01 -1.675
10983 1   55.948035  6.408336e+01 -1.675
10984 1   57.184456  6.478169e+01 -1.675
10985 1   54.698175  6.196509e+01 -1.675
10986 1   53.475194  6.268670e+01 -1.675
10987 1   53.488633  6.410664e+01 -1.675
10988 1   54.725054  6.480497e+01 -1.675
10989 1   52.238773  6.198837e+01 -1.675
10990 1   51.015792  6.270998e+01 -1.675
10991 1   51.029231  6.412991e+01 -1.675
10992 1   52.265652  6.482824e+01 -1.675
10993 1   49.779371  6.201165e+01 -1.675
10994 1   48.556390  6.273326e+01 -1.675
10995 1   48.569829  6.415319e+01 -1.675
10996 1   49.806250  6.485152e+01 -1.675
10997 1   47.319969  6.203493e+01 -1.675
10998 1   46.096988  6.275653e+01 -1.675
10999 1   46.110427  6.417647e+01 -1.675
11000 1   47.346848  6.487480e+01 -1.675
11001 1   44.860567  6.205820e+01 -1.675
11002 1   43.637586  6.277981e+01 -1.675
11003 1   43.651025  6.419975e+01 -1.675
11004 1   44.887446  6.489808e+01 -1.675
11005 1   42.401165  6.208148e+01 -1.675
11006 1   41.178184  6.280309e+01 -1.675
11007 1   41.191624  6.422303e+01 -1.675
11008 1   42.428044  6.492135e+01 -1.675
11009 1   39.941763  6.210476e+01 -1.675
11010 1   38.718782  6.282637e+01 -1.675
11011 1   38.732222  6.424630e+01 -1.675
11012 1   39.968642  6.494463e+01 -1.675
11013 1   37.482361  6.212804e+01 -1.675
11014 1   36.259380  6.284964e+01 -1.675
11015 1   36.272820  6.426958e+01 -1.675
11016 1   37.509240  6.496791e+01 -1.675
11017 1   35.022959  6.215131e+01 -1.675
11018 1   33.799978  6.287292e+01 -1.675
11019 1   33.813418  6.429286e+01 -1.675
11020 1   32.563558  6.217459e+01 -1.675
11021 1   31.340576  6.289620e+01 -1.675
11022 1   31.354016  6.431614e+01 -1.675
11023 1   30.104156  6.219787e+01 -1.675
11024 1   28.881174  6.291948e+01 -1.675
11025 1   28.894614  6.433941e+01 -1.675
11026 1   27.644754  6.222115e+01 -1.675
11027 1   26.421772  6.294275e+01 -1.675
11028 1   26.435212  6.436269e+01 -1.675
11029 1   25.185352  6.224443e+01 -1.675
11030 1   23.962370  6.296603e+01 -1.675
11031 1   23.975810  6.438597e+01 -1.675
11032 1   22.725950  6.226770e+01 -1.675
11033 1   21.502968  6.298931e+01 -1.675
11034 1   21.516408  6.440925e+01 -1.675
11035 1   20.266548  6.229098e+01 -1.675
11036 1   19.043566  6.301259e+01 -1.675
11037 1   19.057006  6.443252e+01 -1.675
11038 1   17.807146  6.231426e+01 -1.675
11039 1   16.584164  6.303587e+01 -1.675
11040 1   16.597604  6.445580e+01 -1.675
11041 1   15.347744  6.233754e+01 -1.675
11042 1   14.124762  6.305914e+01 -1.675
11043 1   14.138202  6.447908e+01 -1.675
11044 1   12.888342  6.236081e+01 -1.675
11045 1   11.665360  6.308242e+01 -1.675
11046 1   11.678800  6.450236e+01 -1.675
11047 1   10.428940  6.238409e+01 -1.675
11048 1    9.205958  6.310570e+01 -1.675
11049 1    9.219398  6.452563e+01 -1.675
11050 1    7.969538  6.240737e+01 -1.675
11051 1    6.746556  6.312898e+01 -1.675
11052 1    6.759996  6.454891e+01 -1.675
11053 1    5.510136  6.243065e+01 -1.675
11054 1    4.287154  6.315225e+01 -1.675
11055 1    4.300594  6.457219e+01 -1.675
11056 1    3.050734  6.245392e+01 -1.675
11057 1    1.827752  6.317553e+01 -1.675
11058 1    1.841192  6.459547e+01 -1.675
11059 1    0.591332  6.247720e+01 -1.675
11060 1   -0.631650  6.319881e+01 -1.675
11061 1   -0.618210  6.461875e+01 -1.675
11062 1   -1.868070  6.250048e+01 -1.675
11063 1   -3.091052  6.322209e+01 -1.675
11064 1   -3.077612  6.464202e+01 -1.675
11065 1   -4.327472  6.252376e+01 -1.675
11066 1   -5.550454  6.324536e+01 -1.675
11067 1   -5.537014  6.466530e+01 -1.675
11068 1   -6.786874  6.254703e+01 -1.675
11069 1   -8.009856  6.326864e+01 -1.675
11070 1   -7.996416  6.468858e+01 -1.675
11071 1   -9.246276  6.257031e+01 -1.675
11072 1  -10.469258  6.329192e+01 -1.675
11073 1  -10.455818  6.471186e+01 -1.675
11074 1  -11.705678  6.259359e+01 -1.675
11075 1  -12.928660  6.331520e+01 -1.675
11076 1  -12.915220  6.473513e+01 -1.675
11077 1  -14.165080  6.261687e+01 -1.675
11078 1  -15.388062  6.333847e+01 -1.675
11079 1  -15.374622  6.475841e+01 -1.675
11080 1  -16.624482  6.264015e+01 -1.675
11081 1  -17.847464  6.336175e+01 -1.675
11082 1  -17.834024  6.478169e+01 -1.675
11083 1  -19.083884  6.266342e+01 -1.675
11084 1  -20.306866  6.338503e+01 -1.675
11085 1  -20.293426  6.480497e+01 -1.675
11086 1  -21.543286  6.268670e+01 -1.675
11087 1  -22.766268  6.340831e+01 -1.675
11088 1  -22.752828  6.482824e+01 -1.675
11089 1  -24.002688  6.270998e+01 -1.675
11090 1  -25.225670  6.343159e+01 -1.675
11091 1  -25.212230  6.485152e+01 -1.675
11092 1  -26.462090  6.273326e+01 -1.675
11093 1  -27.685072  6.345486e+01 -1.675
11094 1  -27.671632  6.487480e+01 -1.675
11095 1  -28.921492  6.275653e+01 -1.675
11096 1  -30.144474  6.347814e+01 -1.675
11097 1  -30.131034  6.489808e+01 -1.675
11098 1  -31.380894  6.277981e+01 -1.675
11099 1  -32.603876  6.350142e+01 -1.675
11100 1  -32.590436  6.492135e+01 -1.675
11101 1  -33.840296  6.280309e+01 -1.675
11102 1  -35.063278  6.352470e+01 -1.675
11103 1  -35.049838  6.494463e+01 -1.675
11104 1  -36.299698  6.282637e+01 -1.675
11105 1  -37.522680  6.354797e+01 -1.675
11106 1  -37.509240  6.496791e+01 -1.675
11107 1  -38.759100  6.284964e+01 -1.675
11108 1  -39.982082  6.357125e+01 -1.675
11109 1  -41.218502  6.287292e+01 -1.675
11110 1  -42.441484  6.359453e+01 -1.675
11111 1  -43.677904  6.289620e+01 -1.675
11112 1  -44.900886  6.361781e+01 -1.675
11113 1  -46.137306  6.291948e+01 -1.675
11114 1  -47.360288  6.364108e+01 -1.675
11115 1  -48.596708  6.294275e+01 -1.675
11116 1  -49.819690  6.366436e+01 -1.675
11117 1  -51.056110  6.296603e+01 -1.675
11118 1  -52.279091  6.368764e+01 -1.675
11119 1  -53.515512  6.298931e+01 -1.675
11120 1  -54.738493  6.371092e+01 -1.675
11121 1  -55.974914  6.301259e+01 -1.675
11122 1  -57.197895  6.373419e+01 -1.675
11123 1  -58.434316  6.303587e+01 -1.675
11124 1  -59.657297  6.375747e+01 -1.675
11125 1  -60.893718  6.305914e+01 -1.675
11126 1  -62.116699  6.378075e+01 -1.675
11127 1  -63.353120  6.308242e+01 -1.675
11128 1  -64.576101  6.380403e+01 -1.675
11129 1  -65.812522  6.310570e+01 -1.675
11130 1  -67.035503  6.382731e+01 -1.675
11131 1  -68.271924  6.312898e+01 -1.675
11132 1  -69.494905  6.385058e+01 -1.675
11133 1  -70.731326  6.315225e+01 -1.675
11134 1  -71.954307  6.387386e+01 -1.675
11135 1  -73.190728  6.317553e+01 -1.675
11136 1  -74.413709  6.389714e+01 -1.675
11137 1  -75.650130  6.319881e+01 -1.675
11138 1  -76.873111  6.392042e+01 -1.675
11139 1  -78.109532  6.322209e+01 -1.675
11140 1  -79.332513  6.394369e+01 -1.675
11141 1  -80.568934  6.324536e+01 -1.675
11142 1  -81.791915  6.396697e+01 -1.675
11143 1  -83.028336  6.326864e+01 -1.675
11144 1  -84.251317  6.399025e+01 -1.675
11145 1  -85.487738  6.329192e+01 -1.675
11146 1  -86.710719  6.401353e+01 -1.675
11147 1  -87.947140  6.331520e+01 -1.675
11148 1  -89.170121  6.403680e+01 -1.675
11149 1  -90.406542  6.333847e+01 -1.675
11150 1  -91.629523  6.406008e+01 -1.675
11151 1  -92.865944  6.336175e+01 -1.675
11152 1  -94.088925  6.408336e+01 -1.675
11153 1  -95.325346  6.338503e+01 -1.675
11154 1  -96.548327  6.410664e+01 -1.675
11155 1  -97.784748  6.340831e+01 -1.675
11156 1  -99.007729  6.412991e+01 -1.675
11157 1 -100.244150  6.343159e+01 -1.675
11158 1 -101.467131  6.415319e+01 -1.675
11159 1 -102.703552  6.345486e+01 -1.675
11160 1 -103.926533  6.417647e+01 -1.675
11161 1 -105.162954  6.347814e+01 -1.675
11162 1 -106.385935  6.419975e+01 -1.675
11163 1 -107.622356  6.350142e+01 -1.675
11164 1 -108.845337  6.422303e+01 -1.675
11165 1 -110.081758  6.352470e+01 -1.675
11166 1 -111.304739  6.424630e+01 -1.675
11167 1  112.514281 -6.354797e+01  1.675
11168 1  112.500842 -6.212804e+01  1.675
11169 1  111.291300 -6.426958e+01  1.675
11170 1  110.054879 -6.357125e+01  1.675
11171 1  110.041440 -6.215131e+01  1.675
11172 1  111.264421 -6.142971e+01  1.675
11173 1  108.831898 -6.429286e+01  1.675
11174 1  107.595477 -6.359453e+01  1.675
11175 1  107.582038 -6.217459e+01  1.675
11176 1  108.805019 -6.145299e+01  1.675
11177 1  106.372496 -6.431614e+01  1.675
11178 1  105.136075 -6.361781e+01  1.675
11179 1  105.122636 -6.219787e+01  1.675
11180 1  106.345617 -6.147626e+01  1.675
11181 1  103.913094 -6.433941e+01  1.675
11182 1  102.676673 -6.364108e+01  1.675
11183 1  102.663234 -6.222115e+01  1.675
11184 1  103.886215 -6.149954e+01  1.675
11185 1  101.453692 -6.436269e+01  1.675
11186 1  100.217271 -6.366436e+01  1.675
11187 1  100.203832 -6.224443e+01  1.675
11188 1  101.426813 -6.152282e+01  1.675
11189 1   98.994290 -6.438597e+01  1.675
11190 1   97.757869 -6.368764e+01  1.675
11191 1   97.744430 -6.226770e+01  1.675
11192 1   98.967411 -6.154610e+01  1.675
11193 1   96.534888 -6.440925e+01  1.675
11194 1   95.298467 -6.371092e+01  1.675
11195 1   95.285028 -6.229098e+01  1.675
11196 1   96.508009 -6.156937e+01  1.675
11197 1   94.075486 -6.443252e+01  1.675
11198 1   92.839065 -6.373419e+01  1.675
11199 1   92.825626 -6.231426e+01  1.675
11200 1   94.048607 -6.159265e+01  1.675
11201 1   91.616084 -6.445580e+01  1.675
11202 1   90.379663 -6.375747e+01  1.675
11203 1   90.366224 -6.233754e+01  1.675
11204 1   91.589205 -6.161593e+01  1.675
11205 1   89.156682 -6.447908e+01  1.675
11206 1   87.920261 -6.378075e+01  1.675
11207 1   87.906822 -6.236081e+01  1.675
11208 1   89.129803 -6.163921e+01  1.675
11209 1   86.697280 -6.450236e+01  1.675
11210 1   85.460859 -6.380403e+01  1.675
11211 1   85.447420 -6.238409e+01  1.675
11212 1   86.670401 -6.166248e+01  1.675
11213 1   84.237878 -6.452563e+01  1.675
11214 1   83.001457 -6.382731e+01  1.675
11215 1   82.988018 -6.240737e+01  1.675
11216 1   84.210999 -6.168576e+01  1.675
11217 1   81.778476 -6.454891e+01  1.675
11218 1   80.542055 -6.385058e+01  1.675
11219 1   80.528616 -6.243065e+01  1.675
11220 1   81.751597 -6.170904e+01  1.675
11221 1   79.319074 -6.457219e+01  1.675
11222 1   78.082653 -6.387386e+01  1.675
11223 1   78.069214 -6.245392e+01  1.675
11224 1   79.292195 -6.173232e+01  1.675
11225 1   76.859672 -6.459547e+01  1.675
11226 1   75.623251 -6.389714e+01  1.675
11227 1   75.609812 -6.247720e+01  1.675
11228 1   76.832793 -6.175559e+01  1.675
11229 1   74.400270 -6.461875e+01  1.675
11230 1   73.163849 -6.392042e+01  1.675
11231 1   73.150410 -6.250048e+01  1.675
11232 1   74.373391 -6.177887e+01  1.675
11233 1   71.940868 -6.464202e+01  1.675
11234 1   70.704447 -6.394369e+01  1.675
11235 1   70.691008 -6.252376e+01  1.675
11236 1   71.913989 -6.180215e+01  1.675
11237 1   69.481466 -6.466530e+01  1.675
11238 1   68.245045 -6.396697e+01  1.675
11239 1   68.231606 -6.254703e+01  1.675
11240 1   69.454587 -6.182543e+01  1.675
11241 1   67.022064 -6.468858e+01  1.675
11242 1   65.785643 -6.399025e+01  1.675
11243 1   65.772204 -6.257031e+01  1.675
11244 1   66.995185 -6.184871e+01  1.675
11245 1   64.562662 -6.471186e+01  1.675
11246 1   63.326241 -6.401353e+01  1.675
11247 1   63.312802 -6.259359e+01  1.675
11248 1   64.535783 -6.187198e+01  1.675
11249 1   62.103260 -6.473513e+01  1.675
11250 1   60.866839 -6.403680e+01  1.675
11251 1   60.853400 -6.261687e+01  1.675
11252 1   62.076381 -6.189526e+01  1.675
11253 1   59.643858 -6.475841e+01  1.675
11254 1   58.407437 -6.406008e+01  1.675
11255 1   58.393998 -6.264015e+01  1.675
11256 1   59.616979 -6.191854e+01  1.675
11257 1   57.184456 -6.478169e+01  1.675
11258 1   55.948035 -6.408336e+01  1.675
11259 1   55.934596 -6.266342e+01  1.675
11260 1   57.157577 -6.194182e+01  1.675
11261 1   54.725054 -6.480497e+01  1.675
11262 1   53.488633 -6.410664e+01  1.675
11263 1   53.475194 -6.268670e+01  1.675
11264 1   54.698175 -6.196509e+01  1.675
11265 1   52.265652 -6.482824e+01  1.675
11266 1   51.029231 -6.412991e+01  1.675
11267 1   51.015792 -6.270998e+01  1.675
11268 1   52.238773 -6.198837e+01  1.675
11269 1   49.806250 -6.485152e+01  1.675
11270 1   48.569829 -6.415319e+01  1.675
11271 1   48.556390 -6.273326e+01  1.675
11272 1   49.779371 -6.201165e+01  1.675
11273 1   47.346848 -6.487480e+01  1.675
11274 1   46.110427 -6.417647e+01  1.675
11275 1   46.096988 -6.275653e+01  1.675
11276 1   47.319969 -6.203493e+01  1.675
11277 1   44.887446 -6.489808e+01  1.675
11278 1   43.651025 -6.419975e+01  1.675
11279 1   43.637586 -6.277981e+01  1.675
11280 1   44.860567 -6.205820e+01  1.675
11281 1   42.428044 -6.492135e+01  1.675
11282 1   41.191624 -6.422303e+01  1.675
11283 1   41.178184 -6.280309e+01  1.675
11284 1   42.401165 -6.208148e+01  1.675
11285 1   39.968642 -6.494463e+01  1.675
11286 1   38.732222 -6.424630e+01  1.675
11287 1   38.718782 -6.282637e+01  1.675
11288 1   39.941763 -6.210476e+01  1.675
11289 1   37.509240 -6.496791e+01  1.675
11290 1   36.272820 -6.426958e+01  1.675
11291 1   36.259380 -6.284964e+01  1.675
11292 1   37.482361 -6.212804e+01  1.675
11293 1   33.813418 -6.429286e+01  1.675
11294 1   33.799978 -6.287292e+01  1.675
11295 1   35.022959 -6.215131e+01  1.675
11296 1   31.354016 -6.431614e+01  1.675
11297 1   31.340576 -6.289620e+01  1.675
11298 1   32.563558 -6.217459e+01  1.675
11299 1   28.894614 -6.433941e+01  1.675
11300 1   28.881174 -6.291948e+01  1.675
11301 1   30.104156 -6.219787e+01  1.675
11302 1   26.435212 -6.436269e+01  1.675
11303 1   26.421772 -6.294275e+01  1.675
11304 1   27.644754 -6.222115e+01  1.675
11305 1   23.975810 -6.438597e+01  1.675
11306 1   23.962370 -6.296603e+01  1.675
11307 1   25.185352 -6.224443e+01  1.675
11308 1   21.516408 -6.440925e+01  1.675
11309 1   21.502968 -6.298931e+01  1.675
11310 1   22.725950 -6.226770e+01  1.675
11311 1   19.057006 -6.443252e+01  1.675
11312 1   19.043566 -6.301259e+01  1.675
11313 1   20.266548 -6.229098e+01  1.675
11314 1   16.597604 -6.445580e+01  1.675
11315 1   16.584164 -6.303587e+01  1.675
11316 1   17.807146 -6.231426e+01  1.675
11317 1   14.138202 -6.447908e+01  1.675
11318 1   14.124762 -6.305914e+01  1.675
11319 1   15.347744 -6.233754e+01  1.675
11320 1   11.678800 -6.450236e+01  1.675
11321 1   11.665360 -6.308242e+01  1.675
11322 1   12.888342 -6.236081e+01  1.675
11323 1    9.219398 -6.452563e+01  1.675
11324 1    9.205958 -6.310570e+01  1.675
11325 1   10.428940 -6.238409e+01  1.675
11326 1    6.759996 -6.454891e+01  1.675
11327 1    6.746556 -6.312898e+01  1.675
11328 1    7.969538 -6.240737e+01  1.675
11329 1    4.300594 -6.457219e+01  1.675
11330 1    4.287154 -6.315225e+01  1.675
11331 1    5.510136 -6.243065e+01  1.675
11332 1    1.841192 -6.459547e+01  1.675
11333 1    1.827752 -6.317553e+01  1.675
11334 1    3.050734 -6.245392e+01  1.675
11335 1   -0.618210 -6.461875e+01  1.675
11336 1   -0.631650 -6.319881e+01  1.675
11337 1    0.591332 -6.247720e+01  1.675
11338 1   -3.077612 -6.464202e+01  1.675
11339 1   -3.091052 -6.322209e+01  1.675
11340 1   -1.868070 -6.250048e+01  1.675
11341 1   -5.537014 -6.466530e+01  1.675
11342 1   -5.550454 -6.324536e+01  1.675
11343 1   -4.327472 -6.252376e+01  1.675
11344 1   -7.996416 -6.468858e+01  1.675
11345 1   -8.009856 -6.326864e+01  1.675
11346 1   -6.786874 -6.254703e+01  1.675
11347 1  -10.455818 -6.471186e+01  1.675
11348 1  -10.469258 -6.329192e+01  1.675
11349 1   -9.246276 -6.257031e+01  1.675
11350 1  -12.915220 -6.473513e+01  1.675
11351 1  -12.928660 -6.331520e+01  1.675
11352 1  -11.705678 -6.259359e+01  1.675
11353 1  -15.374622 -6.475841e+01  1.675
11354 1  -15.388062 -6.333847e+01  1.675
11355 1  -14.165080 -6.261687e+01  1.675
11356 1  -17.834024 -6.478169e+01  1.675
11357 1  -17.847464 -6.336175e+01  1.675
11358 1  -16.624482 -6.264015e+01  1.675
11359 1  -20.293426 -6.480497e+01  1.675
11360 1  -20.306866 -6.338503e+01  1.675
11361 1  -19.083884 -6.266342e+01  1.675
11362 1  -22.752828 -6.482824e+01  1.675
11363 1  -22.766268 -6.340831e+01  1.675
11364 1  -21.543286 -6.268670e+01  1.675
11365 1  -25.212230 -6.485152e+01  1.675
11366 1  -25.225670 -6.343159e+01  1.675
11367 1  -24.002688 -6.270998e+01  1.675
11368 1  -27.671632 -6.487480e+01  1.675
11369 1  -27.685072 -6.345486e+01  1.675
11370 1  -26.462090 -6.273326e+01  1.675
11371 1  -30.131034 -6.489808e+01  1.675
11372 1  -30.144474 -6.347814e+01  1.675
11373 1  -28.921492 -6.275653e+01  1.675
11374 1  -32.590436 -6.492135e+01  1.675
11375 1  -32.603876 -6.350142e+01  1.675
11376 1  -31.380894 -6.277981e+01  1.675
11377 1  -35.049838 -6.494463e+01  1.675
11378 1  -35.063278 -6.352470e+01  1.675
11379 1  -33.840296 -6.280309e+01  1.675
11380 1  -37.509240 -6.496791e+01  1.675
11381 1  -37.522680 -6.354797e+01  1.675
11382 1  -36.299698 -6.282637e+01  1.675
11383 1  -39.982082 -6.357125e+01  1.675
11384 1  -38.759100 -6.284964e+01  1.675
11385 1  -42.441484 -6.359453e+01  1.675
11386 1  -41.218502 -6.287292e+01  1.675
11387 1  -44.900886 -6.361781e+01  1.675
11388 1  -43.677904 -6.289620e+01  1.675
11389 1  -47.360288 -6.364108e+01  1.675
11390 1  -46.137306 -6.291948e+01  1.675
11391 1  -49.819690 -6.366436e+01  1.675
11392 1  -48.596708 -6.294275e+01  1.675
11393 1  -52.279091 -6.368764e+01  1.675
11394 1  -51.056110 -6.296603e+01  1.675
11395 1  -54.738493 -6.371092e+01  1.675
11396 1  -53.515512 -6.298931e+01  1.675
11397 1  -57.197895 -6.373419e+01  1.675
11398 1  -55.974914 -6.301259e+01  1.675
11399 1  -59.657297 -6.375747e+01  1.675
11400 1  -58.434316 -6.303587e+01  1.675
11401 1  -62.116699 -6.378075e+01  1.675
11402 1  -60.893718 -6.305914e+01  1.675
11403 1  -64.576101 -6.380403e+01  1.675
11404 1  -63.353120 -6.308242e+01  1.675
11405 1  -67.035503 -6.382731e+01  1.675
11406 1  -65.812522 -6.310570e+01  1.675
11407 1  -69.494905 -6.385058e+01  1.675
11408 1  -68.271924 -6.312898e+01  1.675
11409 1  -71.954307 -6.387386e+01  1.675
11410 1  -70.731326 -6.315225e+01  1.675
11411 1  -74.413709 -6.389714e+01  1.675
11412 1  -73.190728 -6.317553e+01  1.675
11413 1  -76.873111 -6.392042e+01  1.675
11414 1  -75.650130 -6.319881e+01  1.675
11415 1  -79.332513 -6.394369e+01  1.675
11416 1  -78.109532 -6.322209e+01  1.675
11417 1  -81.791915 -6.396697e+01  1.675
11418 1  -80.568934 -6.324536e+01  1.675
11419 1  -84.251317 -6.399025e+01  1.675
11420 1  -83.028336 -6.326864e+01  1.675
11421 1  -86.710719 -6.401353e+01  1.675
11422 1  -85.487738 -6.329192e+01  1.675
11423 1  -89.170121 -6.403680e+01  1.675
11424 1  -87.947140 -6.331520e+01  1.675
11425 1  -91.629523 -6.406008e+01  1.675
11426 1  -90.406542 -6.333847e+01  1.675
11427 1  -94.088925 -6.408336e+01  1.675
11428 1  -92.865944 -6.336175e+01  1.675
11429 1  -96.548327 -6.410664e+01  1.675
11430 1  -95.325346 -6.338503e+01  1.675
11431 1  -99.007729 -6.412991e+01  1.675
11432 1  -97.784748 -6.340831e+01  1.675
11433 1 -101.467131 -6.415319e+01  1.675
11434 1 -100.244150 -6.343159e+01  1.675
11435 1 -103.926533 -6.417647e+01  1.675
11436 1 -102.703552 -6.345486e+01  1.675
11437 1 -106.385935 -6.419975e+01  1.675
11438 1 -105.162954 -6.347814e+01  1.675
11439 1 -108.845337 -6.422303e+01  1.675
11440 1 -107.622356 -6.350142e+01  1.675
11441 1 -111.304739 -6.424630e+01  1.675
11442 1 -110.081758 -6.352470e+01  1.675
11443 1  112.473963 -5.928816e+01  1.675
11444 1  112.460524 -5.786823e+01  1.675
11445 1  111.250982 -6.000977e+01  1.675
11446 1  110.014561 -5.931144e+01  1.675
11447 1  110.001122 -5.789151e+01  1.675
11448 1  111.224103 -5.716990e+01  1.675
11449 1  108.791580 -6.003305e+01  1.675
11450 1  107.555159 -5.933472e+01  1.675
11451 1  107.541720 -5.791478e+01  1.675
11452 1  108.764701 -5.719318e+01  1.675
11453 1  106.332178 -6.005633e+01  1.675
11454 1  105.095757 -5.935800e+01  1.675
11455 1  105.082318 -5.793806e+01  1.675
11456 1  106.305299 -5.721645e+01  1.675
11457 1  103.872776 -6.007960e+01  1.675
11458 1  102.636355 -5.938127e+01  1.675
11459 1  102.622916 -5.796134e+01  1.675
11460 1  103.845897 -5.723973e+01  1.675
11461 1  101.413374 -6.010288e+01  1.675
11462 1  100.176953 -5.940455e+01  1.675
11463 1  100.163514 -5.798462e+01  1.675
11464 1  101.386495 -5.726301e+01  1.675
11465 1   98.953972 -6.012616e+01  1.675
11466 1   97.717551 -5.942783e+01  1.675
11467 1   97.704112 -5.800789e+01  1.675
11468 1   98.927093 -5.728629e+01  1.675
11469 1   96.494570 -6.014944e+01  1.675
11470 1   95.258149 -5.945111e+01  1.675
11471 1   95.244710 -5.803117e+01  1.675
11472 1   96.467691 -5.730956e+01  1.675
11473 1   94.035168 -6.017271e+01  1.675
11474 1   92.798747 -5.947439e+01  1.675
11475 1   92.785308 -5.805445e+01  1.675
11476 1   94.008289 -5.733284e+01  1.675
11477 1   91.575766 -6.019599e+01  1.675
11478 1   90.339345 -5.949766e+01  1.675
11479 1   90.325906 -5.807773e+01  1.675
11480 1   91.548887 -5.735612e+01  1.675
11481 1   89.116364 -6.021927e+01  1.675
11482 1   87.879943 -5.952094e+01  1.675
11483 1   87.866504 -5.810100e+01  1.675
11484 1   89.089485 -5.737940e+01  1.675
11485 1   86.656962 -6.024255e+01  1.675
11486 1   85.420541 -5.954422e+01  1.675
11487 1   85.407102 -5.812428e+01  1.675
11488 1   86.630083 -5.740267e+01  1.675
11489 1   84.197560 -6.026583e+01  1.675
11490 1   82.961139 -5.956750e+01  1.675
11491 1   82.947700 -5.814756e+01  1.675
11492 1   84.170681 -5.742595e+01  1.675
11493 1   81.738158 -6.028910e+01  1.675
11494 1   80.501737 -5.959077e+01  1.675
11495 1   80.488298 -5.817084e+01  1.675
11496 1   81.711279 -5.744923e+01  1.675
11497 1   79.278756 -6.031238e+01  1.675
11498 1   78.042335 -5.961405e+01  1.675
11499 1   78.028896 -5.819411e+01  1.675
11500 1   79.251877 -5.747251e+01  1.675
11501 1   76.819354 -6.033566e+01  1.675
11502 1   75.582933 -5.963733e+01  1.675
11503 1   75.569494 -5.821739e+01  1.675
11504 1   76.792475 -5.749579e+01  1.675
11505 1   74.359952 -6.035894e+01  1.675
11506 1   73.123531 -5.966061e+01  1.675
11507 1   73.110092 -5.824067e+01  1.675
11508 1   74.333073 -5.751906e+01  1.675
11509 1   71.900550 -6.038221e+01  1.675
11510 1   70.664129 -5.968388e+01  1.675
11511 1   70.650690 -5.826395e+01  1.675
11512 1   71.873671 -5.754234e+01  1.675
11513 1   69.441148 -6.040549e+01  1.675
11514 1   68.204727 -5.970716e+01  1.675
11515 1   68.191288 -5.828723e+01  1.675
11516 1   69.414269 -5.756562e+01  1.675
11517 1   66.981746 -6.042877e+01  1.675
11518 1   65.745325 -5.973044e+01  1.675
11519 1   65.731886 -5.831050e+01  1.675
11520 1   66.954867 -5.758890e+01  1.675
11521 1   64.522344 -6.045205e+01  1.675
11522 1   63.285923 -5.975372e+01  1.675
11523 1   63.272484 -5.833378e+01  1.675
11524 1   64.495465 -5.761217e+01  1.675
11525 1   62.062942 -6.047532e+01  1.675
11526 1   60.826521 -5.977699e+01  1.675
11527 1   60.813082 -5.835706e+01  1.675
11528 1   62.036063 -5.763545e+01  1.675
11529 1   59.603540 -6.049860e+01  1.675
11530 1   58.367119 -5.980027e+01  1.675
11531 1   58.353680 -5.838034e+01  1.675
11532 1   59.576661 -5.765873e+01  1.675
11533 1   57.144138 -6.052188e+01  1.675
11534 1   55.907717 -5.982355e+01  1.675
11535 1   55.894278 -5.840361e+01  1.675
11536 1   57.117259 -5.768201e+01  1.675
11537 1   54.684736 -6.054516e+01  1.675
11538 1   53.448315 -5.984683e+01  1.675
11539 1   53.434876 -5.842689e+01  1.675
11540 1   54.657857 -5.770528e+01  1.675
11541 1   52.225334 -6.056843e+01  1.675
11542 1   50.988913 -5.987011e+01  1.675
11543 1   50.975474 -5.845017e+01  1.675
11544 1   52.198455 -5.772856e+01  1.675
11545 1   49.765932 -6.059171e+01  1.675
11546 1   48.529511 -5.989338e+01  1.675
11547 1   48.516072 -5.847345e+01  1.675
11548 1   49.739053 -5.775184e+01  1.675
11549 1   47.306530 -6.061499e+01  1.675
11550 1   46.070109 -5.991666e+01  1.675
11551 1   46.056670 -5.849672e+01  1.675
11552 1   47.279651 -5.777512e+01  1.675
11553 1   44.847128 -6.063827e+01  1.675
11554 1   43.610707 -5.993994e+01  1.675
11555 1   43.597268 -5.852000e+01  1.675
11556 1   44.820249 -5.779839e+01  1.675
11557 1   42.387726 -6.066155e+01  1.675
11558 1   41.151305 -5.996322e+01  1.675
11559 1   41.137866 -5.854328e+01  1.675
11560 1   42.360847 -5.782167e+01  1.675
11561 1   39.928324 -6.068482e+01  1.675
11562 1   38.691903 -5.998649e+01  1.675
11563 1   38.678464 -5.856656e+01  1.675
11564 1   39.901445 -5.784495e+01  1.675
11565 1   37.468922 -6.070810e+01  1.675
11566 1   36.232501 -6.000977e+01  1.675
11567 1   36.219062 -5.858983e+01  1.675
11568 1   37.442043 -5.786823e+01  1.675
11569 1   35.009520 -6.073138e+01  1.675
11570 1   33.773099 -6.003305e+01  1.675
11571 1   33.759660 -5.861311e+01  1.675
11572 1   34.982641 -5.789151e+01  1.675
11573 1   32.550118 -6.075466e+01  1.675
11574 1   31.313697 -6.005633e+01  1.675
11575 1   31.300258 -5.863639e+01  1.675
11576 1   32.523239 -5.791478e+01  1.675
11577 1   30.090716 -6.077793e+01  1.675
11578 1   28.854295 -6.007960e+01  1.675
11579 1   28.840856 -5.865967e+01  1.675
11580 1   30.063837 -5.793806e+01  1.675
11581 1   27.631314 -6.080121e+01  1.675
11582 1   26.394893 -6.010288e+01  1.675
11583 1   26.381454 -5.868295e+01  1.675
11584 1   27.604435 -5.796134e+01  1.675
11585 1   25.171912 -6.082449e+01  1.675
11586 1   23.935492 -6.012616e+01  1.675
11587 1   23.922052 -5.870622e+01  1.675
11588 1   25.145033 -5.798462e+01  1.675
11589 1   22.712510 -6.084777e+01  1.675
11590 1   21.476090 -6.014944e+01  1.675
11591 1   21.462650 -5.872950e+01  1.675
11592 1   22.685631 -5.800789e+01  1.675
11593 1   20.253108 -6.087104e+01  1.675
11594 1   19.016688 -6.017271e+01  1.675
11595 1   19.003248 -5.875278e+01  1.675
11596 1   20.226229 -5.803117e+01  1.675
11597 1   17.793706 -6.089432e+01  1.675
11598 1   16.557286 -6.019599e+01  1.675
11599 1   16.543846 -5.877606e+01  1.675
11600 1   17.766827 -5.805445e+01  1.675
11601 1   15.334304 -6.091760e+01  1.675
11602 1   14.097884 -6.021927e+01  1.675
11603 1   14.084444 -5.879933e+01  1.675
11604 1   15.307426 -5.807773e+01  1.675
11605 1   12.874902 -6.094088e+01  1.675
11606 1   11.638482 -6.024255e+01  1.675
11607 1   11.625042 -5.882261e+01  1.675
11608 1   12.848024 -5.810100e+01  1.675
11609 1   10.415500 -6.096415e+01  1.675
11610 1    9.179080 -6.026583e+01  1.675
11611 1    9.165640 -5.884589e+01  1.675
11612 1   10.388622 -5.812428e+01  1.675
11613 1    7.956098 -6.098743e+01  1.675
11614 1    6.719678 -6.028910e+01  1.675
11615 1    6.706238 -5.886917e+01  1.675
11616 1    7.929220 -5.814756e+01  1.675
11617 1    5.496696 -6.101071e+01  1.675
11618 1    4.260276 -6.031238e+01  1.675
11619 1    4.246836 -5.889244e+01  1.675
11620 1    5.469818 -5.817084e+01  1.675
11621 1    3.037294 -6.103399e+01  1.675
11622 1    1.800874 -6.033566e+01  1.675
11623 1    1.787434 -5.891572e+01  1.675
11624 1    3.010416 -5.819411e+01  1.675
11625 1    0.577892 -6.105727e+01  1.675
11626 1   -0.658528 -6.035894e+01  1.675
11627 1   -0.671968 -5.893900e+01  1.675
11628 1    0.551014 -5.821739e+01  1.675
11629 1   -1.881510 -6.108054e+01  1.675
11630 1   -3.117930 -6.038221e+01  1.675
11631 1   -3.131370 -5.896228e+01  1.675
11632 1   -1.908388 -5.824067e+01  1.675
11633 1   -4.340912 -6.110382e+01  1.675
11634 1   -5.577332 -6.040549e+01  1.675
11635 1   -5.590772 -5.898555e+01  1.675
11636 1   -4.367790 -5.826395e+01  1.675
11637 1   -6.800314 -6.112710e+01  1.675
11638 1   -8.036734 -6.042877e+01  1.675
11639 1   -8.050174 -5.900883e+01  1.675
11640 1   -6.827192 -5.828723e+01  1.675
11641 1   -9.259716 -6.115038e+01  1.675
11642 1  -10.496136 -6.045205e+01  1.675
11643 1  -10.509576 -5.903211e+01  1.675
11644 1   -9.286594 -5.831050e+01  1.675
11645 1  -11.719118 -6.117365e+01  1.675
11646 1  -12.955538 -6.047532e+01  1.675
11647 1  -12.968978 -5.905539e+01  1.675
11648 1  -11.745996 -5.833378e+01  1.675
11649 1  -14.178520 -6.119693e+01  1.675
11650 1  -15.414940 -6.049860e+01  1.675
11651 1  -15.428380 -5.907867e+01  1.675
11652 1  -14.205398 -5.835706e+01  1.675
11653 1  -16.637922 -6.122021e+01  1.675
11654 1  -17.874342 -6.052188e+01  1.675
11655 1  -17.887782 -5.910194e+01  1.675
11656 1  -16.664800 -5.838034e+01  1.675
11657 1  -19.097324 -6.124349e+01  1.675
11658 1  -20.333744 -6.054516e+01  1.675
11659 1  -20.347184 -5.912522e+01  1.675
11660 1  -19.124202 -5.840361e+01  1.675
11661 1  -21.556726 -6.126676e+01  1.675
11662 1  -22.793146 -6.056843e+01  1.675
11663 1  -22.806586 -5.914850e+01  1.675
11664 1  -21.583604 -5.842689e+01  1.675
11665 1  -24.016128 -6.129004e+01  1.675
11666 1  -25.252548 -6.059171e+01  1.675
11667 1  -25.265988 -5.917178e+01  1.675
11668 1  -24.043006 -5.845017e+01  1.675
11669 1  -26.475530 -6.131332e+01  1.675
11670 1  -27.711950 -6.061499e+01  1.675
11671 1  -27.725390 -5.919505e+01  1.675
11672 1  -26.502408 -5.847345e+01  1.675
11673 1  -28.934932 -6.133660e+01  1.675
11674 1  -30.171352 -6.063827e+01  1.675
11675 1  -30.184792 -5.921833e+01  1.675
11676 1  -28.961810 -5.849672e+01  1.675
11677 1  -31.394334 -6.135987e+01  1.675
11678 1  -32.630754 -6.066155e+01  1.675
11679 1  -32.644194 -5.924161e+01  1.675
11680 1  -31.421212 -5.852000e+01  1.675
11681 1  -33.853736 -6.138315e+01  1.675
11682 1  -35.090156 -6.068482e+01  1.675
11683 1  -35.103596 -5.926489e+01  1.675
11684 1  -33.880614 -5.854328e+01  1.675
11685 1  -36.313138 -6.140643e+01  1.675
11686 1  -37.549558 -6.070810e+01  1.675
11687 1  -37.562998 -5.928816e+01  1.675
11688 1  -36.340016 -5.856656e+01  1.675
11689 1  -38.772540 -6.142971e+01  1.675
11690 1  -40.008960 -6.073138e+01  1.675
11691 1  -40.022400 -5.931144e+01  1.675
11692 1  -38.799418 -5.858983e+01  1.675
11693 1  -41.231942 -6.145299e+01  1.675
11694 1  -42.468362 -6.075466e+01  1.675
11695 1  -42.481802 -5.933472e+01  1.675
11696 1  -41.258820 -5.861311e+01  1.675
11697 1  -43.691344 -6.147626e+01  1.675
11698 1  -44.927764 -6.077793e+01  1.675
11699 1  -44.941204 -5.935800e+01  1.675
11700 1  -43.718222 -5.863639e+01  1.675
11701 1  -46.150746 -6.149954e+01  1.675
11702 1  -47.387166 -6.080121e+01  1.675
11703 1  -47.400606 -5.938127e+01  1.675
11704 1  -46.177624 -5.865967e+01  1.675
11705 1  -48.610148 -6.152282e+01  1.675
11706 1  -49.846568 -6.082449e+01  1.675
11707 1  -49.860008 -5.940455e+01  1.675
11708 1  -48.637026 -5.868295e+01  1.675
11709 1  -51.069550 -6.154610e+01  1.675
11710 1  -52.305970 -6.084777e+01  1.675
11711 1  -52.319410 -5.942783e+01  1.675
11712 1  -51.096428 -5.870622e+01  1.675
11713 1  -53.528952 -6.156937e+01  1.675
11714 1  -54.765372 -6.087104e+01  1.675
11715 1  -54.778812 -5.945111e+01  1.675
11716 1  -53.555830 -5.872950e+01  1.675
11717 1  -55.988354 -6.159265e+01  1.675
11718 1  -57.224774 -6.089432e+01  1.675
11719 1  -57.238214 -5.947439e+01  1.675
11720 1  -56.015232 -5.875278e+01  1.675
11721 1  -58.447756 -6.161593e+01  1.675
11722 1  -59.684176 -6.091760e+01  1.675
11723 1  -59.697616 -5.949766e+01  1.675
11724 1  -58.474634 -5.877606e+01  1.675
11725 1  -60.907157 -6.163921e+01  1.675
11726 1  -62.143578 -6.094088e+01  1.675
11727 1  -62.157018 -5.952094e+01  1.675
11728 1  -60.934036 -5.879933e+01  1.675
11729 1  -63.366559 -6.166248e+01  1.675
11730 1  -64.602980 -6.096415e+01  1.675
11731 1  -64.616420 -5.954422e+01  1.675
11732 1  -63.393438 -5.882261e+01  1.675
11733 1  -65.825961 -6.168576e+01  1.675
11734 1  -67.062382 -6.098743e+01  1.675
11735 1  -67.075822 -5.956750e+01  1.675
11736 1  -65.852840 -5.884589e+01  1.675
11737 1  -68.285363 -6.170904e+01  1.675
11738 1  -69.521784 -6.101071e+01  1.675
11739 1  -69.535223 -5.959077e+01  1.675
11740 1  -68.312242 -5.886917e+01  1.675
11741 1  -70.744765 -6.173232e+01  1.675
11742 1  -71.981186 -6.103399e+01  1.675
11743 1  -71.994625 -5.961405e+01  1.675
11744 1  -70.771644 -5.889244e+01  1.675
11745 1  -73.204167 -6.175559e+01  1.675
11746 1  -74.440588 -6.105727e+01  1.675
11747 1  -74.454027 -5.963733e+01  1.675
11748 1  -73.231046 -5.891572e+01  1.675
11749 1  -75.663569 -6.177887e+01  1.675
11750 1  -76.899990 -6.108054e+01  1.675
11751 1  -76.913429 -5.966061e+01  1.675
11752 1  -75.690448 -5.893900e+01  1.675
11753 1  -78.122971 -6.180215e+01  1.675
11754 1  -79.359392 -6.110382e+01  1.675
11755 1  -79.372831 -5.968388e+01  1.675
11756 1  -78.149850 -5.896228e+01  1.675
11757 1  -80.582373 -6.182543e+01  1.675
11758 1  -81.818794 -6.112710e+01  1.675
11759 1  -81.832233 -5.970716e+01  1.675
11760 1  -80.609252 -5.898555e+01  1.675
11761 1  -83.041775 -6.184871e+01  1.675
11762 1  -84.278196 -6.115038e+01  1.675
11763 1  -84.291635 -5.973044e+01  1.675
11764 1  -83.068654 -5.900883e+01  1.675
11765 1  -85.501177 -6.187198e+01  1.675
11766 1  -86.737598 -6.117365e+01  1.675
11767 1  -86.751037 -5.975372e+01  1.675
11768 1  -85.528056 -5.903211e+01  1.675
11769 1  -87.960579 -6.189526e+01  1.675
11770 1  -89.197000 -6.119693e+01  1.675
11771 1  -89.210439 -5.977699e+01  1.675
11772 1  -87.987458 -5.905539e+01  1.675
11773 1  -90.419981 -6.191854e+01  1.675
11774 1  -91.656402 -6.122021e+01  1.675
11775 1  -91.669841 -5.980027e+01  1.675
11776 1  -90.446860 -5.907867e+01  1.675
11777 1  -92.879383 -6.194182e+01  1.675
11778 1  -94.115804 -6.124349e+01  1.675
11779 1  -94.129243 -5.982355e+01  1.675
11780 1  -92.906262 -5.910194e+01  1.675
11781 1  -95.338785 -6.196509e+01  1.675
11782 1  -96.575206 -6.126676e+01  1.675
11783 1  -96.588645 -5.984683e+01  1.675
11784 1  -95.365664 -5.912522e+01  1.675
11785 1  -97.798187 -6.198837e+01  1.675
11786 1  -99.034608 -6.129004e+01  1.675
11787 1  -99.048047 -5.987011e+01  1.675
11788 1  -97.825066 -5.914850e+01  1.675
11789 1 -100.257589 -6.201165e+01  1.675
11790 1 -101.494010 -6.131332e+01  1.675
11791 1 -101.507449 -5.989338e+01  1.675
11792 1 -100.284468 -5.917178e+01  1.675
11793 1 -102.716991 -6.203493e+01  1.675
11794 1 -103.953412 -6.133660e+01  1.675
11795 1 -103.966851 -5.991666e+01  1.675
11796 1 -102.743870 -5.919505e+01  1.675
11797 1 -105.176393 -6.205820e+01  1.675
11798 1 -106.412814 -6.135987e+01  1.675
11799 1 -106.426253 -5.993994e+01  1.675
11800 1 -105.203272 -5.921833e+01  1.675
11801 1 -107.635795 -6.208148e+01  1.675
11802 1 -108.872216 -6.138315e+01  1.675
11803 1 -108.885655 -5.996322e+01  1.675
11804 1 -107.662674 -5.924161e+01  1.675
11805 1 -110.095197 -6.210476e+01  1.675
11806 1 -111.331618 -6.140643e+01  1.675
11807 1 -111.345057 -5.998649e+01  1.675
11808 1 -110.122076 -5.926489e+01  1.675
11809 1  112.433645 -5.502835e+01  1.675
11810 1  112.420206 -5.360842e+01  1.675
11811 1  111.210664 -5.574996e+01  1.675
11812 1  109.974243 -5.505163e+01  1.675
11813 1  109.960804 -5.363170e+01  1.675
11814 1  111.183785 -5.291009e+01  1.675
11815 1  108.751262 -5.577324e+01  1.675
11816 1  107.514841 -5.507491e+01  1.675
11817 1  107.501402 -5.365497e+01  1.675
11818 1  108.724383 -5.293337e+01  1.675
11819 1  106.291860 -5.579652e+01  1.675
11820 1  105.055439 -5.509819e+01  1.675
11821 1  105.042000 -5.367825e+01  1.675
11822 1  106.264981 -5.295664e+01  1.675
11823 1  103.832458 -5.581979e+01  1.675
11824 1  102.596037 -5.512147e+01  1.675
11825 1  102.582598 -5.370153e+01  1.675
11826 1  103.805579 -5.297992e+01  1.675
11827 1  101.373056 -5.584307e+01  1.675
11828 1  100.136635 -5.514474e+01  1.675
11829 1  100.123196 -5.372481e+01  1.675
11830 1  101.346177 -5.300320e+01  1.675
11831 1   98.913654 -5.586635e+01  1.675
11832 1   97.677233 -5.516802e+01  1.675
11833 1   97.663794 -5.374808e+01  1.675
11834 1   98.886775 -5.302648e+01  1.675
11835 1   96.454252 -5.588963e+01  1.675
11836 1   95.217831 -5.519130e+01  1.675
11837 1   95.204392 -5.377136e+01  1.675
11838 1   96.427373 -5.304976e+01  1.675
11839 1   93.994850 -5.591291e+01  1.675
11840 1   92.758429 -5.521458e+01  1.675
11841 1   92.744990 -5.379464e+01  1.675
11842 1   93.967971 -5.307303e+01  1.675
11843 1   91.535448 -5.593618e+01  1.675
11844 1   90.299027 -5.523785e+01  1.675
11845 1   90.285588 -5.381792e+01  1.675
11846 1   91.508569 -5.309631e+01  1.675
11847 1   89.076046 -5.595946e+01  1.675
11848 1   87.839625 -5.526113e+01  1.675
11849 1   87.826186 -5.384120e+01  1.675
11850 1   89.049167 -5.311959e+01  1.675
11851 1   86.616644 -5.598274e+01  1.675
11852 1   85.380223 -5.528441e+01  1.675
11853 1   85.366784 -5.386447e+01  1.675
11854 1   86.589765 -5.314287e+01  1.675
11855 1   84.157242 -5.600602e+01  1.675
11856 1   82.920821 -5.530769e+01  1.675
11857 1   82.907382 -5.388775e+01  1.675
11858 1   84.130363 -5.316614e+01  1.675
11859 1   81.697840 -5.602929e+01  1.675
11860 1   80.461419 -5.533096e+01  1.675
11861 1   80.447980 -5.391103e+01  1.675
11862 1   81.670961 -5.318942e+01  1.675
11863 1   79.238438 -5.605257e+01  1.675
11864 1   78.002017 -5.535424e+01  1.675
11865 1   77.988578 -5.393431e+01  1.675
11866 1   79.211559 -5.321270e+01  1.675
11867 1   76.779036 -5.607585e+01  1.675
11868 1   75.542615 -5.537752e+01  1.675
11869 1   75.529176 -5.395758e+01  1.675
11870 1   76.752157 -5.323598e+01  1.675
11871 1   74.319634 -5.609913e+01  1.675
11872 1   73.083213 -5.540080e+01  1.675
11873 1   73.069774 -5.398086e+01  1.675
11874 1   74.292755 -5.325925e+01  1.675
11875 1   71.860232 -5.612240e+01  1.675
11876 1   70.623811 -5.542407e+01  1.675
11877 1   70.610372 -5.400414e+01  1.675
11878 1   71.833353 -5.328253e+01  1.675
11879 1   69.400830 -5.614568e+01  1.675
11880 1   68.164409 -5.544735e+01  1.675
11881 1   68.150970 -5.402742e+01  1.675
11882 1   69.373951 -5.330581e+01  1.675
11883 1   66.941428 -5.616896e+01  1.675
11884 1   65.705007 -5.547063e+01  1.675
11885 1   65.691568 -5.405069e+01  1.675
11886 1   66.914549 -5.332909e+01  1.675
11887 1   64.482026 -5.619224e+01  1.675
11888 1   63.245605 -5.549391e+01  1.675
11889 1   63.232166 -5.407397e+01  1.675
11890 1   64.455147 -5.335236e+01  1.675
11891 1   62.022624 -5.621551e+01  1.675
11892 1   60.786203 -5.551719e+01  1.675
11893 1   60.772764 -5.409725e+01  1.675
11894 1   61.995745 -5.337564e+01  1.675
11895 1   59.563222 -5.623879e+01  1.675
11896 1   58.326801 -5.554046e+01  1.675
11897 1   58.313362 -5.412053e+01  1.675
11898 1   59.536343 -5.339892e+01  1.675
11899 1   57.103820 -5.626207e+01  1.675
11900 1   55.867399 -5.556374e+01  1.675
11901 1   55.853960 -5.414380e+01  1.675
11902 1   57.076941 -5.342220e+01  1.675
11903 1   54.644418 -5.628535e+01  1.675
11904 1   53.407997 -5.558702e+01  1.675
11905 1   53.394558 -5.416708e+01  1.675
11906 1   54.617539 -5.344548e+01  1.675
11907 1   52.185016 -5.630863e+01  1.675
11908 1   50.948595 -5.561030e+01  1.675
11909 1   50.935156 -5.419036e+01  1.675
11910 1   52.158137 -5.346875e+01  1.675
11911 1   49.725614 -5.633190e+01  1.675
11912 1   48.489193 -5.563357e+01  1.675
11913 1   48.475754 -5.421364e+01  1.675
11914 1   49.698735 -5.349203e+01  1.675
11915 1   47.266212 -5.635518e+01  1.675
11916 1   46.029791 -5.565685e+01  1.675
11917 1   46.016352 -5.423692e+01  1.675
11918 1   47.239333 -5.351531e+01  1.675
11919 1   44.806810 -5.637846e+01  1.675
11920 1   43.570389 -5.568013e+01  1.675
11921 1   43.556950 -5.426019e+01  1.675
11922 1   44.779931 -5.353859e+01  1.675
11923 1   42.347408 -5.640174e+01  1.675
11924 1   41.110987 -5.570341e+01  1.675
11925 1   41.097548 -5.428347e+01  1.675
11926 1   42.320529 -5.356186e+01  1.675
11927 1   39.888006 -5.642501e+01  1.675
11928 1   38.651585 -5.572668e+01  1.675
11929 1   38.638146 -5.430675e+01  1.675
11930 1   39.861127 -5.358514e+01  1.675
11931 1   37.428604 -5.644829e+01  1.675
11932 1   36.192183 -5.574996e+01  1.675
11933 1   36.178744 -5.433003e+01  1.675
11934 1   37.401725 -5.360842e+01  1.675
11935 1   34.969202 -5.647157e+01  1.675
11936 1   33.732781 -5.577324e+01  1.675
11937 1   33.719342 -5.435330e+01  1.675
11938 1   34.942323 -5.363170e+01  1.675
11939 1   32.509800 -5.649485e+01  1.675
11940 1   31.273379 -5.579652e+01  1.675
11941 1   31.259940 -5.437658e+01  1.675
11942 1   32.482921 -5.365497e+01  1.675
11943 1   30.050398 -5.651812e+01  1.675
11944 1   28.813977 -5.581979e+01  1.675
11945 1   28.800538 -5.439986e+01  1.675
11946 1   30.023519 -5.367825e+01  1.675
11947 1   27.590996 -5.654140e+01  1.675
11948 1   26.354575 -5.584307e+01  1.675
11949 1   26.341136 -5.442314e+01  1.675
11950 1   27.564117 -5.370153e+01  1.675
11951 1   25.131594 -5.656468e+01  1.675
11952 1   23.895173 -5.586635e+01  1.675
11953 1   23.881734 -5.444641e+01  1.675
11954 1   25.104715 -5.372481e+01  1.675
11955 1   22.672192 -5.658796e+01  1.675
11956 1   21.435771 -5.588963e+01  1.675
11957 1   21.422332 -5.446969e+01  1.675
11958 1   22.645313 -5.374808e+01  1.675
11959 1   20.212790 -5.661123e+01  1.675
11960 1   18.976369 -5.591291e+01  1.675
11961 1   18.962930 -5.449297e+01  1.675
11962 1   20.185911 -5.377136e+01  1.675
11963 1   17.753388 -5.663451e+01  1.675
11964 1   16.516967 -5.593618e+01  1.675
11965 1   16.503528 -5.451625e+01  1.675
11966 1   17.726509 -5.379464e+01  1.675
11967 1   15.293986 -5.665779e+01  1.675
11968 1   14.057565 -5.595946e+01  1.675
11969 1   14.044126 -5.453952e+01  1.675
11970 1   15.267107 -5.381792e+01  1.675
11971 1   12.834584 -5.668107e+01  1.675
11972 1   11.598163 -5.598274e+01  1.675
11973 1   11.584724 -5.456280e+01  1.675
11974 1   12.807705 -5.384120e+01  1.675
11975 1   10.375182 -5.670435e+01  1.675
11976 1    9.138761 -5.600602e+01  1.675
11977 1    9.125322 -5.458608e+01  1.675
11978 1   10.348303 -5.386447e+01  1.675
11979 1    7.915780 -5.672762e+01  1.675
11980 1    6.679360 -5.602929e+01  1.675
11981 1    6.665920 -5.460936e+01  1.675
11982 1    7.888901 -5.388775e+01  1.675
11983 1    5.456378 -5.675090e+01  1.675
11984 1    4.219958 -5.605257e+01  1.675
11985 1    4.206518 -5.463263e+01  1.675
11986 1    5.429499 -5.391103e+01  1.675
11987 1    2.996976 -5.677418e+01  1.675
11988 1    1.760556 -5.607585e+01  1.675
11989 1    1.747116 -5.465591e+01  1.675
11990 1    2.970097 -5.393431e+01  1.675
11991 1    0.537574 -5.679746e+01  1.675
11992 1   -0.698846 -5.609913e+01  1.675
11993 1   -0.712286 -5.467919e+01  1.675
11994 1    0.510695 -5.395758e+01  1.675
11995 1   -1.921828 -5.682073e+01  1.675
11996 1   -3.158248 -5.612240e+01  1.675
11997 1   -3.171688 -5.470247e+01  1.675
11998 1   -1.948706 -5.398086e+01  1.675
11999 1   -4.381230 -5.684401e+01  1.675
12000 1   -5.617650 -5.614568e+01  1.675
12001 1   -5.631090 -5.472575e+01  1.675
12002 1   -4.408108 -5.400414e+01  1.675
12003 1   -6.840632 -5.686729e+01  1.675
12004 1   -8.077052 -5.616896e+01  1.675
12005 1   -8.090492 -5.474902e+01  1.675
12006 1   -6.867510 -5.402742e+01  1.675
12007 1   -9.300034 -5.689057e+01  1.675
12008 1  -10.536454 -5.619224e+01  1.675
12009 1  -10.549894 -5.477230e+01  1.675
12010 1   -9.326912 -5.405069e+01  1.675
12011 1  -11.759436 -5.691384e+01  1.675
12012 1  -12.995856 -5.621551e+01  1.675
12013 1  -13.009296 -5.479558e+01  1.675
12014 1  -11.786314 -5.407397e+01  1.675
12015 1  -14.218838 -5.693712e+01  1.675
12016 1  -15.455258 -5.623879e+01  1.675
12017 1  -15.468698 -5.481886e+01  1.675
12018 1  -14.245716 -5.409725e+01  1.675
12019 1  -16.678240 -5.696040e+01  1.675
12020 1  -17.914660 -5.626207e+01  1.675
12021 1  -17.928100 -5.484213e+01  1.675
12022 1  -16.705118 -5.412053e+01  1.675
12023 1  -19.137642 -5.698368e+01  1.675
12024 1  -20.374062 -5.628535e+01  1.675
12025 1  -20.387502 -5.486541e+01  1.675
12026 1  -19.164520 -5.414380e+01  1.675
12027 1  -21.597044 -5.700695e+01  1.675
12028 1  -22.833464 -5.630863e+01  1.675
12029 1  -22.846904 -5.488869e+01  1.675
12030 1  -21.623922 -5.416708e+01  1.675
12031 1  -24.056446 -5.703023e+01  1.675
12032 1  -25.292866 -5.633190e+01  1.675
12033 1  -25.306306 -5.491197e+01  1.675
12034 1  -24.083324 -5.419036e+01  1.675
12035 1  -26.515848 -5.705351e+01  1.675
12036 1  -27.752268 -5.635518e+01  1.675
12037 1  -27.765708 -5.493524e+01  1.675
12038 1  -26.542726 -5.421364e+01  1.675
12039 1  -28.975250 -5.707679e+01  1.675
12040 1  -30.211670 -5.637846e+01  1.675
12041 1  -30.225110 -5.495852e+01  1.675
12042 1  -29.002128 -5.423692e+01  1.675
12043 1  -31.434652 -5.710007e+01  1.675
12044 1  -32.671072 -5.640174e+01  1.675
12045 1  -32.684512 -5.498180e+01  1.675
12046 1  -31.461530 -5.426019e+01  1.675
12047 1  -33.894054 -5.712334e+01  1.675
12048 1  -35.130474 -5.642501e+01  1.675
12049 1  -35.143914 -5.500508e+01  1.675
12050 1  -33.920932 -5.428347e+01  1.675
12051 1  -36.353456 -5.714662e+01  1.675
12052 1  -37.589876 -5.644829e+01  1.675
12053 1  -37.603316 -5.502835e+01  1.675
12054 1  -36.380334 -5.430675e+01  1.675
12055 1  -38.812858 -5.716990e+01  1.675
12056 1  -40.049278 -5.647157e+01  1.675
12057 1  -40.062718 -5.505163e+01  1.675
12058 1  -38.839736 -5.433003e+01  1.675
12059 1  -41.272260 -5.719318e+01  1.675
12060 1  -42.508680 -5.649485e+01  1.675
12061 1  -42.522120 -5.507491e+01  1.675
12062 1  -41.299138 -5.435330e+01  1.675
12063 1  -43.731662 -5.721645e+01  1.675
12064 1  -44.968082 -5.651812e+01  1.675
12065 1  -44.981522 -5.509819e+01  1.675
12066 1  -43.758540 -5.437658e+01  1.675
12067 1  -46.191064 -5.723973e+01  1.675
12068 1  -47.427484 -5.654140e+01  1.675
12069 1  -47.440924 -5.512147e+01  1.675
12070 1  -46.217942 -5.439986e+01  1.675
12071 1  -48.650466 -5.726301e+01  1.675
12072 1  -49.886886 -5.656468e+01  1.675
12073 1  -49.900326 -5.514474e+01  1.675
12074 1  -48.677344 -5.442314e+01  1.675
12075 1  -51.109868 -5.728629e+01  1.675
12076 1  -52.346288 -5.658796e+01  1.675
12077 1  -52.359728 -5.516802e+01  1.675
12078 1  -51.136746 -5.444641e+01  1.675
12079 1  -53.569270 -5.730956e+01  1.675
12080 1  -54.805690 -5.661123e+01  1.675
12081 1  -54.819130 -5.519130e+01  1.675
12082 1  -53.596148 -5.446969e+01  1.675
12083 1  -56.028672 -5.733284e+01  1.675
12084 1  -57.265092 -5.663451e+01  1.675
12085 1  -57.278532 -5.521458e+01  1.675
12086 1  -56.055550 -5.449297e+01  1.675
12087 1  -58.488074 -5.735612e+01  1.675
12088 1  -59.724494 -5.665779e+01  1.675
12089 1  -59.737934 -5.523785e+01  1.675
12090 1  -58.514952 -5.451625e+01  1.675
12091 1  -60.947476 -5.737940e+01  1.675
12092 1  -62.183896 -5.668107e+01  1.675
12093 1  -62.197336 -5.526113e+01  1.675
12094 1  -60.974354 -5.453952e+01  1.675
12095 1  -63.406878 -5.740267e+01  1.675
12096 1  -64.643298 -5.670435e+01  1.675
12097 1  -64.656738 -5.528441e+01  1.675
12098 1  -63.433756 -5.456280e+01  1.675
12099 1  -65.866280 -5.742595e+01  1.675
12100 1  -67.102700 -5.672762e+01  1.675
12101 1  -67.116140 -5.530769e+01  1.675
12102 1  -65.893158 -5.458608e+01  1.675
12103 1  -68.325682 -5.744923e+01  1.675
12104 1  -69.562102 -5.675090e+01  1.675
12105 1  -69.575542 -5.533096e+01  1.675
12106 1  -68.352560 -5.460936e+01  1.675
12107 1  -70.785084 -5.747251e+01  1.675
12108 1  -72.021504 -5.677418e+01  1.675
12109 1  -72.034944 -5.535424e+01  1.675
12110 1  -70.811962 -5.463263e+01  1.675
12111 1  -73.244486 -5.749579e+01  1.675
12112 1  -74.480906 -5.679746e+01  1.675
12113 1  -74.494346 -5.537752e+01  1.675
12114 1  -73.271364 -5.465591e+01  1.675
12115 1  -75.703888 -5.751906e+01  1.675
12116 1  -76.940308 -5.682073e+01  1.675
12117 1  -76.953748 -5.540080e+01  1.675
12118 1  -75.730766 -5.467919e+01  1.675
12119 1  -78.163289 -5.754234e+01  1.675
12120 1  -79.399710 -5.684401e+01  1.675
12121 1  -79.413150 -5.542407e+01  1.675
12122 1  -78.190168 -5.470247e+01  1.675
12123 1  -80.622691 -5.756562e+01  1.675
12124 1  -81.859112 -5.686729e+01  1.675
12125 1  -81.872552 -5.544735e+01  1.675
12126 1  -80.649570 -5.472575e+01  1.675
12127 1  -83.082093 -5.758890e+01  1.675
12128 1  -84.318514 -5.689057e+01  1.675
12129 1  -84.331954 -5.547063e+01  1.675
12130 1  -83.108972 -5.474902e+01  1.675
12131 1  -85.541495 -5.761217e+01  1.675
12132 1  -86.777916 -5.691384e+01  1.675
12133 1  -86.791355 -5.549391e+01  1.675
12134 1  -85.568374 -5.477230e+01  1.675
12135 1  -88.000897 -5.763545e+01  1.675
12136 1  -89.237318 -5.693712e+01  1.675
12137 1  -89.250757 -5.551719e+01  1.675
12138 1  -88.027776 -5.479558e+01  1.675
12139 1  -90.460299 -5.765873e+01  1.675
12140 1  -91.696720 -5.696040e+01  1.675
12141 1  -91.710159 -5.554046e+01  1.675
12142 1  -90.487178 -5.481886e+01  1.675
12143 1  -92.919701 -5.768201e+01  1.675
12144 1  -94.156122 -5.698368e+01  1.675
12145 1  -94.169561 -5.556374e+01  1.675
12146 1  -92.946580 -5.484213e+01  1.675
12147 1  -95.379103 -5.770528e+01  1.675
12148 1  -96.615524 -5.700695e+01  1.675
12149 1  -96.628963 -5.558702e+01  1.675
12150 1  -95.405982 -5.486541e+01  1.675
12151 1  -97.838505 -5.772856e+01  1.675
12152 1  -99.074926 -5.703023e+01  1.675
12153 1  -99.088365 -5.561030e+01  1.675
12154 1  -97.865384 -5.488869e+01  1.675
12155 1 -100.297907 -5.775184e+01  1.675
12156 1 -101.534328 -5.705351e+01  1.675
12157 1 -101.547767 -5.563357e+01  1.675
12158 1 -100.324786 -5.491197e+01  1.675
12159 1 -102.757309 -5.777512e+01  1.675
12160 1 -103.993730 -5.707679e+01  1.675
12161 1 -104.007169 -5.565685e+01  1.675
12162 1 -102.784188 -5.493524e+01  1.675
12163 1 -105.216711 -5.779839e+01  1.675
12164 1 -106.453132 -5.710007e+01  1.675
12165 1 -106.466571 -5.568013e+01  1.675
12166 1 -105.243590 -5.495852e+01  1.675
12167 1 -107.676113 -5.782167e+01  1.675
12168 1 -108.912534 -5.712334e+01  1.675
12169 1 -108.925973 -5.570341e+01  1.675
12170 1 -107.702992 -5.498180e+01  1.675
12171 1 -110.135515 -5.784495e+01  1.675
12172 1 -111.371936 -5.714662e+01  1.675
12173 1 -111.385375 -5.572668e+01  1.675
12174 1 -110.162394 -5.500508e+01  1.675
12175 1  112.393327 -5.076855e+01  1.675
12176 1  112.379888 -4.934861e+01  1.675
12177 1  111.170346 -5.149015e+01  1.675
12178 1  109.933925 -5.079182e+01  1.675
12179 1  109.920486 -4.937189e+01  1.675
12180 1  111.143467 -4.865028e+01  1.675
12181 1  108.710944 -5.151343e+01  1.675
12182 1  107.474523 -5.081510e+01  1.675
12183 1  107.461084 -4.939516e+01  1.675
12184 1  108.684065 -4.867356e+01  1.675
12185 1  106.251542 -5.153671e+01  1.675
12186 1  105.015121 -5.083838e+01  1.675
12187 1  105.001682 -4.941844e+01  1.675
12188 1  106.224663 -4.869684e+01  1.675
12189 1  103.792140 -5.155999e+01  1.675
12190 1  102.555719 -5.086166e+01  1.675
12191 1  102.542280 -4.944172e+01  1.675
12192 1  103.765261 -4.872011e+01  1.675
12193 1  101.332738 -5.158326e+01  1.675
12194 1  100.096317 -5.088493e+01  1.675
12195 1  100.082878 -4.946500e+01  1.675
12196 1  101.305859 -4.874339e+01  1.675
12197 1   98.873336 -5.160654e+01  1.675
12198 1   97.636915 -5.090821e+01  1.675
12199 1   97.623476 -4.948828e+01  1.675
12200 1   98.846457 -4.876667e+01  1.675
12201 1   96.413934 -5.162982e+01  1.675
12202 1   95.177513 -5.093149e+01  1.675
12203 1   95.164074 -4.951155e+01  1.675
12204 1   96.387055 -4.878995e+01  1.675
12205 1   93.954532 -5.165310e+01  1.675
12206 1   92.718111 -5.095477e+01  1.675
12207 1   92.704672 -4.953483e+01  1.675
12208 1   93.927653 -4.881322e+01  1.675
12209 1   91.495130 -5.167637e+01  1.675
12210 1   90.258709 -5.097804e+01  1.675
12211 1   90.245270 -4.955811e+01  1.675
12212 1   91.468251 -4.883650e+01  1.675
12213 1   89.035728 -5.169965e+01  1.675
12214 1   87.799307 -5.100132e+01  1.675
12215 1   87.785868 -4.958139e+01  1.675
12216 1   89.008849 -4.885978e+01  1.675
12217 1   86.576326 -5.172293e+01  1.675
12218 1   85.339905 -5.102460e+01  1.675
12219 1   85.326466 -4.960466e+01  1.675
12220 1   86.549447 -4.888306e+01  1.675
12221 1   84.116924 -5.174621e+01  1.675
12222 1   82.880503 -5.104788e+01  1.675
12223 1   82.867064 -4.962794e+01  1.675
12224 1   84.090045 -4.890633e+01  1.675
12225 1   81.657522 -5.176948e+01  1.675
12226 1   80.421101 -5.107116e+01  1.675
12227 1   80.407662 -4.965122e+01  1.675
12228 1   81.630643 -4.892961e+01  1.675
12229 1   79.198120 -5.179276e+01  1.675
12230 1   77.961699 -5.109443e+01  1.675
12231 1   77.948260 -4.967450e+01  1.675
12232 1   79.171241 -4.895289e+01  1.675
12233 1   76.738718 -5.181604e+01  1.675
12234 1   75.502297 -5.111771e+01  1.675
12235 1   75.488858 -4.969777e+01  1.675
12236 1   76.711839 -4.897617e+01  1.675
12237 1   74.279316 -5.183932e+01  1.675
12238 1   73.042895 -5.114099e+01  1.675
12239 1   73.029456 -4.972105e+01  1.675
12240 1   74.252437 -4.899944e+01  1.675
12241 1   71.819914 -5.186260e+01  1.675
12242 1   70.583493 -5.116427e+01  1.675
12243 1   70.570054 -4.974433e+01  1.675
12244 1   71.793035 -4.902272e+01  1.675
12245 1   69.360512 -5.188587e+01  1.675
12246 1   68.124091 -5.118754e+01  1.675
12247 1   68.110652 -4.976761e+01  1.675
12248 1   69.333633 -4.904600e+01  1.675
12249 1   66.901110 -5.190915e+01  1.675
12250 1   65.664689 -5.121082e+01  1.675
12251 1   65.651250 -4.979088e+01  1.675
12252 1   66.874231 -4.906928e+01  1.675
12253 1   64.441708 -5.193243e+01  1.675
12254 1   63.205287 -5.123410e+01  1.675
12255 1   63.191848 -4.981416e+01  1.675
12256 1   64.414829 -4.909256e+01  1.675
12257 1   61.982306 -5.195571e+01  1.675
12258 1   60.745885 -5.125738e+01  1.675
12259 1   60.732446 -4.983744e+01  1.675
12260 1   61.955427 -4.911583e+01  1.675
12261 1   59.522904 -5.197898e+01  1.675
12262 1   58.286483 -5.128065e+01  1.675
12263 1   58.273044 -4.986072e+01  1.675
12264 1   59.496025 -4.913911e+01  1.675
12265 1   57.063502 -5.200226e+01  1.675
12266 1   55.827081 -5.130393e+01  1.675
12267 1   55.813642 -4.988400e+01  1.675
12268 1   57.036623 -4.916239e+01  1.675
12269 1   54.604100 -5.202554e+01  1.675
12270 1   53.367679 -5.132721e+01  1.675
12271 1   53.354240 -4.990727e+01  1.675
12272 1   54.577221 -4.918567e+01  1.675
12273 1   52.144698 -5.204882e+01  1.675
12274 1   50.908277 -5.135049e+01  1.675
12275 1   50.894838 -4.993055e+01  1.675
12276 1   52.117819 -4.920894e+01  1.675
12277 1   49.685296 -5.207209e+01  1.675
12278 1   48.448875 -5.137376e+01  1.675
12279 1   48.435436 -4.995383e+01  1.675
12280 1   49.658417 -4.923222e+01  1.675
12281 1   47.225894 -5.209537e+01  1.675
12282 1   45.989473 -5.139704e+01  1.675
12283 1   45.976034 -4.997711e+01  1.675
12284 1   47.199015 -4.925550e+01  1.675
12285 1   44.766492 -5.211865e+01  1.675
12286 1   43.530071 -5.142032e+01  1.675
12287 1   43.516632 -5.000038e+01  1.675
12288 1   44.739613 -4.927878e+01  1.675
12289 1   42.307090 -5.214193e+01  1.675
12290 1   41.070669 -5.144360e+01  1.675
12291 1   41.057230 -5.002366e+01  1.675
12292 1   42.280211 -4.930205e+01  1.675
12293 1   39.847688 -5.216520e+01  1.675
12294 1   38.611267 -5.146688e+01  1.675
12295 1   38.597828 -5.004694e+01  1.675
12296 1   39.820809 -4.932533e+01  1.675
12297 1   37.388286 -5.218848e+01  1.675
12298 1   36.151865 -5.149015e+01  1.675
12299 1   36.138426 -5.007022e+01  1.675
12300 1   37.361407 -4.934861e+01  1.675
12301 1   34.928884 -5.221176e+01  1.675
12302 1   33.692463 -5.151343e+01  1.675
12303 1   33.679024 -5.009349e+01  1.675
12304 1   34.902005 -4.937189e+01  1.675
12305 1   32.469482 -5.223504e+01  1.675
12306 1   31.233061 -5.153671e+01  1.675
12307 1   31.219622 -5.011677e+01  1.675
12308 1   32.442603 -4.939516e+01  1.675
12309 1   30.010080 -5.225832e+01  1.675
12310 1   28.773659 -5.155999e+01  1.675
12311 1   28.760220 -5.014005e+01  1.675
12312 1   29.983201 -4.941844e+01  1.675
12313 1   27.550678 -5.228159e+01  1.675
12314 1   26.314257 -5.158326e+01  1.675
12315 1   26.300818 -5.016333e+01  1.675
12316 1   27.523799 -4.944172e+01  1.675
12317 1   25.091276 -5.230487e+01  1.675
12318 1   23.854855 -5.160654e+01  1.675
12319 1   23.841416 -5.018660e+01  1.675
12320 1   25.064397 -4.946500e+01  1.675
12321 1   22.631874 -5.232815e+01  1.675
12322 1   21.395453 -5.162982e+01  1.675
12323 1   21.382014 -5.020988e+01  1.675
12324 1   22.604995 -4.948828e+01  1.675
12325 1   20.172472 -5.235143e+01  1.675
12326 1   18.936051 -5.165310e+01  1.675
12327 1   18.922612 -5.023316e+01  1.675
12328 1   20.145593 -4.951155e+01  1.675
12329 1   17.713070 -5.237470e+01  1.675
12330 1   16.476649 -5.167637e+01  1.675
12331 1   16.463210 -5.025644e+01  1.675
12332 1   17.686191 -4.953483e+01  1.675
12333 1   15.253668 -5.239798e+01  1.675
12334 1   14.017247 -5.169965e+01  1.675
12335 1   14.003808 -5.027972e+01  1.675
12336 1   15.226789 -4.955811e+01  1.675
12337 1   12.794266 -5.242126e+01  1.675
12338 1   11.557845 -5.172293e+01  1.675
12339 1   11.544406 -5.030299e+01  1.675
12340 1   12.767387 -4.958139e+01  1.675
12341 1   10.334864 -5.244454e+01  1.675
12342 1    9.098443 -5.174621e+01  1.675
12343 1    9.085004 -5.032627e+01  1.675
12344 1   10.307985 -4.960466e+01  1.675
12345 1    7.875462 -5.246781e+01  1.675
12346 1    6.639041 -5.176948e+01  1.675
12347 1    6.625602 -5.034955e+01  1.675
12348 1    7.848583 -4.962794e+01  1.675
12349 1    5.416060 -5.249109e+01  1.675
12350 1    4.179639 -5.179276e+01  1.675
12351 1    4.166200 -5.037283e+01  1.675
12352 1    5.389181 -4.965122e+01  1.675
12353 1    2.956658 -5.251437e+01  1.675
12354 1    1.720237 -5.181604e+01  1.675
12355 1    1.706798 -5.039610e+01  1.675
12356 1    2.929779 -4.967450e+01  1.675
12357 1    0.497256 -5.253765e+01  1.675
12358 1   -0.739165 -5.183932e+01  1.675
12359 1   -0.752604 -5.041938e+01  1.675
12360 1    0.470377 -4.969777e+01  1.675
12361 1   -1.962146 -5.256092e+01  1.675
12362 1   -3.198567 -5.186260e+01  1.675
12363 1   -3.212006 -5.044266e+01  1.675
12364 1   -1.989025 -4.972105e+01  1.675
12365 1   -4.421548 -5.258420e+01  1.675
12366 1   -5.657969 -5.188587e+01  1.675
12367 1   -5.671408 -5.046594e+01  1.675
12368 1   -4.448427 -4.974433e+01  1.675
12369 1   -6.880950 -5.260748e+01  1.675
12370 1   -8.117371 -5.190915e+01  1.675
12371 1   -8.130810 -5.048921e+01  1.675
12372 1   -6.907829 -4.976761e+01  1.675
12373 1   -9.340352 -5.263076e+01  1.675
12374 1  -10.576772 -5.193243e+01  1.675
12375 1  -10.590212 -5.051249e+01  1.675
12376 1   -9.367231 -4.979088e+01  1.675
12377 1  -11.799754 -5.265404e+01  1.675
12378 1  -13.036174 -5.195571e+01  1.675
12379 1  -13.049614 -5.053577e+01  1.675
12380 1  -11.826633 -4.981416e+01  1.675
12381 1  -14.259156 -5.267731e+01  1.675
12382 1  -15.495576 -5.197898e+01  1.675
12383 1  -15.509016 -5.055905e+01  1.675
12384 1  -14.286035 -4.983744e+01  1.675
12385 1  -16.718558 -5.270059e+01  1.675
12386 1  -17.954978 -5.200226e+01  1.675
12387 1  -17.968418 -5.058232e+01  1.675
12388 1  -16.745437 -4.986072e+01  1.675
12389 1  -19.177960 -5.272387e+01  1.675
12390 1  -20.414380 -5.202554e+01  1.675
12391 1  -20.427820 -5.060560e+01  1.675
12392 1  -19.204838 -4.988400e+01  1.675
12393 1  -21.637362 -5.274715e+01  1.675
12394 1  -22.873782 -5.204882e+01  1.675
12395 1  -22.887222 -5.062888e+01  1.675
12396 1  -21.664240 -4.990727e+01  1.675
12397 1  -24.096764 -5.277042e+01  1.675
12398 1  -25.333184 -5.207209e+01  1.675
12399 1  -25.346624 -5.065216e+01  1.675
12400 1  -24.123642 -4.993055e+01  1.675
12401 1  -26.556166 -5.279370e+01  1.675
12402 1  -27.792586 -5.209537e+01  1.675
12403 1  -27.806026 -5.067544e+01  1.675
12404 1  -26.583044 -4.995383e+01  1.675
12405 1  -29.015568 -5.281698e+01  1.675
12406 1  -30.251988 -5.211865e+01  1.675
12407 1  -30.265428 -5.069871e+01  1.675
12408 1  -29.042446 -4.997711e+01  1.675
12409 1  -31.474970 -5.284026e+01  1.675
12410 1  -32.711390 -5.214193e+01  1.675
12411 1  -32.724830 -5.072199e+01  1.675
12412 1  -31.501848 -5.000038e+01  1.675
12413 1  -33.934372 -5.286353e+01  1.675
12414 1  -35.170792 -5.216520e+01  1.675
12415 1  -35.184232 -5.074527e+01  1.675
12416 1  -33.961250 -5.002366e+01  1.675
12417 1  -36.393774 -5.288681e+01  1.675
12418 1  -37.630194 -5.218848e+01  1.675
12419 1  -37.643634 -5.076855e+01  1.675
12420 1  -36.420652 -5.004694e+01  1.675
12421 1  -38.853176 -5.291009e+01  1.675
12422 1  -40.089596 -5.221176e+01  1.675
12423 1  -40.103036 -5.079182e+01  1.675
12424 1  -38.880054 -5.007022e+01  1.675
12425 1  -41.312578 -5.293337e+01  1.675
12426 1  -42.548998 -5.223504e+01  1.675
12427 1  -42.562438 -5.081510e+01  1.675
12428 1  -41.339456 -5.009349e+01  1.675
12429 1  -43.771980 -5.295664e+01  1.675
12430 1  -45.008400 -5.225832e+01  1.675
12431 1  -45.021840 -5.083838e+01  1.675
12432 1  -43.798858 -5.011677e+01  1.675
12433 1  -46.231382 -5.297992e+01  1.675
12434 1  -47.467802 -5.228159e+01  1.675
12435 1  -47.481242 -5.086166e+01  1.675
12436 1  -46.258260 -5.014005e+01  1.675
12437 1  -48.690784 -5.300320e+01  1.675
12438 1  -49.927204 -5.230487e+01  1.675
12439 1  -49.940644 -5.088493e+01  1.675
12440 1  -48.717662 -5.016333e+01  1.675
12441 1  -51.150186 -5.302648e+01  1.675
12442 1  -52.386606 -5.232815e+01  1.675
12443 1  -52.400046 -5.090821e+01  1.675
12444 1  -51.177064 -5.018660e+01  1.675
12445 1  -53.609588 -5.304976e+01  1.675
12446 1  -54.846008 -5.235143e+01  1.675
12447 1  -54.859448 -5.093149e+01  1.675
12448 1  -53.636466 -5.020988e+01  1.675
12449 1  -56.068990 -5.307303e+01  1.675
12450 1  -57.305410 -5.237470e+01  1.675
12451 1  -57.318850 -5.095477e+01  1.675
12452 1  -56.095868 -5.023316e+01  1.675
12453 1  -58.528392 -5.309631e+01  1.675
12454 1  -59.764812 -5.239798e+01  1.675
12455 1  -59.778252 -5.097804e+01  1.675
12456 1  -58.555270 -5.025644e+01  1.675
12457 1  -60.987794 -5.311959e+01  1.675
12458 1  -62.224214 -5.242126e+01  1.675
12459 1  -62.237654 -5.100132e+01  1.675
12460 1  -61.014672 -5.027972e+01  1.675
12461 1  -63.447196 -5.314287e+01  1.675
12462 1  -64.683616 -5.244454e+01  1.675
12463 1  -64.697056 -5.102460e+01  1.675
12464 1  -63.474074 -5.030299e+01  1.675
12465 1  -65.906598 -5.316614e+01  1.675
12466 1  -67.143018 -5.246781e+01  1.675
12467 1  -67.156458 -5.104788e+01  1.675
12468 1  -65.933476 -5.032627e+01  1.675
12469 1  -68.366000 -5.318942e+01  1.675
12470 1  -69.602420 -5.249109e+01  1.675
12471 1  -69.615860 -5.107116e+01  1.675
12472 1  -68.392878 -5.034955e+01  1.675
12473 1  -70.825402 -5.321270e+01  1.675
12474 1  -72.061822 -5.251437e+01  1.675
12475 1  -72.075262 -5.109443e+01  1.675
12476 1  -70.852280 -5.037283e+01  1.675
12477 1  -73.284804 -5.323598e+01  1.675
12478 1  -74.521224 -5.253765e+01  1.675
12479 1  -74.534664 -5.111771e+01  1.675
12480 1  -73.311682 -5.039610e+01  1.675
12481 1  -75.744206 -5.325925e+01  1.675
12482 1  -76.980626 -5.256092e+01  1.675
12483 1  -76.994066 -5.114099e+01  1.675
12484 1  -75.771084 -5.041938e+01  1.675
12485 1  -78.203608 -5.328253e+01  1.675
12486 1  -79.440028 -5.258420e+01  1.675
12487 1  -79.453468 -5.116427e+01  1.675
12488 1  -78.230486 -5.044266e+01  1.675
12489 1  -80.663010 -5.330581e+01  1.675
12490 1  -81.899430 -5.260748e+01  1.675
12491 1  -81.912870 -5.118754e+01  1.675
12492 1  -80.689888 -5.046594e+01  1.675
12493 1  -83.122412 -5.332909e+01  1.675
12494 1  -84.358832 -5.263076e+01  1.675
12495 1  -84.372272 -5.121082e+01  1.675
12496 1  -83.149290 -5.048921e+01  1.675
12497 1  -85.581814 -5.335236e+01  1.675
12498 1  -86.818234 -5.265404e+01  1.675
12499 1  -86.831674 -5.123410e+01  1.675
12500 1  -85.608692 -5.051249e+01  1.675
12501 1  -88.041216 -5.337564e+01  1.675
12502 1  -89.277636 -5.267731e+01  1.675
12503 1  -89.291076 -5.125738e+01  1.675
12504 1  -88.068094 -5.053577e+01  1.675
12505 1  -90.500618 -5.339892e+01  1.675
12506 1  -91.737038 -5.270059e+01  1.675
12507 1  -91.750478 -5.128065e+01  1.675
12508 1  -90.527496 -5.055905e+01  1.675
12509 1  -92.960020 -5.342220e+01  1.675
12510 1  -94.196440 -5.272387e+01  1.675
12511 1  -94.209880 -5.130393e+01  1.675
12512 1  -92.986898 -5.058232e+01  1.675
12513 1  -95.419421 -5.344548e+01  1.675
12514 1  -96.655842 -5.274715e+01  1.675
12515 1  -96.669282 -5.132721e+01  1.675
12516 1  -95.446300 -5.060560e+01  1.675
12517 1  -97.878823 -5.346875e+01  1.675
12518 1  -99.115244 -5.277042e+01  1.675
12519 1  -99.128684 -5.135049e+01  1.675
12520 1  -97.905702 -5.062888e+01  1.675
12521 1 -100.338225 -5.349203e+01  1.675
12522 1 -101.574646 -5.279370e+01  1.675
12523 1 -101.588086 -5.137376e+01  1.675
12524 1 -100.365104 -5.065216e+01  1.675
12525 1 -102.797627 -5.351531e+01  1.675
12526 1 -104.034048 -5.281698e+01  1.675
12527 1 -104.047487 -5.139704e+01  1.675
12528 1 -102.824506 -5.067544e+01  1.675
12529 1 -105.257029 -5.353859e+01  1.675
12530 1 -106.493450 -5.284026e+01  1.675
12531 1 -106.506889 -5.142032e+01  1.675
12532 1 -105.283908 -5.069871e+01  1.675
12533 1 -107.716431 -5.356186e+01  1.675
12534 1 -108.952852 -5.286353e+01  1.675
12535 1 -108.966291 -5.144360e+01  1.675
12536 1 -107.743310 -5.072199e+01  1.675
12537 1 -110.175833 -5.358514e+01  1.675
12538 1 -111.412254 -5.288681e+01  1.675
12539 1 -111.425693 -5.146688e+01  1.675
12540 1 -110.202712 -5.074527e+01  1.675
12541 1  112.353009 -4.650874e+01  1.675
12542 1  112.339570 -4.508880e+01  1.675
12543 1  111.130028 -4.723034e+01  1.675
12544 1  109.893607 -4.653201e+01  1.675
12545 1  109.880168 -4.511208e+01  1.675
12546 1  111.103149 -4.439047e+01  1.675
12547 1  108.670626 -4.725362e+01  1.675
12548 1  107.434205 -4.655529e+01  1.675
12549 1  107.420766 -4.513536e+01  1.675
12550 1  108.643747 -4.441375e+01  1.675
12551 1  106.211224 -4.727690e+01  1.675
12552 1  104.974803 -4.657857e+01  1.675
12553 1  104.961364 -4.515863e+01  1.675
12554 1  106.184345 -4.443703e+01  1.675
12555 1  103.751822 -4.730018e+01  1.675
12556 1  102.515401 -4.660185e+01  1.675
12557 1  102.501962 -4.518191e+01  1.675
12558 1  103.724943 -4.446030e+01  1.675
12559 1  101.292420 -4.732345e+01  1.675
12560 1  100.055999 -4.662512e+01  1.675
12561 1  100.042560 -4.520519e+01  1.675
12562 1  101.265541 -4.448358e+01  1.675
12563 1   98.833018 -4.734673e+01  1.675
12564 1   97.596597 -4.664840e+01  1.675
12565 1   97.583158 -4.522847e+01  1.675
12566 1   98.806139 -4.450686e+01  1.675
12567 1   96.373616 -4.737001e+01  1.675
12568 1   95.137195 -4.667168e+01  1.675
12569 1   95.123756 -4.525174e+01  1.675
12570 1   96.346737 -4.453014e+01  1.675
12571 1   93.914214 -4.739329e+01  1.675
12572 1   92.677793 -4.669496e+01  1.675
12573 1   92.664354 -4.527502e+01  1.675
12574 1   93.887335 -4.455341e+01  1.675
12575 1   91.454812 -4.741656e+01  1.675
12576 1   90.218391 -4.671824e+01  1.675
12577 1   90.204952 -4.529830e+01  1.675
12578 1   91.427933 -4.457669e+01  1.675
12579 1   88.995410 -4.743984e+01  1.675
12580 1   87.758989 -4.674151e+01  1.675
12581 1   87.745550 -4.532158e+01  1.675
12582 1   88.968531 -4.459997e+01  1.675
12583 1   86.536008 -4.746312e+01  1.675
12584 1   85.299587 -4.676479e+01  1.675
12585 1   85.286148 -4.534485e+01  1.675
12586 1   86.509129 -4.462325e+01  1.675
12587 1   84.076606 -4.748640e+01  1.675
12588 1   82.840185 -4.678807e+01  1.675
12589 1   82.826746 -4.536813e+01  1.675
12590 1   84.049727 -4.464652e+01  1.675
12591 1   81.617204 -4.750968e+01  1.675
12592 1   80.380783 -4.681135e+01  1.675
12593 1   80.367344 -4.539141e+01  1.675
12594 1   81.590325 -4.466980e+01  1.675
12595 1   79.157802 -4.753295e+01  1.675
12596 1   77.921381 -4.683462e+01  1.675
12597 1   77.907942 -4.541469e+01  1.675
12598 1   79.130923 -4.469308e+01  1.675
12599 1   76.698400 -4.755623e+01  1.675
12600 1   75.461979 -4.685790e+01  1.675
12601 1   75.448540 -4.543796e+01  1.675
12602 1   76.671521 -4.471636e+01  1.675
12603 1   74.238998 -4.757951e+01  1.675
12604 1   73.002577 -4.688118e+01  1.675
12605 1   72.989138 -4.546124e+01  1.675
12606 1   74.212119 -4.473964e+01  1.675
12607 1   71.779596 -4.760279e+01  1.675
12608 1   70.543175 -4.690446e+01  1.675
12609 1   70.529736 -4.548452e+01  1.675
12610 1   71.752717 -4.476291e+01  1.675
12611 1   69.320194 -4.762606e+01  1.675
12612 1   68.083773 -4.692773e+01  1.675
12613 1   68.070334 -4.550780e+01  1.675
12614 1   69.293315 -4.478619e+01  1.675
12615 1   66.860792 -4.764934e+01  1.675
12616 1   65.624371 -4.695101e+01  1.675
12617 1   65.610932 -4.553108e+01  1.675
12618 1   66.833913 -4.480947e+01  1.675
12619 1   64.401390 -4.767262e+01  1.675
12620 1   63.164969 -4.697429e+01  1.675
12621 1   63.151530 -4.555435e+01  1.675
12622 1   64.374511 -4.483275e+01  1.675
12623 1   61.941988 -4.769590e+01  1.675
12624 1   60.705567 -4.699757e+01  1.675
12625 1   60.692128 -4.557763e+01  1.675
12626 1   61.915109 -4.485602e+01  1.675
12627 1   59.482586 -4.771917e+01  1.675
12628 1   58.246165 -4.702084e+01  1.675
12629 1   58.232726 -4.560091e+01  1.675
12630 1   59.455707 -4.487930e+01  1.675
12631 1   57.023184 -4.774245e+01  1.675
12632 1   55.786763 -4.704412e+01  1.675
12633 1   55.773324 -4.562419e+01  1.675
12634 1   56.996305 -4.490258e+01  1.675
12635 1   54.563782 -4.776573e+01  1.675
12636 1   53.327361 -4.706740e+01  1.675
12637 1   53.313922 -4.564746e+01  1.675
12638 1   54.536903 -4.492586e+01  1.675
12639 1   52.104380 -4.778901e+01  1.675
12640 1   50.867959 -4.709068e+01  1.675
12641 1   50.854520 -4.567074e+01  1.675
12642 1   52.077501 -4.494913e+01  1.675
12643 1   49.644978 -4.781228e+01  1.675
12644 1   48.408557 -4.711396e+01  1.675
12645 1   48.395118 -4.569402e+01  1.675
12646 1   49.618099 -4.497241e+01  1.675
12647 1   47.185576 -4.783556e+01  1.675
12648 1   45.949155 -4.713723e+01  1.675
12649 1   45.935716 -4.571730e+01  1.675
12650 1   47.158697 -4.499569e+01  1.675
12651 1   44.726174 -4.785884e+01  1.675
12652 1   43.489753 -4.716051e+01  1.675
12653 1   43.476314 -4.574057e+01  1.675
12654 1   44.699295 -4.501897e+01  1.675
12655 1   42.266772 -4.788212e+01  1.675
12656 1   41.030351 -4.718379e+01  1.675
12657 1   41.016912 -4.576385e+01  1.675
12658 1   42.239893 -4.504224e+01  1.675
12659 1   39.807370 -4.790540e+01  1.675
12660 1   38.570949 -4.720707e+01  1.675
12661 1   38.557510 -4.578713e+01  1.675
12662 1   39.780491 -4.506552e+01  1.675
12663 1   37.347968 -4.792867e+01  1.675
12664 1   36.111547 -4.723034e+01  1.675
12665 1   36.098108 -4.581041e+01  1.675
12666 1   37.321089 -4.508880e+01  1.675
12667 1   34.888566 -4.795195e+01  1.675
12668 1   33.652145 -4.725362e+01  1.675
12669 1   33.638706 -4.583368e+01  1.675
12670 1   34.861687 -4.511208e+01  1.675
12671 1   32.429164 -4.797523e+01  1.675
12672 1   31.192743 -4.727690e+01  1.675
12673 1   31.179304 -4.585696e+01  1.675
12674 1   32.402285 -4.513536e+01  1.675
12675 1   29.969762 -4.799851e+01  1.675
12676 1   28.733341 -4.730018e+01  1.675
12677 1   28.719902 -4.588024e+01  1.675
12678 1   29.942883 -4.515863e+01  1.675
12679 1   27.510360 -4.802178e+01  1.675
12680 1   26.273939 -4.732345e+01  1.675
12681 1   26.260500 -4.590352e+01  1.675
12682 1   27.483481 -4.518191e+01  1.675
12683 1   25.050958 -4.804506e+01  1.675
12684 1   23.814537 -4.734673e+01  1.675
12685 1   23.801098 -4.592680e+01  1.675
12686 1   25.024079 -4.520519e+01  1.675
12687 1   22.591556 -4.806834e+01  1.675
12688 1   21.355135 -4.737001e+01  1.675
12689 1   21.341696 -4.595007e+01  1.675
12690 1   22.564677 -4.522847e+01  1.675
12691 1   20.132154 -4.809162e+01  1.675
12692 1   18.895733 -4.739329e+01  1.675
12693 1   18.882294 -4.597335e+01  1.675
12694 1   20.105275 -4.525174e+01  1.675
12695 1   17.672752 -4.811489e+01  1.675
12696 1   16.436331 -4.741656e+01  1.675
12697 1   16.422892 -4.599663e+01  1.675
12698 1   17.645873 -4.527502e+01  1.675
12699 1   15.213350 -4.813817e+01  1.675
12700 1   13.976929 -4.743984e+01  1.675
12701 1   13.963490 -4.601991e+01  1.675
12702 1   15.186471 -4.529830e+01  1.675
12703 1   12.753948 -4.816145e+01  1.675
12704 1   11.517527 -4.746312e+01  1.675
12705 1   11.504088 -4.604318e+01  1.675
12706 1   12.727069 -4.532158e+01  1.675
12707 1   10.294546 -4.818473e+01  1.675
12708 1    9.058125 -4.748640e+01  1.675
12709 1    9.044686 -4.606646e+01  1.675
12710 1   10.267667 -4.534485e+01  1.675
12711 1    7.835144 -4.820800e+01  1.675
12712 1    6.598723 -4.750968e+01  1.675
12713 1    6.585284 -4.608974e+01  1.675
12714 1    7.808265 -4.536813e+01  1.675
12715 1    5.375742 -4.823128e+01  1.675
12716 1    4.139321 -4.753295e+01  1.675
12717 1    4.125882 -4.611302e+01  1.675
12718 1    5.348863 -4.539141e+01  1.675
12719 1    2.916340 -4.825456e+01  1.675
12720 1    1.679919 -4.755623e+01  1.675
12721 1    1.666480 -4.613629e+01  1.675
12722 1    2.889461 -4.541469e+01  1.675
12723 1    0.456938 -4.827784e+01  1.675
12724 1   -0.779483 -4.757951e+01  1.675
12725 1   -0.792922 -4.615957e+01  1.675
12726 1    0.430059 -4.543796e+01  1.675
12727 1   -2.002464 -4.830112e+01  1.675
12728 1   -3.238885 -4.760279e+01  1.675
12729 1   -3.252324 -4.618285e+01  1.675
12730 1   -2.029343 -4.546124e+01  1.675
12731 1   -4.461866 -4.832439e+01  1.675
12732 1   -5.698287 -4.762606e+01  1.675
12733 1   -5.711726 -4.620613e+01  1.675
12734 1   -4.488745 -4.548452e+01  1.675
12735 1   -6.921268 -4.834767e+01  1.675
12736 1   -8.157689 -4.764934e+01  1.675
12737 1   -8.171128 -4.622940e+01  1.675
12738 1   -6.948147 -4.550780e+01  1.675
12739 1   -9.380670 -4.837095e+01  1.675
12740 1  -10.617091 -4.767262e+01  1.675
12741 1  -10.630530 -4.625268e+01  1.675
12742 1   -9.407549 -4.553108e+01  1.675
12743 1  -11.840072 -4.839423e+01  1.675
12744 1  -13.076493 -4.769590e+01  1.675
12745 1  -13.089932 -4.627596e+01  1.675
12746 1  -11.866951 -4.555435e+01  1.675
12747 1  -14.299474 -4.841750e+01  1.675
12748 1  -15.535895 -4.771917e+01  1.675
12749 1  -15.549334 -4.629924e+01  1.675
12750 1  -14.326353 -4.557763e+01  1.675
12751 1  -16.758876 -4.844078e+01  1.675
12752 1  -17.995297 -4.774245e+01  1.675
12753 1  -18.008736 -4.632252e+01  1.675
12754 1  -16.785755 -4.560091e+01  1.675
12755 1  -19.218278 -4.846406e+01  1.675
12756 1  -20.454699 -4.776573e+01  1.675
12757 1  -20.468138 -4.634579e+01  1.675
12758 1  -19.245157 -4.562419e+01  1.675
12759 1  -21.677680 -4.848734e+01  1.675
12760 1  -22.914101 -4.778901e+01  1.675
12761 1  -22.927540 -4.636907e+01  1.675
12762 1  -21.704559 -4.564746e+01  1.675
12763 1  -24.137082 -4.851061e+01  1.675
12764 1  -25.373503 -4.781228e+01  1.675
12765 1  -25.386942 -4.639235e+01  1.675
12766 1  -24.163961 -4.567074e+01  1.675
12767 1  -26.596484 -4.853389e+01  1.675
12768 1  -27.832904 -4.783556e+01  1.675
12769 1  -27.846344 -4.641563e+01  1.675
12770 1  -26.623363 -4.569402e+01  1.675
12771 1  -29.055886 -4.855717e+01  1.675
12772 1  -30.292306 -4.785884e+01  1.675
12773 1  -30.305746 -4.643890e+01  1.675
12774 1  -29.082765 -4.571730e+01  1.675
12775 1  -31.515288 -4.858045e+01  1.675
12776 1  -32.751708 -4.788212e+01  1.675
12777 1  -32.765148 -4.646218e+01  1.675
12778 1  -31.542167 -4.574057e+01  1.675
12779 1  -33.974690 -4.860372e+01  1.675
12780 1  -35.211110 -4.790540e+01  1.675
12781 1  -35.224550 -4.648546e+01  1.675
12782 1  -34.001569 -4.576385e+01  1.675
12783 1  -36.434092 -4.862700e+01  1.675
12784 1  -37.670512 -4.792867e+01  1.675
12785 1  -37.683952 -4.650874e+01  1.675
12786 1  -36.460970 -4.578713e+01  1.675
12787 1  -38.893494 -4.865028e+01  1.675
12788 1  -40.129914 -4.795195e+01  1.675
12789 1  -40.143354 -4.653201e+01  1.675
12790 1  -38.920372 -4.581041e+01  1.675
12791 1  -41.352896 -4.867356e+01  1.675
12792 1  -42.589316 -4.797523e+01  1.675
12793 1  -42.602756 -4.655529e+01  1.675
12794 1  -41.379774 -4.583368e+01  1.675
12795 1  -43.812298 -4.869684e+01  1.675
12796 1  -45.048718 -4.799851e+01  1.675
12797 1  -45.062158 -4.657857e+01  1.675
12798 1  -43.839176 -4.585696e+01  1.675
12799 1  -46.271700 -4.872011e+01  1.675
12800 1  -47.508120 -4.802178e+01  1.675
12801 1  -47.521560 -4.660185e+01  1.675
12802 1  -46.298578 -4.588024e+01  1.675
12803 1  -48.731102 -4.874339e+01  1.675
12804 1  -49.967522 -4.804506e+01  1.675
12805 1  -49.980962 -4.662512e+01  1.675
12806 1  -48.757980 -4.590352e+01  1.675
12807 1  -51.190504 -4.876667e+01  1.675
12808 1  -52.426924 -4.806834e+01  1.675
12809 1  -52.440364 -4.664840e+01  1.675
12810 1  -51.217382 -4.592680e+01  1.675
12811 1  -53.649906 -4.878995e+01  1.675
12812 1  -54.886326 -4.809162e+01  1.675
12813 1  -54.899766 -4.667168e+01  1.675
12814 1  -53.676784 -4.595007e+01  1.675
12815 1  -56.109308 -4.881322e+01  1.675
12816 1  -57.345728 -4.811489e+01  1.675
12817 1  -57.359168 -4.669496e+01  1.675
12818 1  -56.136186 -4.597335e+01  1.675
12819 1  -58.568710 -4.883650e+01  1.675
12820 1  -59.805130 -4.813817e+01  1.675
12821 1  -59.818570 -4.671824e+01  1.675
12822 1  -58.595588 -4.599663e+01  1.675
12823 1  -61.028112 -4.885978e+01  1.675
12824 1  -62.264532 -4.816145e+01  1.675
12825 1  -62.277972 -4.674151e+01  1.675
12826 1  -61.054990 -4.601991e+01  1.675
12827 1  -63.487514 -4.888306e+01  1.675
12828 1  -64.723934 -4.818473e+01  1.675
12829 1  -64.737374 -4.676479e+01  1.675
12830 1  -63.514392 -4.604318e+01  1.675
12831 1  -65.946916 -4.890633e+01  1.675
12832 1  -67.183336 -4.820800e+01  1.675
12833 1  -67.196776 -4.678807e+01  1.675
12834 1  -65.973794 -4.606646e+01  1.675
12835 1  -68.406318 -4.892961e+01  1.675
12836 1  -69.642738 -4.823128e+01  1.675
12837 1  -69.656178 -4.681135e+01  1.675
12838 1  -68.433196 -4.608974e+01  1.675
12839 1  -70.865720 -4.895289e+01  1.675
12840 1  -72.102140 -4.825456e+01  1.675
12841 1  -72.115580 -4.683462e+01  1.675
12842 1  -70.892598 -4.611302e+01  1.675
12843 1  -73.325122 -4.897617e+01  1.675
12844 1  -74.561542 -4.827784e+01  1.675
12845 1  -74.574982 -4.685790e+01  1.675
12846 1  -73.352000 -4.613629e+01  1.675
12847 1  -75.784524 -4.899944e+01  1.675
12848 1  -77.020944 -4.830112e+01  1.675
12849 1  -77.034384 -4.688118e+01  1.675
12850 1  -75.811402 -4.615957e+01  1.675
12851 1  -78.243926 -4.902272e+01  1.675
12852 1  -79.480346 -4.832439e+01  1.675
12853 1  -79.493786 -4.690446e+01  1.675
12854 1  -78.270804 -4.618285e+01  1.675
12855 1  -80.703328 -4.904600e+01  1.675
12856 1  -81.939748 -4.834767e+01  1.675
12857 1  -81.953188 -4.692773e+01  1.675
12858 1  -80.730206 -4.620613e+01  1.675
12859 1  -83.162730 -4.906928e+01  1.675
12860 1  -84.399150 -4.837095e+01  1.675
12861 1  -84.412590 -4.695101e+01  1.675
12862 1  -83.189608 -4.622940e+01  1.675
12863 1  -85.622132 -4.909256e+01  1.675
12864 1  -86.858552 -4.839423e+01  1.675
12865 1  -86.871992 -4.697429e+01  1.675
12866 1  -85.649010 -4.625268e+01  1.675
12867 1  -88.081534 -4.911583e+01  1.675
12868 1  -89.317954 -4.841750e+01  1.675
12869 1  -89.331394 -4.699757e+01  1.675
12870 1  -88.108412 -4.627596e+01  1.675
12871 1  -90.540936 -4.913911e+01  1.675
12872 1  -91.777356 -4.844078e+01  1.675
12873 1  -91.790796 -4.702084e+01  1.675
12874 1  -90.567814 -4.629924e+01  1.675
12875 1  -93.000338 -4.916239e+01  1.675
12876 1  -94.236758 -4.846406e+01  1.675
12877 1  -94.250198 -4.704412e+01  1.675
12878 1  -93.027216 -4.632252e+01  1.675
12879 1  -95.459740 -4.918567e+01  1.675
12880 1  -96.696160 -4.848734e+01  1.675
12881 1  -96.709600 -4.706740e+01  1.675
12882 1  -95.486618 -4.634579e+01  1.675
12883 1  -97.919142 -4.920894e+01  1.675
12884 1  -99.155562 -4.851061e+01  1.675
12885 1  -99.169002 -4.709068e+01  1.675
12886 1  -97.946020 -4.636907e+01  1.675
12887 1 -100.378544 -4.923222e+01  1.675
12888 1 -101.614964 -4.853389e+01  1.675
12889 1 -101.628404 -4.711396e+01  1.675
12890 1 -100.405422 -4.639235e+01  1.675
12891 1 -102.837946 -4.925550e+01  1.675
12892 1 -104.074366 -4.855717e+01  1.675
12893 1 -104.087806 -4.713723e+01  1.675
12894 1 -102.864824 -4.641563e+01  1.675
12895 1 -105.297348 -4.927878e+01  1.675
12896 1 -106.533768 -4.858045e+01  1.675
12897 1 -106.547208 -4.716051e+01  1.675
12898 1 -105.324226 -4.643890e+01  1.675
12899 1 -107.756750 -4.930205e+01  1.675
12900 1 -108.993170 -4.860372e+01  1.675
12901 1 -109.006610 -4.718379e+01  1.675
12902 1 -107.783628 -4.646218e+01  1.675
12903 1 -110.216152 -4.932533e+01  1.675
12904 1 -111.452572 -4.862700e+01  1.675
12905 1 -111.466012 -4.720707e+01  1.675
12906 1 -110.243030 -4.648546e+01  1.675
12907 1  112.312691 -4.224893e+01  1.675
12908 1  112.299252 -4.082899e+01  1.675
12909 1  111.089710 -4.297053e+01  1.675
12910 1  109.853289 -4.227220e+01  1.675
12911 1  109.839850 -4.085227e+01  1.675
12912 1  111.062831 -4.013066e+01  1.675
12913 1  108.630308 -4.299381e+01  1.675
12914 1  107.393887 -4.229548e+01  1.675
12915 1  107.380448 -4.087555e+01  1.675
12916 1  108.603429 -4.015394e+01  1.675
12917 1  106.170906 -4.301709e+01  1.675
12918 1  104.934485 -4.231876e+01  1.675
12919 1  104.921046 -4.089882e+01  1.675
12920 1  106.144027 -4.017722e+01  1.675
12921 1  103.711504 -4.304037e+01  1.675
12922 1  102.475083 -4.234204e+01  1.675
12923 1  102.461644 -4.092210e+01  1.675
12924 1  103.684625 -4.020049e+01  1.675
12925 1  101.252102 -4.306364e+01  1.675
12926 1  100.015681 -4.236532e+01  1.675
12927 1  100.002242 -4.094538e+01  1.675
12928 1  101.225223 -4.022377e+01  1.675
12929 1   98.792700 -4.308692e+01  1.675
12930 1   97.556279 -4.238859e+01  1.675
12931 1   97.542840 -4.096866e+01  1.675
12932 1   98.765821 -4.024705e+01  1.675
12933 1   96.333298 -4.311020e+01  1.675
12934 1   95.096877 -4.241187e+01  1.675
12935 1   95.083438 -4.099193e+01  1.675
12936 1   96.306419 -4.027033e+01  1.675
12937 1   93.873896 -4.313348e+01  1.675
12938 1   92.637475 -4.243515e+01  1.675
12939 1   92.624036 -4.101521e+01  1.675
12940 1   93.847017 -4.029361e+01  1.675
12941 1   91.414494 -4.315676e+01  1.675
12942 1   90.178073 -4.245843e+01  1.675
12943 1   90.164634 -4.103849e+01  1.675
12944 1   91.387615 -4.031688e+01  1.675
12945 1   88.955092 -4.318003e+01  1.675
12946 1   87.718671 -4.248170e+01  1.675
12947 1   87.705232 -4.106177e+01  1.675
12948 1   88.928213 -4.034016e+01  1.675
12949 1   86.495690 -4.320331e+01  1.675
12950 1   85.259269 -4.250498e+01  1.675
12951 1   85.245830 -4.108505e+01  1.675
12952 1   86.468811 -4.036344e+01  1.675
12953 1   84.036288 -4.322659e+01  1.675
12954 1   82.799867 -4.252826e+01  1.675
12955 1   82.786428 -4.110832e+01  1.675
12956 1   84.009409 -4.038672e+01  1.675
12957 1   81.576886 -4.324987e+01  1.675
12958 1   80.340465 -4.255154e+01  1.675
12959 1   80.327026 -4.113160e+01  1.675
12960 1   81.550007 -4.040999e+01  1.675
12961 1   79.117484 -4.327314e+01  1.675
12962 1   77.881063 -4.257481e+01  1.675
12963 1   77.867624 -4.115488e+01  1.675
12964 1   79.090605 -4.043327e+01  1.675
12965 1   76.658082 -4.329642e+01  1.675
12966 1   75.421661 -4.259809e+01  1.675
12967 1   75.408222 -4.117816e+01  1.675
12968 1   76.631203 -4.045655e+01  1.675
12969 1   74.198680 -4.331970e+01  1.675
12970 1   72.962259 -4.262137e+01  1.675
12971 1   72.948820 -4.120143e+01  1.675
12972 1   74.171801 -4.047983e+01  1.675
12973 1   71.739278 -4.334298e+01  1.675
12974 1   70.502857 -4.264465e+01  1.675
12975 1   70.489418 -4.122471e+01  1.675
12976 1   71.712399 -4.050310e+01  1.675
12977 1   69.279876 -4.336625e+01  1.675
12978 1   68.043455 -4.266792e+01  1.675
12979 1   68.030016 -4.124799e+01  1.675
12980 1   69.252997 -4.052638e+01  1.675
12981 1   66.820474 -4.338953e+01  1.675
12982 1   65.584053 -4.269120e+01  1.675
12983 1   65.570614 -4.127127e+01  1.675
12984 1   66.793595 -4.054966e+01  1.675
12985 1   64.361072 -4.341281e+01  1.675
12986 1   63.124651 -4.271448e+01  1.675
12987 1   63.111212 -4.129454e+01  1.675
12988 1   64.334193 -4.057294e+01  1.675
12989 1   61.901670 -4.343609e+01  1.675
12990 1   60.665249 -4.273776e+01  1.675
12991 1   60.651810 -4.131782e+01  1.675
12992 1   61.874791 -4.059621e+01  1.675
12993 1   59.442268 -4.345936e+01  1.675
12994 1   58.205847 -4.276104e+01  1.675
12995 1   58.192408 -4.134110e+01  1.675
12996 1   59.415389 -4.061949e+01  1.675
12997 1   56.982866 -4.348264e+01  1.675
12998 1   55.746445 -4.278431e+01  1.675
12999 1   55.733006 -4.136438e+01  1.675
13000 1   56.955987 -4.064277e+01  1.675
13001 1   54.523464 -4.350592e+01  1.675
13002 1   53.287043 -4.280759e+01  1.675
13003 1   53.273604 -4.138765e+01  1.675
13004 1   54.496585 -4.066605e+01  1.675
13005 1   52.064062 -4.352920e+01  1.675
13006 1   50.827641 -4.283087e+01  1.675
13007 1   50.814202 -4.141093e+01  1.675
13008 1   52.037183 -4.068933e+01  1.675
13009 1   49.604660 -4.355248e+01  1.675
13010 1   48.368239 -4.285415e+01  1.675
13011 1   48.354800 -4.143421e+01  1.675
13012 1   49.577781 -4.071260e+01  1.675
13013 1   47.145258 -4.357575e+01  1.675
13014 1   45.908837 -4.287742e+01  1.675
13015 1   45.895398 -4.145749e+01  1.675
13016 1   47.118379 -4.073588e+01  1.675
13017 1   44.685856 -4.359903e+01  1.675
13018 1   43.449435 -4.290070e+01  1.675
13019 1   43.435996 -4.148077e+01  1.675
13020 1   44.658977 -4.075916e+01  1.675
13021 1   42.226454 -4.362231e+01  1.675
13022 1   40.990033 -4.292398e+01  1.675
13023 1   40.976594 -4.150404e+01  1.675
13024 1   42.199575 -4.078244e+01  1.675
13025 1   39.767052 -4.364559e+01  1.675
13026 1   38.530631 -4.294726e+01  1.675
13027 1   38.517192 -4.152732e+01  1.675
13028 1   39.740173 -4.080571e+01  1.675
13029 1   37.307650 -4.366886e+01  1.675
13030 1   36.071229 -4.297053e+01  1.675
13031 1   36.057790 -4.155060e+01  1.675
13032 1   37.280771 -4.082899e+01  1.675
13033 1   34.848248 -4.369214e+01  1.675
13034 1   33.611827 -4.299381e+01  1.675
13035 1   33.598388 -4.157388e+01  1.675
13036 1   34.821369 -4.085227e+01  1.675
13037 1   32.388846 -4.371542e+01  1.675
13038 1   31.152425 -4.301709e+01  1.675
13039 1   31.138986 -4.159715e+01  1.675
13040 1   32.361967 -4.087555e+01  1.675
13041 1   29.929444 -4.373870e+01  1.675
13042 1   28.693023 -4.304037e+01  1.675
13043 1   28.679584 -4.162043e+01  1.675
13044 1   29.902565 -4.089882e+01  1.675
13045 1   27.470042 -4.376197e+01  1.675
13046 1   26.233621 -4.306364e+01  1.675
13047 1   26.220182 -4.164371e+01  1.675
13048 1   27.443163 -4.092210e+01  1.675
13049 1   25.010640 -4.378525e+01  1.675
13050 1   23.774219 -4.308692e+01  1.675
13051 1   23.760780 -4.166699e+01  1.675
13052 1   24.983761 -4.094538e+01  1.675
13053 1   22.551238 -4.380853e+01  1.675
13054 1   21.314817 -4.311020e+01  1.675
13055 1   21.301378 -4.169026e+01  1.675
13056 1   22.524359 -4.096866e+01  1.675
13057 1   20.091836 -4.383181e+01  1.675
13058 1   18.855415 -4.313348e+01  1.675
13059 1   18.841976 -4.171354e+01  1.675
13060 1   20.064957 -4.099193e+01  1.675
13061 1   17.632434 -4.385508e+01  1.675
13062 1   16.396013 -4.315676e+01  1.675
13063 1   16.382574 -4.173682e+01  1.675
13064 1   17.605555 -4.101521e+01  1.675
13065 1   15.173032 -4.387836e+01  1.675
13066 1   13.936611 -4.318003e+01  1.675
13067 1   13.923172 -4.176010e+01  1.675
13068 1   15.146153 -4.103849e+01  1.675
13069 1   12.713630 -4.390164e+01  1.675
13070 1   11.477209 -4.320331e+01  1.675
13071 1   11.463770 -4.178337e+01  1.675
13072 1   12.686751 -4.106177e+01  1.675
13073 1   10.254228 -4.392492e+01  1.675
13074 1    9.017807 -4.322659e+01  1.675
13075 1    9.004368 -4.180665e+01  1.675
13076 1   10.227349 -4.108505e+01  1.675
13077 1    7.794826 -4.394820e+01  1.675
13078 1    6.558405 -4.324987e+01  1.675
13079 1    6.544966 -4.182993e+01  1.675
13080 1    7.767947 -4.110832e+01  1.675
13081 1    5.335424 -4.397147e+01  1.675
13082 1    4.099003 -4.327314e+01  1.675
13083 1    4.085564 -4.185321e+01  1.675
13084 1    5.308545 -4.113160e+01  1.675
13085 1    2.876022 -4.399475e+01  1.675
13086 1    1.639601 -4.329642e+01  1.675
13087 1    1.626162 -4.187649e+01  1.675
13088 1    2.849143 -4.115488e+01  1.675
13089 1    0.416620 -4.401803e+01  1.675
13090 1   -0.819801 -4.331970e+01  1.675
13091 1   -0.833240 -4.189976e+01  1.675
13092 1    0.389741 -4.117816e+01  1.675
13093 1   -2.042782 -4.404131e+01  1.675
13094 1   -3.279203 -4.334298e+01  1.675
13095 1   -3.292642 -4.192304e+01  1.675
13096 1   -2.069661 -4.120143e+01  1.675
13097 1   -4.502184 -4.406458e+01  1.675
13098 1   -5.738605 -4.336625e+01  1.675
13099 1   -5.752044 -4.194632e+01  1.675
13100 1   -4.529063 -4.122471e+01  1.675
13101 1   -6.961586 -4.408786e+01  1.675
13102 1   -8.198007 -4.338953e+01  1.675
13103 1   -8.211446 -4.196960e+01  1.675
13104 1   -6.988465 -4.124799e+01  1.675
13105 1   -9.420988 -4.411114e+01  1.675
13106 1  -10.657409 -4.341281e+01  1.675
13107 1  -10.670848 -4.199287e+01  1.675
13108 1   -9.447867 -4.127127e+01  1.675
13109 1  -11.880390 -4.413442e+01  1.675
13110 1  -13.116811 -4.343609e+01  1.675
13111 1  -13.130250 -4.201615e+01  1.675
13112 1  -11.907269 -4.129454e+01  1.675
13113 1  -14.339792 -4.415769e+01  1.675
13114 1  -15.576213 -4.345936e+01  1.675
13115 1  -15.589652 -4.203943e+01  1.675
13116 1  -14.366671 -4.131782e+01  1.675
13117 1  -16.799194 -4.418097e+01  1.675
13118 1  -18.035615 -4.348264e+01  1.675
13119 1  -18.049054 -4.206271e+01  1.675
13120 1  -16.826073 -4.134110e+01  1.675
13121 1  -19.258596 -4.420425e+01  1.675
13122 1  -20.495017 -4.350592e+01  1.675
13123 1  -20.508456 -4.208598e+01  1.675
13124 1  -19.285475 -4.136438e+01  1.675
13125 1  -21.717998 -4.422753e+01  1.675
13126 1  -22.954419 -4.352920e+01  1.675
13127 1  -22.967858 -4.210926e+01  1.675
13128 1  -21.744877 -4.138765e+01  1.675
13129 1  -24.177400 -4.425080e+01  1.675
13130 1  -25.413821 -4.355248e+01  1.675
13131 1  -25.427260 -4.213254e+01  1.675
13132 1  -24.204279 -4.141093e+01  1.675
13133 1  -26.636802 -4.427408e+01  1.675
13134 1  -27.873223 -4.357575e+01  1.675
13135 1  -27.886662 -4.215582e+01  1.675
13136 1  -26.663681 -4.143421e+01  1.675
13137 1  -29.096204 -4.429736e+01  1.675
13138 1  -30.332625 -4.359903e+01  1.675
13139 1  -30.346064 -4.217909e+01  1.675
13140 1  -29.123083 -4.145749e+01  1.675
13141 1  -31.555606 -4.432064e+01  1.675
13142 1  -32.792027 -4.362231e+01  1.675
13143 1  -32.805466 -4.220237e+01  1.675
13144 1  -31.582485 -4.148077e+01  1.675
13145 1  -34.015008 -4.434392e+01  1.675
13146 1  -35.251429 -4.364559e+01  1.675
13147 1  -35.264868 -4.222565e+01  1.675
13148 1  -34.041887 -4.150404e+01  1.675
13149 1  -36.474410 -4.436719e+01  1.675
13150 1  -37.710831 -4.366886e+01  1.675
13151 1  -37.724270 -4.224893e+01  1.675
13152 1  -36.501289 -4.152732e+01  1.675
13153 1  -38.933812 -4.439047e+01  1.675
13154 1  -40.170233 -4.369214e+01  1.675
13155 1  -40.183672 -4.227220e+01  1.675
13156 1  -38.960691 -4.155060e+01  1.675
13157 1  -41.393214 -4.441375e+01  1.675
13158 1  -42.629635 -4.371542e+01  1.675
13159 1  -42.643074 -4.229548e+01  1.675
13160 1  -41.420093 -4.157388e+01  1.675
13161 1  -43.852616 -4.443703e+01  1.675
13162 1  -45.089036 -4.373870e+01  1.675
13163 1  -45.102476 -4.231876e+01  1.675
13164 1  -43.879495 -4.159715e+01  1.675
13165 1  -46.312018 -4.446030e+01  1.675
13166 1  -47.548438 -4.376197e+01  1.675
13167 1  -47.561878 -4.234204e+01  1.675
13168 1  -46.338897 -4.162043e+01  1.675
13169 1  -48.771420 -4.448358e+01  1.675
13170 1  -50.007840 -4.378525e+01  1.675
13171 1  -50.021280 -4.236532e+01  1.675
13172 1  -48.798299 -4.164371e+01  1.675
13173 1  -51.230822 -4.450686e+01  1.675
13174 1  -52.467242 -4.380853e+01  1.675
13175 1  -52.480682 -4.238859e+01  1.675
13176 1  -51.257701 -4.166699e+01  1.675
13177 1  -53.690224 -4.453014e+01  1.675
13178 1  -54.926644 -4.383181e+01  1.675
13179 1  -54.940084 -4.241187e+01  1.675
13180 1  -53.717102 -4.169026e+01  1.675
13181 1  -56.149626 -4.455341e+01  1.675
13182 1  -57.386046 -4.385508e+01  1.675
13183 1  -57.399486 -4.243515e+01  1.675
13184 1  -56.176504 -4.171354e+01  1.675
13185 1  -58.609028 -4.457669e+01  1.675
13186 1  -59.845448 -4.387836e+01  1.675
13187 1  -59.858888 -4.245843e+01  1.675
13188 1  -58.635906 -4.173682e+01  1.675
13189 1  -61.068430 -4.459997e+01  1.675
13190 1  -62.304850 -4.390164e+01  1.675
13191 1  -62.318290 -4.248170e+01  1.675
13192 1  -61.095308 -4.176010e+01  1.675
13193 1  -63.527832 -4.462325e+01  1.675
13194 1  -64.764252 -4.392492e+01  1.675
13195 1  -64.777692 -4.250498e+01  1.675
13196 1  -63.554710 -4.178337e+01  1.675
13197 1  -65.987234 -4.464652e+01  1.675
13198 1  -67.223654 -4.394820e+01  1.675
13199 1  -67.237094 -4.252826e+01  1.675
13200 1  -66.014112 -4.180665e+01  1.675
13201 1  -68.446636 -4.466980e+01  1.675
13202 1  -69.683056 -4.397147e+01  1.675
13203 1  -69.696496 -4.255154e+01  1.675
13204 1  -68.473514 -4.182993e+01  1.675
13205 1  -70.906038 -4.469308e+01  1.675
13206 1  -72.142458 -4.399475e+01  1.675
13207 1  -72.155898 -4.257481e+01  1.675
13208 1  -70.932916 -4.185321e+01  1.675
13209 1  -73.365440 -4.471636e+01  1.675
13210 1  -74.601860 -4.401803e+01  1.675
13211 1  -74.615300 -4.259809e+01  1.675
13212 1  -73.392318 -4.187649e+01  1.675
13213 1  -75.824842 -4.473964e+01  1.675
13214 1  -77.061262 -4.404131e+01  1.675
13215 1  -77.074702 -4.262137e+01  1.675
13216 1  -75.851720 -4.189976e+01  1.675
13217 1  -78.284244 -4.476291e+01  1.675
13218 1  -79.520664 -4.406458e+01  1.675
13219 1  -79.534104 -4.264465e+01  1.675
13220 1  -78.311122 -4.192304e+01  1.675
13221 1  -80.743646 -4.478619e+01  1.675
13222 1  -81.980066 -4.408786e+01  1.675
13223 1  -81.993506 -4.266792e+01  1.675
13224 1  -80.770524 -4.194632e+01  1.675
13225 1  -83.203048 -4.480947e+01  1.675
13226 1  -84.439468 -4.411114e+01  1.675
13227 1  -84.452908 -4.269120e+01  1.675
13228 1  -83.229926 -4.196960e+01  1.675
13229 1  -85.662450 -4.483275e+01  1.675
13230 1  -86.898870 -4.413442e+01  1.675
13231 1  -86.912310 -4.271448e+01  1.675
13232 1  -85.689328 -4.199287e+01  1.675
13233 1  -88.121852 -4.485602e+01  1.675
13234 1  -89.358272 -4.415769e+01  1.675
13235 1  -89.371712 -4.273776e+01  1.675
13236 1  -88.148730 -4.201615e+01  1.675
13237 1  -90.581254 -4.487930e+01  1.675
13238 1  -91.817674 -4.418097e+01  1.675
13239 1  -91.831114 -4.276104e+01  1.675
13240 1  -90.608132 -4.203943e+01  1.675
13241 1  -93.040656 -4.490258e+01  1.675
13242 1  -94.277076 -4.420425e+01  1.675
13243 1  -94.290516 -4.278431e+01  1.675
13244 1  -93.067534 -4.206271e+01  1.675
13245 1  -95.500058 -4.492586e+01  1.675
13246 1  -96.736478 -4.422753e+01  1.675
13247 1  -96.749918 -4.280759e+01  1.675
13248 1  -95.526936 -4.208598e+01  1.675
13249 1  -97.959460 -4.494913e+01  1.675
13250 1  -99.195880 -4.425080e+01  1.675
13251 1  -99.209320 -4.283087e+01  1.675
13252 1  -97.986338 -4.210926e+01  1.675
13253 1 -100.418862 -4.497241e+01  1.675
13254 1 -101.655282 -4.427408e+01  1.675
13255 1 -101.668722 -4.285415e+01  1.675
13256 1 -100.445740 -4.213254e+01  1.675
13257 1 -102.878264 -4.499569e+01  1.675
13258 1 -104.114684 -4.429736e+01  1.675
13259 1 -104.128124 -4.287742e+01  1.675
13260 1 -102.905142 -4.215582e+01  1.675
13261 1 -105.337666 -4.501897e+01  1.675
13262 1 -106.574086 -4.432064e+01  1.675
13263 1 -106.587526 -4.290070e+01  1.675
13264 1 -105.364544 -4.217909e+01  1.675
13265 1 -107.797068 -4.504224e+01  1.675
13266 1 -109.033488 -4.434392e+01  1.675
13267 1 -109.046928 -4.292398e+01  1.675
13268 1 -107.823946 -4.220237e+01  1.675
13269 1 -110.256470 -4.506552e+01  1.675
13270 1 -111.492890 -4.436719e+01  1.675
13271 1 -111.506330 -4.294726e+01  1.675
13272 1 -110.283348 -4.222565e+01  1.675
13273 1  112.272373 -3.798912e+01  1.675
13274 1  112.258933 -3.656918e+01  1.675
13275 1  111.049392 -3.871073e+01  1.675
13276 1  109.812971 -3.801240e+01  1.675
13277 1  109.799531 -3.659246e+01  1.675
13278 1  111.022513 -3.587085e+01  1.675
13279 1  108.589990 -3.873400e+01  1.675
13280 1  107.353569 -3.803567e+01  1.675
13281 1  107.340130 -3.661574e+01  1.675
13282 1  108.563111 -3.589413e+01  1.675
13283 1  106.130588 -3.875728e+01  1.675
13284 1  104.894167 -3.805895e+01  1.675
13285 1  104.880728 -3.663901e+01  1.675
13286 1  106.103709 -3.591741e+01  1.675
13287 1  103.671186 -3.878056e+01  1.675
13288 1  102.434765 -3.808223e+01  1.675
13289 1  102.421326 -3.666229e+01  1.675
13290 1  103.644307 -3.594069e+01  1.675
13291 1  101.211784 -3.880384e+01  1.675
13292 1   99.975363 -3.810551e+01  1.675
13293 1   99.961924 -3.668557e+01  1.675
13294 1  101.184905 -3.596396e+01  1.675
13295 1   98.752382 -3.882711e+01  1.675
13296 1   97.515961 -3.812878e+01  1.675
13297 1   97.502522 -3.670885e+01  1.675
13298 1   98.725503 -3.598724e+01  1.675
13299 1   96.292980 -3.885039e+01  1.675
13300 1   95.056559 -3.815206e+01  1.675
13301 1   95.043120 -3.673213e+01  1.675
13302 1   96.266101 -3.601052e+01  1.675
13303 1   93.833578 -3.887367e+01  1.675
13304 1   92.597157 -3.817534e+01  1.675
13305 1   92.583718 -3.675540e+01  1.675
13306 1   93.806699 -3.603380e+01  1.675
13307 1   91.374176 -3.889695e+01  1.675
13308 1   90.137755 -3.819862e+01  1.675
13309 1   90.124316 -3.677868e+01  1.675
13310 1   91.347297 -3.605707e+01  1.675
13311 1   88.914774 -3.892022e+01  1.675
13312 1   87.678353 -3.822189e+01  1.675
13313 1   87.664914 -3.680196e+01  1.675
13314 1   88.887895 -3.608035e+01  1.675
13315 1   86.455372 -3.894350e+01  1.675
13316 1   85.218951 -3.824517e+01  1.675
13317 1   85.205512 -3.682524e+01  1.675
13318 1   86.428493 -3.610363e+01  1.675
13319 1   83.995970 -3.896678e+01  1.675
13320 1   82.759549 -3.826845e+01  1.675
13321 1   82.746110 -3.684851e+01  1.675
13322 1   83.969091 -3.612691e+01  1.675
13323 1   81.536568 -3.899006e+01  1.675
13324 1   80.300147 -3.829173e+01  1.675
13325 1   80.286708 -3.687179e+01  1.675
13326 1   81.509689 -3.615018e+01  1.675
13327 1   79.077166 -3.901333e+01  1.675
13328 1   77.840745 -3.831501e+01  1.675
13329 1   77.827306 -3.689507e+01  1.675
13330 1   79.050287 -3.617346e+01  1.675
13331 1   76.617764 -3.903661e+01  1.675
13332 1   75.381343 -3.833828e+01  1.675
13333 1   75.367904 -3.691835e+01  1.675
13334 1   76.590885 -3.619674e+01  1.675
13335 1   74.158362 -3.905989e+01  1.675
13336 1   72.921941 -3.836156e+01  1.675
13337 1   72.908502 -3.694162e+01  1.675
13338 1   74.131483 -3.622002e+01  1.675
13339 1   71.698960 -3.908317e+01  1.675
13340 1   70.462539 -3.838484e+01  1.675
13341 1   70.449100 -3.696490e+01  1.675
13342 1   71.672081 -3.624329e+01  1.675
13343 1   69.239558 -3.910645e+01  1.675
13344 1   68.003137 -3.840812e+01  1.675
13345 1   67.989698 -3.698818e+01  1.675
13346 1   69.212679 -3.626657e+01  1.675
13347 1   66.780156 -3.912972e+01  1.675
13348 1   65.543735 -3.843139e+01  1.675
13349 1   65.530296 -3.701146e+01  1.675
13350 1   66.753277 -3.628985e+01  1.675
13351 1   64.320754 -3.915300e+01  1.675
13352 1   63.084333 -3.845467e+01  1.675
13353 1   63.070894 -3.703473e+01  1.675
13354 1   64.293875 -3.631313e+01  1.675
13355 1   61.861352 -3.917628e+01  1.675
13356 1   60.624931 -3.847795e+01  1.675
13357 1   60.611492 -3.705801e+01  1.675
13358 1   61.834473 -3.633641e+01  1.675
13359 1   59.401950 -3.919956e+01  1.675
13360 1   58.165529 -3.850123e+01  1.675
13361 1   58.152090 -3.708129e+01  1.675
13362 1   59.375071 -3.635968e+01  1.675
13363 1   56.942548 -3.922283e+01  1.675
13364 1   55.706127 -3.852450e+01  1.675
13365 1   55.692688 -3.710457e+01  1.675
13366 1   56.915669 -3.638296e+01  1.675
13367 1   54.483146 -3.924611e+01  1.675
13368 1   53.246725 -3.854778e+01  1.675
13369 1   53.233286 -3.712785e+01  1.675
13370 1   54.456267 -3.640624e+01  1.675
13371 1   52.023744 -3.926939e+01  1.675
13372 1   50.787323 -3.857106e+01  1.675
13373 1   50.773884 -3.715112e+01  1.675
13374 1   51.996865 -3.642952e+01  1.675
13375 1   49.564342 -3.929267e+01  1.675
13376 1   48.327921 -3.859434e+01  1.675
13377 1   48.314482 -3.717440e+01  1.675
13378 1   49.537463 -3.645279e+01  1.675
13379 1   47.104940 -3.931594e+01  1.675
13380 1   45.868519 -3.861761e+01  1.675
13381 1   45.855080 -3.719768e+01  1.675
13382 1   47.078061 -3.647607e+01  1.675
13383 1   44.645538 -3.933922e+01  1.675
13384 1   43.409117 -3.864089e+01  1.675
13385 1   43.395678 -3.722096e+01  1.675
13386 1   44.618659 -3.649935e+01  1.675
13387 1   42.186136 -3.936250e+01  1.675
13388 1   40.949715 -3.866417e+01  1.675
13389 1   40.936276 -3.724423e+01  1.675
13390 1   42.159257 -3.652263e+01  1.675
13391 1   39.726734 -3.938578e+01  1.675
13392 1   38.490313 -3.868745e+01  1.675
13393 1   38.476874 -3.726751e+01  1.675
13394 1   39.699855 -3.654590e+01  1.675
13395 1   37.267332 -3.940905e+01  1.675
13396 1   36.030911 -3.871073e+01  1.675
13397 1   36.017472 -3.729079e+01  1.675
13398 1   37.240453 -3.656918e+01  1.675
13399 1   34.807930 -3.943233e+01  1.675
13400 1   33.571509 -3.873400e+01  1.675
13401 1   33.558070 -3.731407e+01  1.675
13402 1   34.781051 -3.659246e+01  1.675
13403 1   32.348528 -3.945561e+01  1.675
13404 1   31.112107 -3.875728e+01  1.675
13405 1   31.098668 -3.733734e+01  1.675
13406 1   32.321649 -3.661574e+01  1.675
13407 1   29.889126 -3.947889e+01  1.675
13408 1   28.652705 -3.878056e+01  1.675
13409 1   28.639266 -3.736062e+01  1.675
13410 1   29.862247 -3.663901e+01  1.675
13411 1   27.429724 -3.950217e+01  1.675
13412 1   26.193303 -3.880384e+01  1.675
13413 1   26.179864 -3.738390e+01  1.675
13414 1   27.402845 -3.666229e+01  1.675
13415 1   24.970322 -3.952544e+01  1.675
13416 1   23.733901 -3.882711e+01  1.675
13417 1   23.720462 -3.740718e+01  1.675
13418 1   24.943443 -3.668557e+01  1.675
13419 1   22.510920 -3.954872e+01  1.675
13420 1   21.274499 -3.885039e+01  1.675
13421 1   21.261060 -3.743045e+01  1.675
13422 1   22.484041 -3.670885e+01  1.675
13423 1   20.051518 -3.957200e+01  1.675
13424 1   18.815097 -3.887367e+01  1.675
13425 1   18.801658 -3.745373e+01  1.675
13426 1   20.024639 -3.673213e+01  1.675
13427 1   17.592116 -3.959528e+01  1.675
13428 1   16.355695 -3.889695e+01  1.675
13429 1   16.342256 -3.747701e+01  1.675
13430 1   17.565237 -3.675540e+01  1.675
13431 1   15.132714 -3.961855e+01  1.675
13432 1   13.896293 -3.892022e+01  1.675
13433 1   13.882854 -3.750029e+01  1.675
13434 1   15.105835 -3.677868e+01  1.675
13435 1   12.673312 -3.964183e+01  1.675
13436 1   11.436891 -3.894350e+01  1.675
13437 1   11.423452 -3.752357e+01  1.675
13438 1   12.646433 -3.680196e+01  1.675
13439 1   10.213910 -3.966511e+01  1.675
13440 1    8.977489 -3.896678e+01  1.675
13441 1    8.964050 -3.754684e+01  1.675
13442 1   10.187031 -3.682524e+01  1.675
13443 1    7.754508 -3.968839e+01  1.675
13444 1    6.518087 -3.899006e+01  1.675
13445 1    6.504648 -3.757012e+01  1.675
13446 1    7.727629 -3.684851e+01  1.675
13447 1    5.295106 -3.971166e+01  1.675
13448 1    4.058685 -3.901333e+01  1.675
13449 1    4.045246 -3.759340e+01  1.675
13450 1    5.268227 -3.687179e+01  1.675
13451 1    2.835704 -3.973494e+01  1.675
13452 1    1.599283 -3.903661e+01  1.675
13453 1    1.585844 -3.761668e+01  1.675
13454 1    2.808825 -3.689507e+01  1.675
13455 1    0.376302 -3.975822e+01  1.675
13456 1   -0.860119 -3.905989e+01  1.675
13457 1   -0.873558 -3.763995e+01  1.675
13458 1    0.349423 -3.691835e+01  1.675
13459 1   -2.083100 -3.978150e+01  1.675
13460 1   -3.319521 -3.908317e+01  1.675
13461 1   -3.332960 -3.766323e+01  1.675
13462 1   -2.109979 -3.694162e+01  1.675
13463 1   -4.542502 -3.980477e+01  1.675
13464 1   -5.778923 -3.910645e+01  1.675
13465 1   -5.792362 -3.768651e+01  1.675
13466 1   -4.569381 -3.696490e+01  1.675
13467 1   -7.001904 -3.982805e+01  1.675
13468 1   -8.238325 -3.912972e+01  1.675
13469 1   -8.251764 -3.770979e+01  1.675
13470 1   -7.028783 -3.698818e+01  1.675
13471 1   -9.461306 -3.985133e+01  1.675
13472 1  -10.697727 -3.915300e+01  1.675
13473 1  -10.711166 -3.773306e+01  1.675
13474 1   -9.488185 -3.701146e+01  1.675
13475 1  -11.920708 -3.987461e+01  1.675
13476 1  -13.157129 -3.917628e+01  1.675
13477 1  -13.170568 -3.775634e+01  1.675
13478 1  -11.947587 -3.703473e+01  1.675
13479 1  -14.380110 -3.989789e+01  1.675
13480 1  -15.616531 -3.919956e+01  1.675
13481 1  -15.629970 -3.777962e+01  1.675
13482 1  -14.406989 -3.705801e+01  1.675
13483 1  -16.839512 -3.992116e+01  1.675
13484 1  -18.075933 -3.922283e+01  1.675
13485 1  -18.089372 -3.780290e+01  1.675
13486 1  -16.866391 -3.708129e+01  1.675
13487 1  -19.298914 -3.994444e+01  1.675
13488 1  -20.535335 -3.924611e+01  1.675
13489 1  -20.548774 -3.782617e+01  1.675
13490 1  -19.325793 -3.710457e+01  1.675
13491 1  -21.758316 -3.996772e+01  1.675
13492 1  -22.994737 -3.926939e+01  1.675
13493 1  -23.008176 -3.784945e+01  1.675
13494 1  -21.785195 -3.712785e+01  1.675
13495 1  -24.217718 -3.999100e+01  1.675
13496 1  -25.454139 -3.929267e+01  1.675
13497 1  -25.467578 -3.787273e+01  1.675
13498 1  -24.244597 -3.715112e+01  1.675
13499 1  -26.677120 -4.001427e+01  1.675
13500 1  -27.913541 -3.931594e+01  1.675
13501 1  -27.926980 -3.789601e+01  1.675
13502 1  -26.703999 -3.717440e+01  1.675
13503 1  -29.136522 -4.003755e+01  1.675
13504 1  -30.372943 -3.933922e+01  1.675
13505 1  -30.386382 -3.791929e+01  1.675
13506 1  -29.163401 -3.719768e+01  1.675
13507 1  -31.595924 -4.006083e+01  1.675
13508 1  -32.832345 -3.936250e+01  1.675
13509 1  -32.845784 -3.794256e+01  1.675
13510 1  -31.622803 -3.722096e+01  1.675
13511 1  -34.055326 -4.008411e+01  1.675
13512 1  -35.291747 -3.938578e+01  1.675
13513 1  -35.305186 -3.796584e+01  1.675
13514 1  -34.082205 -3.724423e+01  1.675
13515 1  -36.514728 -4.010738e+01  1.675
13516 1  -37.751149 -3.940905e+01  1.675
13517 1  -37.764588 -3.798912e+01  1.675
13518 1  -36.541607 -3.726751e+01  1.675
13519 1  -38.974130 -4.013066e+01  1.675
13520 1  -40.210551 -3.943233e+01  1.675
13521 1  -40.223990 -3.801240e+01  1.675
13522 1  -39.001009 -3.729079e+01  1.675
13523 1  -41.433532 -4.015394e+01  1.675
13524 1  -42.669953 -3.945561e+01  1.675
13525 1  -42.683392 -3.803567e+01  1.675
13526 1  -41.460411 -3.731407e+01  1.675
13527 1  -43.892934 -4.017722e+01  1.675
13528 1  -45.129355 -3.947889e+01  1.675
13529 1  -45.142794 -3.805895e+01  1.675
13530 1  -43.919813 -3.733734e+01  1.675
13531 1  -46.352336 -4.020049e+01  1.675
13532 1  -47.588757 -3.950217e+01  1.675
13533 1  -47.602196 -3.808223e+01  1.675
13534 1  -46.379215 -3.736062e+01  1.675
13535 1  -48.811738 -4.022377e+01  1.675
13536 1  -50.048159 -3.952544e+01  1.675
13537 1  -50.061598 -3.810551e+01  1.675
13538 1  -48.838617 -3.738390e+01  1.675
13539 1  -51.271140 -4.024705e+01  1.675
13540 1  -52.507561 -3.954872e+01  1.675
13541 1  -52.521000 -3.812878e+01  1.675
13542 1  -51.298019 -3.740718e+01  1.675
13543 1  -53.730542 -4.027033e+01  1.675
13544 1  -54.966963 -3.957200e+01  1.675
13545 1  -54.980402 -3.815206e+01  1.675
13546 1  -53.757421 -3.743045e+01  1.675
13547 1  -56.189944 -4.029361e+01  1.675
13548 1  -57.426365 -3.959528e+01  1.675
13549 1  -57.439804 -3.817534e+01  1.675
13550 1  -56.216823 -3.745373e+01  1.675
13551 1  -58.649346 -4.031688e+01  1.675
13552 1  -59.885767 -3.961855e+01  1.675
13553 1  -59.899206 -3.819862e+01  1.675
13554 1  -58.676225 -3.747701e+01  1.675
13555 1  -61.108748 -4.034016e+01  1.675
13556 1  -62.345168 -3.964183e+01  1.675
13557 1  -62.358608 -3.822189e+01  1.675
13558 1  -61.135627 -3.750029e+01  1.675
13559 1  -63.568150 -4.036344e+01  1.675
13560 1  -64.804570 -3.966511e+01  1.675
13561 1  -64.818010 -3.824517e+01  1.675
13562 1  -63.595029 -3.752357e+01  1.675
13563 1  -66.027552 -4.038672e+01  1.675
13564 1  -67.263972 -3.968839e+01  1.675
13565 1  -67.277412 -3.826845e+01  1.675
13566 1  -66.054431 -3.754684e+01  1.675
13567 1  -68.486954 -4.040999e+01  1.675
13568 1  -69.723374 -3.971166e+01  1.675
13569 1  -69.736814 -3.829173e+01  1.675
13570 1  -68.513833 -3.757012e+01  1.675
13571 1  -70.946356 -4.043327e+01  1.675
13572 1  -72.182776 -3.973494e+01  1.675
13573 1  -72.196216 -3.831501e+01  1.675
13574 1  -70.973234 -3.759340e+01  1.675
13575 1  -73.405758 -4.045655e+01  1.675
13576 1  -74.642178 -3.975822e+01  1.675
13577 1  -74.655618 -3.833828e+01  1.675
13578 1  -73.432636 -3.761668e+01  1.675
13579 1  -75.865160 -4.047983e+01  1.675
13580 1  -77.101580 -3.978150e+01  1.675
13581 1  -77.115020 -3.836156e+01  1.675
13582 1  -75.892038 -3.763995e+01  1.675
13583 1  -78.324562 -4.050310e+01  1.675
13584 1  -79.560982 -3.980477e+01  1.675
13585 1  -79.574422 -3.838484e+01  1.675
13586 1  -78.351440 -3.766323e+01  1.675
13587 1  -80.783964 -4.052638e+01  1.675
13588 1  -82.020384 -3.982805e+01  1.675
13589 1  -82.033824 -3.840812e+01  1.675
13590 1  -80.810842 -3.768651e+01  1.675
13591 1  -83.243366 -4.054966e+01  1.675
13592 1  -84.479786 -3.985133e+01  1.675
13593 1  -84.493226 -3.843139e+01  1.675
13594 1  -83.270244 -3.770979e+01  1.675
13595 1  -85.702768 -4.057294e+01  1.675
13596 1  -86.939188 -3.987461e+01  1.675
13597 1  -86.952628 -3.845467e+01  1.675
13598 1  -85.729646 -3.773306e+01  1.675
13599 1  -88.162170 -4.059621e+01  1.675
13600 1  -89.398590 -3.989789e+01  1.675
13601 1  -89.412030 -3.847795e+01  1.675
13602 1  -88.189048 -3.775634e+01  1.675
13603 1  -90.621572 -4.061949e+01  1.675
13604 1  -91.857992 -3.992116e+01  1.675
13605 1  -91.871432 -3.850123e+01  1.675
13606 1  -90.648450 -3.777962e+01  1.675
13607 1  -93.080974 -4.064277e+01  1.675
13608 1  -94.317394 -3.994444e+01  1.675
13609 1  -94.330834 -3.852450e+01  1.675
13610 1  -93.107852 -3.780290e+01  1.675
13611 1  -95.540376 -4.066605e+01  1.675
13612 1  -96.776796 -3.996772e+01  1.675
13613 1  -96.790236 -3.854778e+01  1.675
13614 1  -95.567254 -3.782617e+01  1.675
13615 1  -97.999778 -4.068933e+01  1.675
13616 1  -99.236198 -3.999100e+01  1.675
13617 1  -99.249638 -3.857106e+01  1.675
13618 1  -98.026656 -3.784945e+01  1.675
13619 1 -100.459180 -4.071260e+01  1.675
13620 1 -101.695600 -4.001427e+01  1.675
13621 1 -101.709040 -3.859434e+01  1.675
13622 1 -100.486058 -3.787273e+01  1.675
13623 1 -102.918582 -4.073588e+01  1.675
13624 1 -104.155002 -4.003755e+01  1.675
13625 1 -104.168442 -3.861761e+01  1.675
13626 1 -102.945460 -3.789601e+01  1.675
13627 1 -105.377984 -4.075916e+01  1.675
13628 1 -106.614404 -4.006083e+01  1.675
13629 1 -106.627844 -3.864089e+01  1.675
13630 1 -105.404862 -3.791929e+01  1.675
13631 1 -107.837386 -4.078244e+01  1.675
13632 1 -109.073806 -4.008411e+01  1.675
13633 1 -109.087246 -3.866417e+01  1.675
13634 1 -107.864264 -3.794256e+01  1.675
13635 1 -110.296788 -4.080571e+01  1.675
13636 1 -111.533208 -4.010738e+01  1.675
13637 1 -111.546648 -3.868745e+01  1.675
13638 1 -110.323666 -3.796584e+01  1.675
13639 1  112.232055 -3.372931e+01  1.675
13640 1  112.218615 -3.230937e+01  1.675
13641 1  111.009073 -3.445092e+01  1.675
13642 1  109.772653 -3.375259e+01  1.675
13643 1  109.759213 -3.233265e+01  1.675
13644 1  110.982195 -3.161104e+01  1.675
13645 1  108.549671 -3.447419e+01  1.675
13646 1  107.313251 -3.377586e+01  1.675
13647 1  107.299811 -3.235593e+01  1.675
13648 1  108.522793 -3.163432e+01  1.675
13649 1  106.090269 -3.449747e+01  1.675
13650 1  104.853849 -3.379914e+01  1.675
13651 1  104.840409 -3.237921e+01  1.675
13652 1  106.063391 -3.165760e+01  1.675
13653 1  103.630867 -3.452075e+01  1.675
13654 1  102.394447 -3.382242e+01  1.675
13655 1  102.381007 -3.240248e+01  1.675
13656 1  103.603989 -3.168088e+01  1.675
13657 1  101.171465 -3.454403e+01  1.675
13658 1   99.935045 -3.384570e+01  1.675
13659 1   99.921605 -3.242576e+01  1.675
13660 1  101.144587 -3.170415e+01  1.675
13661 1   98.712064 -3.456730e+01  1.675
13662 1   97.475643 -3.386897e+01  1.675
13663 1   97.462203 -3.244904e+01  1.675
13664 1   98.685185 -3.172743e+01  1.675
13665 1   96.252662 -3.459058e+01  1.675
13666 1   95.016241 -3.389225e+01  1.675
13667 1   95.002801 -3.247232e+01  1.675
13668 1   96.225783 -3.175071e+01  1.675
13669 1   93.793260 -3.461386e+01  1.675
13670 1   92.556839 -3.391553e+01  1.675
13671 1   92.543399 -3.249559e+01  1.675
13672 1   93.766381 -3.177399e+01  1.675
13673 1   91.333858 -3.463714e+01  1.675
13674 1   90.097437 -3.393881e+01  1.675
13675 1   90.083998 -3.251887e+01  1.675
13676 1   91.306979 -3.179726e+01  1.675
13677 1   88.874456 -3.466041e+01  1.675
13678 1   87.638035 -3.396209e+01  1.675
13679 1   87.624596 -3.254215e+01  1.675
13680 1   88.847577 -3.182054e+01  1.675
13681 1   86.415054 -3.468369e+01  1.675
13682 1   85.178633 -3.398536e+01  1.675
13683 1   85.165194 -3.256543e+01  1.675
13684 1   86.388175 -3.184382e+01  1.675
13685 1   83.955652 -3.470697e+01  1.675
13686 1   82.719231 -3.400864e+01  1.675
13687 1   82.705792 -3.258870e+01  1.675
13688 1   83.928773 -3.186710e+01  1.675
13689 1   81.496250 -3.473025e+01  1.675
13690 1   80.259829 -3.403192e+01  1.675
13691 1   80.246390 -3.261198e+01  1.675
13692 1   81.469371 -3.189037e+01  1.675
13693 1   79.036848 -3.475353e+01  1.675
13694 1   77.800427 -3.405520e+01  1.675
13695 1   77.786988 -3.263526e+01  1.675
13696 1   79.009969 -3.191365e+01  1.675
13697 1   76.577446 -3.477680e+01  1.675
13698 1   75.341025 -3.407847e+01  1.675
13699 1   75.327586 -3.265854e+01  1.675
13700 1   76.550567 -3.193693e+01  1.675
13701 1   74.118044 -3.480008e+01  1.675
13702 1   72.881623 -3.410175e+01  1.675
13703 1   72.868184 -3.268181e+01  1.675
13704 1   74.091165 -3.196021e+01  1.675
13705 1   71.658642 -3.482336e+01  1.675
13706 1   70.422221 -3.412503e+01  1.675
13707 1   70.408782 -3.270509e+01  1.675
13708 1   71.631763 -3.198349e+01  1.675
13709 1   69.199240 -3.484664e+01  1.675
13710 1   67.962819 -3.414831e+01  1.675
13711 1   67.949380 -3.272837e+01  1.675
13712 1   69.172361 -3.200676e+01  1.675
13713 1   66.739838 -3.486991e+01  1.675
13714 1   65.503417 -3.417158e+01  1.675
13715 1   65.489978 -3.275165e+01  1.675
13716 1   66.712959 -3.203004e+01  1.675
13717 1   64.280436 -3.489319e+01  1.675
13718 1   63.044015 -3.419486e+01  1.675
13719 1   63.030576 -3.277493e+01  1.675
13720 1   64.253557 -3.205332e+01  1.675
13721 1   61.821034 -3.491647e+01  1.675
13722 1   60.584613 -3.421814e+01  1.675
13723 1   60.571174 -3.279820e+01  1.675
13724 1   61.794155 -3.207660e+01  1.675
13725 1   59.361632 -3.493975e+01  1.675
13726 1   58.125211 -3.424142e+01  1.675
13727 1   58.111772 -3.282148e+01  1.675
13728 1   59.334753 -3.209987e+01  1.675
13729 1   56.902230 -3.496302e+01  1.675
13730 1   55.665809 -3.426469e+01  1.675
13731 1   55.652370 -3.284476e+01  1.675
13732 1   56.875351 -3.212315e+01  1.675
13733 1   54.442828 -3.498630e+01  1.675
13734 1   53.206407 -3.428797e+01  1.675
13735 1   53.192968 -3.286804e+01  1.675
13736 1   54.415949 -3.214643e+01  1.675
13737 1   51.983426 -3.500958e+01  1.675
13738 1   50.747005 -3.431125e+01  1.675
13739 1   50.733566 -3.289131e+01  1.675
13740 1   51.956547 -3.216971e+01  1.675
13741 1   49.524024 -3.503286e+01  1.675
13742 1   48.287603 -3.433453e+01  1.675
13743 1   48.274164 -3.291459e+01  1.675
13744 1   49.497145 -3.219298e+01  1.675
13745 1   47.064622 -3.505613e+01  1.675
13746 1   45.828201 -3.435781e+01  1.675
13747 1   45.814762 -3.293787e+01  1.675
13748 1   47.037743 -3.221626e+01  1.675
13749 1   44.605220 -3.507941e+01  1.675
13750 1   43.368799 -3.438108e+01  1.675
13751 1   43.355360 -3.296115e+01  1.675
13752 1   44.578341 -3.223954e+01  1.675
13753 1   42.145818 -3.510269e+01  1.675
13754 1   40.909397 -3.440436e+01  1.675
13755 1   40.895958 -3.298442e+01  1.675
13756 1   42.118939 -3.226282e+01  1.675
13757 1   39.686416 -3.512597e+01  1.675
13758 1   38.449995 -3.442764e+01  1.675
13759 1   38.436556 -3.300770e+01  1.675
13760 1   39.659537 -3.228609e+01  1.675
13761 1   37.227014 -3.514925e+01  1.675
13762 1   35.990593 -3.445092e+01  1.675
13763 1   35.977154 -3.303098e+01  1.675
13764 1   37.200135 -3.230937e+01  1.675
13765 1   34.767612 -3.517252e+01  1.675
13766 1   33.531191 -3.447419e+01  1.675
13767 1   33.517752 -3.305426e+01  1.675
13768 1   34.740733 -3.233265e+01  1.675
13769 1   32.308210 -3.519580e+01  1.675
13770 1   31.071789 -3.449747e+01  1.675
13771 1   31.058350 -3.307753e+01  1.675
13772 1   32.281331 -3.235593e+01  1.675
13773 1   29.848808 -3.521908e+01  1.675
13774 1   28.612387 -3.452075e+01  1.675
13775 1   28.598948 -3.310081e+01  1.675
13776 1   29.821929 -3.237921e+01  1.675
13777 1   27.389406 -3.524236e+01  1.675
13778 1   26.152985 -3.454403e+01  1.675
13779 1   26.139546 -3.312409e+01  1.675
13780 1   27.362527 -3.240248e+01  1.675
13781 1   24.930004 -3.526563e+01  1.675
13782 1   23.693583 -3.456730e+01  1.675
13783 1   23.680144 -3.314737e+01  1.675
13784 1   24.903125 -3.242576e+01  1.675
13785 1   22.470602 -3.528891e+01  1.675
13786 1   21.234181 -3.459058e+01  1.675
13787 1   21.220742 -3.317065e+01  1.675
13788 1   22.443723 -3.244904e+01  1.675
13789 1   20.011200 -3.531219e+01  1.675
13790 1   18.774779 -3.461386e+01  1.675
13791 1   18.761340 -3.319392e+01  1.675
13792 1   19.984321 -3.247232e+01  1.675
13793 1   17.551798 -3.533547e+01  1.675
13794 1   16.315377 -3.463714e+01  1.675
13795 1   16.301938 -3.321720e+01  1.675
13796 1   17.524919 -3.249559e+01  1.675
13797 1   15.092396 -3.535874e+01  1.675
13798 1   13.855975 -3.466041e+01  1.675
13799 1   13.842536 -3.324048e+01  1.675
13800 1   15.065517 -3.251887e+01  1.675
13801 1   12.632994 -3.538202e+01  1.675
13802 1   11.396573 -3.468369e+01  1.675
13803 1   11.383134 -3.326376e+01  1.675
13804 1   12.606115 -3.254215e+01  1.675
13805 1   10.173592 -3.540530e+01  1.675
13806 1    8.937171 -3.470697e+01  1.675
13807 1    8.923732 -3.328703e+01  1.675
13808 1   10.146713 -3.256543e+01  1.675
13809 1    7.714190 -3.542858e+01  1.675
13810 1    6.477769 -3.473025e+01  1.675
13811 1    6.464330 -3.331031e+01  1.675
13812 1    7.687311 -3.258870e+01  1.675
13813 1    5.254788 -3.545185e+01  1.675
13814 1    4.018367 -3.475353e+01  1.675
13815 1    4.004928 -3.333359e+01  1.675
13816 1    5.227909 -3.261198e+01  1.675
13817 1    2.795386 -3.547513e+01  1.675
13818 1    1.558965 -3.477680e+01  1.675
13819 1    1.545526 -3.335687e+01  1.675
13820 1    2.768507 -3.263526e+01  1.675
13821 1    0.335984 -3.549841e+01  1.675
13822 1   -0.900437 -3.480008e+01  1.675
13823 1   -0.913876 -3.338014e+01  1.675
13824 1    0.309105 -3.265854e+01  1.675
13825 1   -2.123418 -3.552169e+01  1.675
13826 1   -3.359839 -3.482336e+01  1.675
13827 1   -3.373278 -3.340342e+01  1.675
13828 1   -2.150297 -3.268181e+01  1.675
13829 1   -4.582820 -3.554497e+01  1.675
13830 1   -5.819241 -3.484664e+01  1.675
13831 1   -5.832680 -3.342670e+01  1.675
13832 1   -4.609699 -3.270509e+01  1.675
13833 1   -7.042222 -3.556824e+01  1.675
13834 1   -8.278643 -3.486991e+01  1.675
13835 1   -8.292082 -3.344998e+01  1.675
13836 1   -7.069101 -3.272837e+01  1.675
13837 1   -9.501624 -3.559152e+01  1.675
13838 1  -10.738045 -3.489319e+01  1.675
13839 1  -10.751484 -3.347325e+01  1.675
13840 1   -9.528503 -3.275165e+01  1.675
13841 1  -11.961026 -3.561480e+01  1.675
13842 1  -13.197447 -3.491647e+01  1.675
13843 1  -13.210886 -3.349653e+01  1.675
13844 1  -11.987905 -3.277493e+01  1.675
13845 1  -14.420428 -3.563808e+01  1.675
13846 1  -15.656849 -3.493975e+01  1.675
13847 1  -15.670288 -3.351981e+01  1.675
13848 1  -14.447307 -3.279820e+01  1.675
13849 1  -16.879830 -3.566135e+01  1.675
13850 1  -18.116251 -3.496302e+01  1.675
13851 1  -18.129690 -3.354309e+01  1.675
13852 1  -16.906709 -3.282148e+01  1.675
13853 1  -19.339232 -3.568463e+01  1.675
13854 1  -20.575653 -3.498630e+01  1.675
13855 1  -20.589092 -3.356637e+01  1.675
13856 1  -19.366111 -3.284476e+01  1.675
13857 1  -21.798634 -3.570791e+01  1.675
13858 1  -23.035055 -3.500958e+01  1.675
13859 1  -23.048494 -3.358964e+01  1.675
13860 1  -21.825513 -3.286804e+01  1.675
13861 1  -24.258036 -3.573119e+01  1.675
13862 1  -25.494457 -3.503286e+01  1.675
13863 1  -25.507896 -3.361292e+01  1.675
13864 1  -24.284915 -3.289131e+01  1.675
13865 1  -26.717438 -3.575446e+01  1.675
13866 1  -27.953859 -3.505613e+01  1.675
13867 1  -27.967298 -3.363620e+01  1.675
13868 1  -26.744317 -3.291459e+01  1.675
13869 1  -29.176840 -3.577774e+01  1.675
13870 1  -30.413261 -3.507941e+01  1.675
13871 1  -30.426700 -3.365948e+01  1.675
13872 1  -29.203719 -3.293787e+01  1.675
13873 1  -31.636242 -3.580102e+01  1.675
13874 1  -32.872663 -3.510269e+01  1.675
13875 1  -32.886102 -3.368275e+01  1.675
13876 1  -31.663121 -3.296115e+01  1.675
13877 1  -34.095644 -3.582430e+01  1.675
13878 1  -35.332065 -3.512597e+01  1.675
13879 1  -35.345504 -3.370603e+01  1.675
13880 1  -34.122523 -3.298442e+01  1.675
13881 1  -36.555046 -3.584757e+01  1.675
13882 1  -37.791467 -3.514925e+01  1.675
13883 1  -37.804906 -3.372931e+01  1.675
13884 1  -36.581925 -3.300770e+01  1.675
13885 1  -39.014448 -3.587085e+01  1.675
13886 1  -40.250869 -3.517252e+01  1.675
13887 1  -40.264308 -3.375259e+01  1.675
13888 1  -39.041327 -3.303098e+01  1.675
13889 1  -41.473850 -3.589413e+01  1.675
13890 1  -42.710271 -3.519580e+01  1.675
13891 1  -42.723710 -3.377586e+01  1.675
13892 1  -41.500729 -3.305426e+01  1.675
13893 1  -43.933252 -3.591741e+01  1.675
13894 1  -45.169673 -3.521908e+01  1.675
13895 1  -45.183112 -3.379914e+01  1.675
13896 1  -43.960131 -3.307753e+01  1.675
13897 1  -46.392654 -3.594069e+01  1.675
13898 1  -47.629075 -3.524236e+01  1.675
13899 1  -47.642514 -3.382242e+01  1.675
13900 1  -46.419533 -3.310081e+01  1.675
13901 1  -48.852056 -3.596396e+01  1.675
13902 1  -50.088477 -3.526563e+01  1.675
13903 1  -50.101916 -3.384570e+01  1.675
13904 1  -48.878935 -3.312409e+01  1.675
13905 1  -51.311458 -3.598724e+01  1.675
13906 1  -52.547879 -3.528891e+01  1.675
13907 1  -52.561318 -3.386897e+01  1.675
13908 1  -51.338337 -3.314737e+01  1.675
13909 1  -53.770860 -3.601052e+01  1.675
13910 1  -55.007281 -3.531219e+01  1.675
13911 1  -55.020720 -3.389225e+01  1.675
13912 1  -53.797739 -3.317065e+01  1.675
13913 1  -56.230262 -3.603380e+01  1.675
13914 1  -57.466683 -3.533547e+01  1.675
13915 1  -57.480122 -3.391553e+01  1.675
13916 1  -56.257141 -3.319392e+01  1.675
13917 1  -58.689664 -3.605707e+01  1.675
13918 1  -59.926085 -3.535874e+01  1.675
13919 1  -59.939524 -3.393881e+01  1.675
13920 1  -58.716543 -3.321720e+01  1.675
13921 1  -61.149066 -3.608035e+01  1.675
13922 1  -62.385487 -3.538202e+01  1.675
13923 1  -62.398926 -3.396209e+01  1.675
13924 1  -61.175945 -3.324048e+01  1.675
13925 1  -63.608468 -3.610363e+01  1.675
13926 1  -64.844889 -3.540530e+01  1.675
13927 1  -64.858328 -3.398536e+01  1.675
13928 1  -63.635347 -3.326376e+01  1.675
13929 1  -66.067870 -3.612691e+01  1.675
13930 1  -67.304291 -3.542858e+01  1.675
13931 1  -67.317730 -3.400864e+01  1.675
13932 1  -66.094749 -3.328703e+01  1.675
13933 1  -68.527272 -3.615018e+01  1.675
13934 1  -69.763693 -3.545185e+01  1.675
13935 1  -69.777132 -3.403192e+01  1.675
13936 1  -68.554151 -3.331031e+01  1.675
13937 1  -70.986674 -3.617346e+01  1.675
13938 1  -72.223095 -3.547513e+01  1.675
13939 1  -72.236534 -3.405520e+01  1.675
13940 1  -71.013553 -3.333359e+01  1.675
13941 1  -73.446076 -3.619674e+01  1.675
13942 1  -74.682497 -3.549841e+01  1.675
13943 1  -74.695936 -3.407847e+01  1.675
13944 1  -73.472955 -3.335687e+01  1.675
13945 1  -75.905478 -3.622002e+01  1.675
13946 1  -77.141899 -3.552169e+01  1.675
13947 1  -77.155338 -3.410175e+01  1.675
13948 1  -75.932357 -3.338014e+01  1.675
13949 1  -78.364880 -3.624329e+01  1.675
13950 1  -79.601300 -3.554497e+01  1.675
13951 1  -79.614740 -3.412503e+01  1.675
13952 1  -78.391759 -3.340342e+01  1.675
13953 1  -80.824282 -3.626657e+01  1.675
13954 1  -82.060702 -3.556824e+01  1.675
13955 1  -82.074142 -3.414831e+01  1.675
13956 1  -80.851161 -3.342670e+01  1.675
13957 1  -83.283684 -3.628985e+01  1.675
13958 1  -84.520104 -3.559152e+01  1.675
13959 1  -84.533544 -3.417158e+01  1.675
13960 1  -83.310563 -3.344998e+01  1.675
13961 1  -85.743086 -3.631313e+01  1.675
13962 1  -86.979506 -3.561480e+01  1.675
13963 1  -86.992946 -3.419486e+01  1.675
13964 1  -85.769965 -3.347325e+01  1.675
13965 1  -88.202488 -3.633641e+01  1.675
13966 1  -89.438908 -3.563808e+01  1.675
13967 1  -89.452348 -3.421814e+01  1.675
13968 1  -88.229366 -3.349653e+01  1.675
13969 1  -90.661890 -3.635968e+01  1.675
13970 1  -91.898310 -3.566135e+01  1.675
13971 1  -91.911750 -3.424142e+01  1.675
13972 1  -90.688768 -3.351981e+01  1.675
13973 1  -93.121292 -3.638296e+01  1.675
13974 1  -94.357712 -3.568463e+01  1.675
13975 1  -94.371152 -3.426469e+01  1.675
13976 1  -93.148170 -3.354309e+01  1.675
13977 1  -95.580694 -3.640624e+01  1.675
13978 1  -96.817114 -3.570791e+01  1.675
13979 1  -96.830554 -3.428797e+01  1.675
13980 1  -95.607572 -3.356637e+01  1.675
13981 1  -98.040096 -3.642952e+01  1.675
13982 1  -99.276516 -3.573119e+01  1.675
13983 1  -99.289956 -3.431125e+01  1.675
13984 1  -98.066974 -3.358964e+01  1.675
13985 1 -100.499498 -3.645279e+01  1.675
13986 1 -101.735918 -3.575446e+01  1.675
13987 1 -101.749358 -3.433453e+01  1.675
13988 1 -100.526376 -3.361292e+01  1.675
13989 1 -102.958900 -3.647607e+01  1.675
13990 1 -104.195320 -3.577774e+01  1.675
13991 1 -104.208760 -3.435781e+01  1.675
13992 1 -102.985778 -3.363620e+01  1.675
13993 1 -105.418302 -3.649935e+01  1.675
13994 1 -106.654722 -3.580102e+01  1.675
13995 1 -106.668162 -3.438108e+01  1.675
13996 1 -105.445180 -3.365948e+01  1.675
13997 1 -107.877704 -3.652263e+01  1.675
13998 1 -109.114124 -3.582430e+01  1.675
13999 1 -109.127564 -3.440436e+01  1.675
14000 1 -107.904582 -3.368275e+01  1.675
14001 1 -110.337106 -3.654590e+01  1.675
14002 1 -111.573526 -3.584757e+01  1.675
14003 1 -111.586966 -3.442764e+01  1.675
14004 1 -110.363984 -3.370603e+01  1.675
14005 1  112.191737 -2.946950e+01  1.675
14006 1  112.178297 -2.804956e+01  1.675
14007 1  110.968755 -3.019111e+01  1.675
14008 1  109.732335 -2.949278e+01  1.675
14009 1  109.718895 -2.807284e+01  1.675
14010 1  110.941877 -2.735123e+01  1.675
14011 1  108.509353 -3.021438e+01  1.675
14012 1  107.272933 -2.951606e+01  1.675
14013 1  107.259493 -2.809612e+01  1.675
14014 1  108.482475 -2.737451e+01  1.675
14015 1  106.049951 -3.023766e+01  1.675
14016 1  104.813531 -2.953933e+01  1.675
14017 1  104.800091 -2.811940e+01  1.675
14018 1  106.023073 -2.739779e+01  1.675
14019 1  103.590549 -3.026094e+01  1.675
14020 1  102.354129 -2.956261e+01  1.675
14021 1  102.340689 -2.814267e+01  1.675
14022 1  103.563671 -2.742107e+01  1.675
14023 1  101.131147 -3.028422e+01  1.675
14024 1   99.894727 -2.958589e+01  1.675
14025 1   99.881287 -2.816595e+01  1.675
14026 1  101.104269 -2.744434e+01  1.675
14027 1   98.671745 -3.030749e+01  1.675
14028 1   97.435325 -2.960917e+01  1.675
14029 1   97.421885 -2.818923e+01  1.675
14030 1   98.644867 -2.746762e+01  1.675
14031 1   96.212343 -3.033077e+01  1.675
14032 1   94.975923 -2.963244e+01  1.675
14033 1   94.962483 -2.821251e+01  1.675
14034 1   96.185465 -2.749090e+01  1.675
14035 1   93.752941 -3.035405e+01  1.675
14036 1   92.516521 -2.965572e+01  1.675
14037 1   92.503081 -2.823578e+01  1.675
14038 1   93.726063 -2.751418e+01  1.675
14039 1   91.293539 -3.037733e+01  1.675
14040 1   90.057119 -2.967900e+01  1.675
14041 1   90.043679 -2.825906e+01  1.675
14042 1   91.266661 -2.753746e+01  1.675
14043 1   88.834137 -3.040061e+01  1.675
14044 1   87.597717 -2.970228e+01  1.675
14045 1   87.584277 -2.828234e+01  1.675
14046 1   88.807259 -2.756073e+01  1.675
14047 1   86.374735 -3.042388e+01  1.675
14048 1   85.138315 -2.972555e+01  1.675
14049 1   85.124875 -2.830562e+01  1.675
14050 1   86.347857 -2.758401e+01  1.675
14051 1   83.915333 -3.044716e+01  1.675
14052 1   82.678913 -2.974883e+01  1.675
14053 1   82.665473 -2.832890e+01  1.675
14054 1   83.888455 -2.760729e+01  1.675
14055 1   81.455932 -3.047044e+01  1.675
14056 1   80.219511 -2.977211e+01  1.675
14057 1   80.206071 -2.835217e+01  1.675
14058 1   81.429053 -2.763057e+01  1.675
14059 1   78.996530 -3.049372e+01  1.675
14060 1   77.760109 -2.979539e+01  1.675
14061 1   77.746669 -2.837545e+01  1.675
14062 1   78.969651 -2.765384e+01  1.675
14063 1   76.537128 -3.051699e+01  1.675
14064 1   75.300707 -2.981866e+01  1.675
14065 1   75.287267 -2.839873e+01  1.675
14066 1   76.510249 -2.767712e+01  1.675
14067 1   74.077726 -3.054027e+01  1.675
14068 1   72.841305 -2.984194e+01  1.675
14069 1   72.827866 -2.842201e+01  1.675
14070 1   74.050847 -2.770040e+01  1.675
14071 1   71.618324 -3.056355e+01  1.675
14072 1   70.381903 -2.986522e+01  1.675
14073 1   70.368464 -2.844528e+01  1.675
14074 1   71.591445 -2.772368e+01  1.675
14075 1   69.158922 -3.058683e+01  1.675
14076 1   67.922501 -2.988850e+01  1.675
14077 1   67.909062 -2.846856e+01  1.675
14078 1   69.132043 -2.774695e+01  1.675
14079 1   66.699520 -3.061010e+01  1.675
14080 1   65.463099 -2.991178e+01  1.675
14081 1   65.449660 -2.849184e+01  1.675
14082 1   66.672641 -2.777023e+01  1.675
14083 1   64.240118 -3.063338e+01  1.675
14084 1   63.003697 -2.993505e+01  1.675
14085 1   62.990258 -2.851512e+01  1.675
14086 1   64.213239 -2.779351e+01  1.675
14087 1   61.780716 -3.065666e+01  1.675
14088 1   60.544295 -2.995833e+01  1.675
14089 1   60.530856 -2.853839e+01  1.675
14090 1   61.753837 -2.781679e+01  1.675
14091 1   59.321314 -3.067994e+01  1.675
14092 1   58.084893 -2.998161e+01  1.675
14093 1   58.071454 -2.856167e+01  1.675
14094 1   59.294435 -2.784006e+01  1.675
14095 1   56.861912 -3.070321e+01  1.675
14096 1   55.625491 -3.000489e+01  1.675
14097 1   55.612052 -2.858495e+01  1.675
14098 1   56.835033 -2.786334e+01  1.675
14099 1   54.402510 -3.072649e+01  1.675
14100 1   53.166089 -3.002816e+01  1.675
14101 1   53.152650 -2.860823e+01  1.675
14102 1   54.375631 -2.788662e+01  1.675
14103 1   51.943108 -3.074977e+01  1.675
14104 1   50.706687 -3.005144e+01  1.675
14105 1   50.693248 -2.863150e+01  1.675
14106 1   51.916229 -2.790990e+01  1.675
14107 1   49.483706 -3.077305e+01  1.675
14108 1   48.247285 -3.007472e+01  1.675
14109 1   48.233846 -2.865478e+01  1.675
14110 1   49.456827 -2.793318e+01  1.675
14111 1   47.024304 -3.079633e+01  1.675
14112 1   45.787883 -3.009800e+01  1.675
14113 1   45.774444 -2.867806e+01  1.675
14114 1   46.997425 -2.795645e+01  1.675
14115 1   44.564902 -3.081960e+01  1.675
14116 1   43.328481 -3.012127e+01  1.675
14117 1   43.315042 -2.870134e+01  1.675
14118 1   44.538023 -2.797973e+01  1.675
14119 1   42.105500 -3.084288e+01  1.675
14120 1   40.869079 -3.014455e+01  1.675
14121 1   40.855640 -2.872462e+01  1.675
14122 1   42.078621 -2.800301e+01  1.675
14123 1   39.646098 -3.086616e+01  1.675
14124 1   38.409677 -3.016783e+01  1.675
14125 1   38.396238 -2.874789e+01  1.675
14126 1   39.619219 -2.802629e+01  1.675
14127 1   37.186696 -3.088944e+01  1.675
14128 1   35.950275 -3.019111e+01  1.675
14129 1   35.936836 -2.877117e+01  1.675
14130 1   37.159817 -2.804956e+01  1.675
14131 1   34.727294 -3.091271e+01  1.675
14132 1   33.490873 -3.021438e+01  1.675
14133 1   33.477434 -2.879445e+01  1.675
14134 1   34.700415 -2.807284e+01  1.675
14135 1   32.267892 -3.093599e+01  1.675
14136 1   31.031471 -3.023766e+01  1.675
14137 1   31.018032 -2.881773e+01  1.675
14138 1   32.241013 -2.809612e+01  1.675
14139 1   29.808490 -3.095927e+01  1.675
14140 1   28.572069 -3.026094e+01  1.675
14141 1   28.558630 -2.884100e+01  1.675
14142 1   29.781611 -2.811940e+01  1.675
14143 1   27.349088 -3.098255e+01  1.675
14144 1   26.112667 -3.028422e+01  1.675
14145 1   26.099228 -2.886428e+01  1.675
14146 1   27.322209 -2.814267e+01  1.675
14147 1   24.889686 -3.100582e+01  1.675
14148 1   23.653265 -3.030749e+01  1.675
14149 1   23.639826 -2.888756e+01  1.675
14150 1   24.862807 -2.816595e+01  1.675
14151 1   22.430284 -3.102910e+01  1.675
14152 1   21.193863 -3.033077e+01  1.675
14153 1   21.180424 -2.891084e+01  1.675
14154 1   22.403405 -2.818923e+01  1.675
14155 1   19.970882 -3.105238e+01  1.675
14156 1   18.734461 -3.035405e+01  1.675
14157 1   18.721022 -2.893411e+01  1.675
14158 1   19.944003 -2.821251e+01  1.675
14159 1   17.511480 -3.107566e+01  1.675
14160 1   16.275059 -3.037733e+01  1.675
14161 1   16.261620 -2.895739e+01  1.675
14162 1   17.484601 -2.823578e+01  1.675
14163 1   15.052078 -3.109893e+01  1.675
14164 1   13.815657 -3.040061e+01  1.675
14165 1   13.802218 -2.898067e+01  1.675
14166 1   15.025199 -2.825906e+01  1.675
14167 1   12.592676 -3.112221e+01  1.675
14168 1   11.356255 -3.042388e+01  1.675
14169 1   11.342816 -2.900395e+01  1.675
14170 1   12.565797 -2.828234e+01  1.675
14171 1   10.133274 -3.114549e+01  1.675
14172 1    8.896853 -3.044716e+01  1.675
14173 1    8.883414 -2.902722e+01  1.675
14174 1   10.106395 -2.830562e+01  1.675
14175 1    7.673872 -3.116877e+01  1.675
14176 1    6.437451 -3.047044e+01  1.675
14177 1    6.424012 -2.905050e+01  1.675
14178 1    7.646993 -2.832890e+01  1.675
14179 1    5.214470 -3.119205e+01  1.675
14180 1    3.978049 -3.049372e+01  1.675
14181 1    3.964610 -2.907378e+01  1.675
14182 1    5.187591 -2.835217e+01  1.675
14183 1    2.755068 -3.121532e+01  1.675
14184 1    1.518647 -3.051699e+01  1.675
14185 1    1.505208 -2.909706e+01  1.675
14186 1    2.728189 -2.837545e+01  1.675
14187 1    0.295666 -3.123860e+01  1.675
14188 1   -0.940755 -3.054027e+01  1.675
14189 1   -0.954194 -2.912034e+01  1.675
14190 1    0.268787 -2.839873e+01  1.675
14191 1   -2.163736 -3.126188e+01  1.675
14192 1   -3.400157 -3.056355e+01  1.675
14193 1   -3.413596 -2.914361e+01  1.675
14194 1   -2.190615 -2.842201e+01  1.675
14195 1   -4.623138 -3.128516e+01  1.675
14196 1   -5.859559 -3.058683e+01  1.675
14197 1   -5.872998 -2.916689e+01  1.675
14198 1   -4.650017 -2.844528e+01  1.675
14199 1   -7.082540 -3.130843e+01  1.675
14200 1   -8.318961 -3.061010e+01  1.675
14201 1   -8.332400 -2.919017e+01  1.675
14202 1   -7.109419 -2.846856e+01  1.675
14203 1   -9.541942 -3.133171e+01  1.675
14204 1  -10.778363 -3.063338e+01  1.675
14205 1  -10.791802 -2.921345e+01  1.675
14206 1   -9.568821 -2.849184e+01  1.675
14207 1  -12.001344 -3.135499e+01  1.675
14208 1  -13.237765 -3.065666e+01  1.675
14209 1  -13.251204 -2.923672e+01  1.675
14210 1  -12.028223 -2.851512e+01  1.675
14211 1  -14.460746 -3.137827e+01  1.675
14212 1  -15.697167 -3.067994e+01  1.675
14213 1  -15.710606 -2.926000e+01  1.675
14214 1  -14.487625 -2.853839e+01  1.675
14215 1  -16.920148 -3.140154e+01  1.675
14216 1  -18.156569 -3.070321e+01  1.675
14217 1  -18.170008 -2.928328e+01  1.675
14218 1  -16.947027 -2.856167e+01  1.675
14219 1  -19.379550 -3.142482e+01  1.675
14220 1  -20.615971 -3.072649e+01  1.675
14221 1  -20.629410 -2.930656e+01  1.675
14222 1  -19.406429 -2.858495e+01  1.675
14223 1  -21.838952 -3.144810e+01  1.675
14224 1  -23.075373 -3.074977e+01  1.675
14225 1  -23.088812 -2.932983e+01  1.675
14226 1  -21.865831 -2.860823e+01  1.675
14227 1  -24.298354 -3.147138e+01  1.675
14228 1  -25.534775 -3.077305e+01  1.675
14229 1  -25.548214 -2.935311e+01  1.675
14230 1  -24.325233 -2.863150e+01  1.675
14231 1  -26.757756 -3.149465e+01  1.675
14232 1  -27.994177 -3.079633e+01  1.675
14233 1  -28.007616 -2.937639e+01  1.675
14234 1  -26.784635 -2.865478e+01  1.675
14235 1  -29.217158 -3.151793e+01  1.675
14236 1  -30.453579 -3.081960e+01  1.675
14237 1  -30.467018 -2.939967e+01  1.675
14238 1  -29.244037 -2.867806e+01  1.675
14239 1  -31.676560 -3.154121e+01  1.675
14240 1  -32.912981 -3.084288e+01  1.675
14241 1  -32.926420 -2.942294e+01  1.675
14242 1  -31.703439 -2.870134e+01  1.675
14243 1  -34.135962 -3.156449e+01  1.675
14244 1  -35.372383 -3.086616e+01  1.675
14245 1  -35.385822 -2.944622e+01  1.675
14246 1  -34.162841 -2.872462e+01  1.675
14247 1  -36.595364 -3.158777e+01  1.675
14248 1  -37.831785 -3.088944e+01  1.675
14249 1  -37.845224 -2.946950e+01  1.675
14250 1  -36.622243 -2.874789e+01  1.675
14251 1  -39.054766 -3.161104e+01  1.675
14252 1  -40.291187 -3.091271e+01  1.675
14253 1  -40.304626 -2.949278e+01  1.675
14254 1  -39.081645 -2.877117e+01  1.675
14255 1  -41.514168 -3.163432e+01  1.675
14256 1  -42.750589 -3.093599e+01  1.675
14257 1  -42.764028 -2.951606e+01  1.675
14258 1  -41.541047 -2.879445e+01  1.675
14259 1  -43.973570 -3.165760e+01  1.675
14260 1  -45.209991 -3.095927e+01  1.675
14261 1  -45.223430 -2.953933e+01  1.675
14262 1  -44.000449 -2.881773e+01  1.675
14263 1  -46.432972 -3.168088e+01  1.675
14264 1  -47.669393 -3.098255e+01  1.675
14265 1  -47.682832 -2.956261e+01  1.675
14266 1  -46.459851 -2.884100e+01  1.675
14267 1  -48.892374 -3.170415e+01  1.675
14268 1  -50.128795 -3.100582e+01  1.675
14269 1  -50.142234 -2.958589e+01  1.675
14270 1  -48.919253 -2.886428e+01  1.675
14271 1  -51.351776 -3.172743e+01  1.675
14272 1  -52.588197 -3.102910e+01  1.675
14273 1  -52.601636 -2.960917e+01  1.675
14274 1  -51.378655 -2.888756e+01  1.675
14275 1  -53.811178 -3.175071e+01  1.675
14276 1  -55.047599 -3.105238e+01  1.675
14277 1  -55.061038 -2.963244e+01  1.675
14278 1  -53.838057 -2.891084e+01  1.675
14279 1  -56.270580 -3.177399e+01  1.675
14280 1  -57.507001 -3.107566e+01  1.675
14281 1  -57.520440 -2.965572e+01  1.675
14282 1  -56.297459 -2.893411e+01  1.675
14283 1  -58.729982 -3.179726e+01  1.675
14284 1  -59.966403 -3.109893e+01  1.675
14285 1  -59.979842 -2.967900e+01  1.675
14286 1  -58.756861 -2.895739e+01  1.675
14287 1  -61.189384 -3.182054e+01  1.675
14288 1  -62.425805 -3.112221e+01  1.675
14289 1  -62.439244 -2.970228e+01  1.675
14290 1  -61.216263 -2.898067e+01  1.675
14291 1  -63.648786 -3.184382e+01  1.675
14292 1  -64.885207 -3.114549e+01  1.675
14293 1  -64.898646 -2.972555e+01  1.675
14294 1  -63.675665 -2.900395e+01  1.675
14295 1  -66.108188 -3.186710e+01  1.675
14296 1  -67.344609 -3.116877e+01  1.675
14297 1  -67.358048 -2.974883e+01  1.675
14298 1  -66.135067 -2.902722e+01  1.675
14299 1  -68.567590 -3.189037e+01  1.675
14300 1  -69.804011 -3.119205e+01  1.675
14301 1  -69.817450 -2.977211e+01  1.675
14302 1  -68.594469 -2.905050e+01  1.675
14303 1  -71.026992 -3.191365e+01  1.675
14304 1  -72.263413 -3.121532e+01  1.675
14305 1  -72.276852 -2.979539e+01  1.675
14306 1  -71.053871 -2.907378e+01  1.675
14307 1  -73.486394 -3.193693e+01  1.675
14308 1  -74.722815 -3.123860e+01  1.675
14309 1  -74.736254 -2.981866e+01  1.675
14310 1  -73.513273 -2.909706e+01  1.675
14311 1  -75.945796 -3.196021e+01  1.675
14312 1  -77.182217 -3.126188e+01  1.675
14313 1  -77.195656 -2.984194e+01  1.675
14314 1  -75.972675 -2.912034e+01  1.675
14315 1  -78.405198 -3.198349e+01  1.675
14316 1  -79.641619 -3.128516e+01  1.675
14317 1  -79.655058 -2.986522e+01  1.675
14318 1  -78.432077 -2.914361e+01  1.675
14319 1  -80.864600 -3.200676e+01  1.675
14320 1  -82.101021 -3.130843e+01  1.675
14321 1  -82.114460 -2.988850e+01  1.675
14322 1  -80.891479 -2.916689e+01  1.675
14323 1  -83.324002 -3.203004e+01  1.675
14324 1  -84.560423 -3.133171e+01  1.675
14325 1  -84.573862 -2.991178e+01  1.675
14326 1  -83.350881 -2.919017e+01  1.675
14327 1  -85.783404 -3.205332e+01  1.675
14328 1  -87.019825 -3.135499e+01  1.675
14329 1  -87.033264 -2.993505e+01  1.675
14330 1  -85.810283 -2.921345e+01  1.675
14331 1  -88.242806 -3.207660e+01  1.675
14332 1  -89.479227 -3.137827e+01  1.675
14333 1  -89.492666 -2.995833e+01  1.675
14334 1  -88.269685 -2.923672e+01  1.675
14335 1  -90.702208 -3.209987e+01  1.675
14336 1  -91.938629 -3.140154e+01  1.675
14337 1  -91.952068 -2.998161e+01  1.675
14338 1  -90.729087 -2.926000e+01  1.675
14339 1  -93.161610 -3.212315e+01  1.675
14340 1  -94.398031 -3.142482e+01  1.675
14341 1  -94.411470 -3.000489e+01  1.675
14342 1  -93.188489 -2.928328e+01  1.675
14343 1  -95.621012 -3.214643e+01  1.675
14344 1  -96.857432 -3.144810e+01  1.675
14345 1  -96.870872 -3.002816e+01  1.675
14346 1  -95.647891 -2.930656e+01  1.675
14347 1  -98.080414 -3.216971e+01  1.675
14348 1  -99.316834 -3.147138e+01  1.675
14349 1  -99.330274 -3.005144e+01  1.675
14350 1  -98.107293 -2.932983e+01  1.675
14351 1 -100.539816 -3.219298e+01  1.675
14352 1 -101.776236 -3.149465e+01  1.675
14353 1 -101.789676 -3.007472e+01  1.675
14354 1 -100.566695 -2.935311e+01  1.675
14355 1 -102.999218 -3.221626e+01  1.675
14356 1 -104.235638 -3.151793e+01  1.675
14357 1 -104.249078 -3.009800e+01  1.675
14358 1 -103.026097 -2.937639e+01  1.675
14359 1 -105.458620 -3.223954e+01  1.675
14360 1 -106.695040 -3.154121e+01  1.675
14361 1 -106.708480 -3.012127e+01  1.675
14362 1 -105.485498 -2.939967e+01  1.675
14363 1 -107.918022 -3.226282e+01  1.675
14364 1 -109.154442 -3.156449e+01  1.675
14365 1 -109.167882 -3.014455e+01  1.675
14366 1 -107.944900 -2.942294e+01  1.675
14367 1 -110.377424 -3.228609e+01  1.675
14368 1 -111.613844 -3.158777e+01  1.675
14369 1 -111.627284 -3.016783e+01  1.675
14370 1 -110.404302 -2.944622e+01  1.675
14371 1  112.151419 -2.520969e+01  1.675
14372 1  112.137979 -2.378975e+01  1.675
14373 1  110.928437 -2.593130e+01  1.675
14374 1  109.692017 -2.523297e+01  1.675
14375 1  109.678577 -2.381303e+01  1.675
14376 1  110.901559 -2.309142e+01  1.675
14377 1  108.469035 -2.595458e+01  1.675
14378 1  107.232615 -2.525625e+01  1.675
14379 1  107.219175 -2.383631e+01  1.675
14380 1  108.442157 -2.311470e+01  1.675
14381 1  106.009633 -2.597785e+01  1.675
14382 1  104.773213 -2.527952e+01  1.675
14383 1  104.759773 -2.385959e+01  1.675
14384 1  105.982755 -2.313798e+01  1.675
14385 1  103.550231 -2.600113e+01  1.675
14386 1  102.313811 -2.530280e+01  1.675
14387 1  102.300371 -2.388286e+01  1.675
14388 1  103.523353 -2.316126e+01  1.675
14389 1  101.090829 -2.602441e+01  1.675
14390 1   99.854409 -2.532608e+01  1.675
14391 1   99.840969 -2.390614e+01  1.675
14392 1  101.063951 -2.318454e+01  1.675
14393 1   98.631427 -2.604769e+01  1.675
14394 1   97.395007 -2.534936e+01  1.675
14395 1   97.381567 -2.392942e+01  1.675
14396 1   98.604549 -2.320781e+01  1.675
14397 1   96.172025 -2.607096e+01  1.675
14398 1   94.935605 -2.537263e+01  1.675
14399 1   94.922165 -2.395270e+01  1.675
14400 1   96.145147 -2.323109e+01  1.675
14401 1   93.712623 -2.609424e+01  1.675
14402 1   92.476203 -2.539591e+01  1.675
14403 1   92.462763 -2.397598e+01  1.675
14404 1   93.685745 -2.325437e+01  1.675
14405 1   91.253221 -2.611752e+01  1.675
14406 1   90.016801 -2.541919e+01  1.675
14407 1   90.003361 -2.399925e+01  1.675
14408 1   91.226343 -2.327765e+01  1.675
14409 1   88.793819 -2.614080e+01  1.675
14410 1   87.557399 -2.544247e+01  1.675
14411 1   87.543959 -2.402253e+01  1.675
14412 1   88.766941 -2.330092e+01  1.675
14413 1   86.334417 -2.616407e+01  1.675
14414 1   85.097997 -2.546574e+01  1.675
14415 1   85.084557 -2.404581e+01  1.675
14416 1   86.307539 -2.332420e+01  1.675
14417 1   83.875015 -2.618735e+01  1.675
14418 1   82.638595 -2.548902e+01  1.675
14419 1   82.625155 -2.406909e+01  1.675
14420 1   83.848137 -2.334748e+01  1.675
14421 1   81.415613 -2.621063e+01  1.675
14422 1   80.179193 -2.551230e+01  1.675
14423 1   80.165753 -2.409236e+01  1.675
14424 1   81.388735 -2.337076e+01  1.675
14425 1   78.956211 -2.623391e+01  1.675
14426 1   77.719791 -2.553558e+01  1.675
14427 1   77.706351 -2.411564e+01  1.675
14428 1   78.929333 -2.339403e+01  1.675
14429 1   76.496809 -2.625718e+01  1.675
14430 1   75.260389 -2.555886e+01  1.675
14431 1   75.246949 -2.413892e+01  1.675
14432 1   76.469931 -2.341731e+01  1.675
14433 1   74.037407 -2.628046e+01  1.675
14434 1   72.800987 -2.558213e+01  1.675
14435 1   72.787547 -2.416220e+01  1.675
14436 1   74.010529 -2.344059e+01  1.675
14437 1   71.578005 -2.630374e+01  1.675
14438 1   70.341585 -2.560541e+01  1.675
14439 1   70.328145 -2.418547e+01  1.675
14440 1   71.551127 -2.346387e+01  1.675
14441 1   69.118603 -2.632702e+01  1.675
14442 1   67.882183 -2.562869e+01  1.675
14443 1   67.868743 -2.420875e+01  1.675
14444 1   69.091725 -2.348714e+01  1.675
14445 1   66.659201 -2.635030e+01  1.675
14446 1   65.422781 -2.565197e+01  1.675
14447 1   65.409341 -2.423203e+01  1.675
14448 1   66.632323 -2.351042e+01  1.675
14449 1   64.199800 -2.637357e+01  1.675
14450 1   62.963379 -2.567524e+01  1.675
14451 1   62.949939 -2.425531e+01  1.675
14452 1   64.172921 -2.353370e+01  1.675
14453 1   61.740398 -2.639685e+01  1.675
14454 1   60.503977 -2.569852e+01  1.675
14455 1   60.490537 -2.427858e+01  1.675
14456 1   61.713519 -2.355698e+01  1.675
14457 1   59.280996 -2.642013e+01  1.675
14458 1   58.044575 -2.572180e+01  1.675
14459 1   58.031135 -2.430186e+01  1.675
14460 1   59.254117 -2.358026e+01  1.675
14461 1   56.821594 -2.644341e+01  1.675
14462 1   55.585173 -2.574508e+01  1.675
14463 1   55.571734 -2.432514e+01  1.675
14464 1   56.794715 -2.360353e+01  1.675
14465 1   54.362192 -2.646668e+01  1.675
14466 1   53.125771 -2.576835e+01  1.675
14467 1   53.112332 -2.434842e+01  1.675
14468 1   54.335313 -2.362681e+01  1.675
14469 1   51.902790 -2.648996e+01  1.675
14470 1   50.666369 -2.579163e+01  1.675
14471 1   50.652930 -2.437170e+01  1.675
14472 1   51.875911 -2.365009e+01  1.675
14473 1   49.443388 -2.651324e+01  1.675
14474 1   48.206967 -2.581491e+01  1.675
14475 1   48.193528 -2.439497e+01  1.675
14476 1   49.416509 -2.367337e+01  1.675
14477 1   46.983986 -2.653652e+01  1.675
14478 1   45.747565 -2.583819e+01  1.675
14479 1   45.734126 -2.441825e+01  1.675
14480 1   46.957107 -2.369664e+01  1.675
14481 1   44.524584 -2.655979e+01  1.675
14482 1   43.288163 -2.586146e+01  1.675
14483 1   43.274724 -2.444153e+01  1.675
14484 1   44.497705 -2.371992e+01  1.675
14485 1   42.065182 -2.658307e+01  1.675
14486 1   40.828761 -2.588474e+01  1.675
14487 1   40.815322 -2.446481e+01  1.675
14488 1   42.038303 -2.374320e+01  1.675
14489 1   39.605780 -2.660635e+01  1.675
14490 1   38.369359 -2.590802e+01  1.675
14491 1   38.355920 -2.448808e+01  1.675
14492 1   39.578901 -2.376648e+01  1.675
14493 1   37.146378 -2.662963e+01  1.675
14494 1   35.909957 -2.593130e+01  1.675
14495 1   35.896518 -2.451136e+01  1.675
14496 1   37.119499 -2.378975e+01  1.675
14497 1   34.686976 -2.665290e+01  1.675
14498 1   33.450555 -2.595458e+01  1.675
14499 1   33.437116 -2.453464e+01  1.675
14500 1   34.660097 -2.381303e+01  1.675
14501 1   32.227574 -2.667618e+01  1.675
14502 1   30.991153 -2.597785e+01  1.675
14503 1   30.977714 -2.455792e+01  1.675
14504 1   32.200695 -2.383631e+01  1.675
14505 1   29.768172 -2.669946e+01  1.675
14506 1   28.531751 -2.600113e+01  1.675
14507 1   28.518312 -2.458119e+01  1.675
14508 1   29.741293 -2.385959e+01  1.675
14509 1   27.308770 -2.672274e+01  1.675
14510 1   26.072349 -2.602441e+01  1.675
14511 1   26.058910 -2.460447e+01  1.675
14512 1   27.281891 -2.388286e+01  1.675
14513 1   24.849368 -2.674602e+01  1.675
14514 1   23.612947 -2.604769e+01  1.675
14515 1   23.599508 -2.462775e+01  1.675
14516 1   24.822489 -2.390614e+01  1.675
14517 1   22.389966 -2.676929e+01  1.675
14518 1   21.153545 -2.607096e+01  1.675
14519 1   21.140106 -2.465103e+01  1.675
14520 1   22.363087 -2.392942e+01  1.675
14521 1   19.930564 -2.679257e+01  1.675
14522 1   18.694143 -2.609424e+01  1.675
14523 1   18.680704 -2.467430e+01  1.675
14524 1   19.903685 -2.395270e+01  1.675
14525 1   17.471162 -2.681585e+01  1.675
14526 1   16.234741 -2.611752e+01  1.675
14527 1   16.221302 -2.469758e+01  1.675
14528 1   17.444283 -2.397598e+01  1.675
14529 1   15.011760 -2.683913e+01  1.675
14530 1   13.775339 -2.614080e+01  1.675
14531 1   13.761900 -2.472086e+01  1.675
14532 1   14.984881 -2.399925e+01  1.675
14533 1   12.552358 -2.686240e+01  1.675
14534 1   11.315937 -2.616407e+01  1.675
14535 1   11.302498 -2.474414e+01  1.675
14536 1   12.525479 -2.402253e+01  1.675
14537 1   10.092956 -2.688568e+01  1.675
14538 1    8.856535 -2.618735e+01  1.675
14539 1    8.843096 -2.476742e+01  1.675
14540 1   10.066077 -2.404581e+01  1.675
14541 1    7.633554 -2.690896e+01  1.675
14542 1    6.397133 -2.621063e+01  1.675
14543 1    6.383694 -2.479069e+01  1.675
14544 1    7.606675 -2.406909e+01  1.675
14545 1    5.174152 -2.693224e+01  1.675
14546 1    3.937731 -2.623391e+01  1.675
14547 1    3.924292 -2.481397e+01  1.675
14548 1    5.147273 -2.409236e+01  1.675
14549 1    2.714750 -2.695551e+01  1.675
14550 1    1.478329 -2.625718e+01  1.675
14551 1    1.464890 -2.483725e+01  1.675
14552 1    2.687871 -2.411564e+01  1.675
14553 1    0.255348 -2.697879e+01  1.675
14554 1   -0.981073 -2.628046e+01  1.675
14555 1   -0.994512 -2.486053e+01  1.675
14556 1    0.228469 -2.413892e+01  1.675
14557 1   -2.204054 -2.700207e+01  1.675
14558 1   -3.440475 -2.630374e+01  1.675
14559 1   -3.453914 -2.488380e+01  1.675
14560 1   -2.230933 -2.416220e+01  1.675
14561 1   -4.663456 -2.702535e+01  1.675
14562 1   -5.899877 -2.632702e+01  1.675
14563 1   -5.913316 -2.490708e+01  1.675
14564 1   -4.690335 -2.418547e+01  1.675
14565 1   -7.122858 -2.704862e+01  1.675
14566 1   -8.359279 -2.635030e+01  1.675
14567 1   -8.372718 -2.493036e+01  1.675
14568 1   -7.149737 -2.420875e+01  1.675
14569 1   -9.582260 -2.707190e+01  1.675
14570 1  -10.818681 -2.637357e+01  1.675
14571 1  -10.832120 -2.495364e+01  1.675
14572 1   -9.609139 -2.423203e+01  1.675
14573 1  -12.041662 -2.709518e+01  1.675
14574 1  -13.278083 -2.639685e+01  1.675
14575 1  -13.291522 -2.497691e+01  1.675
14576 1  -12.068541 -2.425531e+01  1.675
14577 1  -14.501064 -2.711846e+01  1.675
14578 1  -15.737485 -2.642013e+01  1.675
14579 1  -15.750924 -2.500019e+01  1.675
14580 1  -14.527943 -2.427858e+01  1.675
14581 1  -16.960466 -2.714174e+01  1.675
14582 1  -18.196887 -2.644341e+01  1.675
14583 1  -18.210326 -2.502347e+01  1.675
14584 1  -16.987345 -2.430186e+01  1.675
14585 1  -19.419868 -2.716501e+01  1.675
14586 1  -20.656289 -2.646668e+01  1.675
14587 1  -20.669728 -2.504675e+01  1.675
14588 1  -19.446747 -2.432514e+01  1.675
14589 1  -21.879270 -2.718829e+01  1.675
14590 1  -23.115691 -2.648996e+01  1.675
14591 1  -23.129130 -2.507002e+01  1.675
14592 1  -21.906149 -2.434842e+01  1.675
14593 1  -24.338672 -2.721157e+01  1.675
14594 1  -25.575093 -2.651324e+01  1.675
14595 1  -25.588532 -2.509330e+01  1.675
14596 1  -24.365551 -2.437170e+01  1.675
14597 1  -26.798074 -2.723485e+01  1.675
14598 1  -28.034495 -2.653652e+01  1.675
14599 1  -28.047934 -2.511658e+01  1.675
14600 1  -26.824953 -2.439497e+01  1.675
14601 1  -29.257476 -2.725812e+01  1.675
14602 1  -30.493897 -2.655979e+01  1.675
14603 1  -30.507336 -2.513986e+01  1.675
14604 1  -29.284355 -2.441825e+01  1.675
14605 1  -31.716878 -2.728140e+01  1.675
14606 1  -32.953299 -2.658307e+01  1.675
14607 1  -32.966738 -2.516314e+01  1.675
14608 1  -31.743757 -2.444153e+01  1.675
14609 1  -34.176280 -2.730468e+01  1.675
14610 1  -35.412701 -2.660635e+01  1.675
14611 1  -35.426140 -2.518641e+01  1.675
14612 1  -34.203159 -2.446481e+01  1.675
14613 1  -36.635682 -2.732796e+01  1.675
14614 1  -37.872103 -2.662963e+01  1.675
14615 1  -37.885542 -2.520969e+01  1.675
14616 1  -36.662561 -2.448808e+01  1.675
14617 1  -39.095084 -2.735123e+01  1.675
14618 1  -40.331505 -2.665290e+01  1.675
14619 1  -40.344944 -2.523297e+01  1.675
14620 1  -39.121963 -2.451136e+01  1.675
14621 1  -41.554486 -2.737451e+01  1.675
14622 1  -42.790907 -2.667618e+01  1.675
14623 1  -42.804346 -2.525625e+01  1.675
14624 1  -41.581365 -2.453464e+01  1.675
14625 1  -44.013888 -2.739779e+01  1.675
14626 1  -45.250309 -2.669946e+01  1.675
14627 1  -45.263748 -2.527952e+01  1.675
14628 1  -44.040767 -2.455792e+01  1.675
14629 1  -46.473290 -2.742107e+01  1.675
14630 1  -47.709711 -2.672274e+01  1.675
14631 1  -47.723150 -2.530280e+01  1.675
14632 1  -46.500169 -2.458119e+01  1.675
14633 1  -48.932692 -2.744434e+01  1.675
14634 1  -50.169113 -2.674602e+01  1.675
14635 1  -50.182552 -2.532608e+01  1.675
14636 1  -48.959571 -2.460447e+01  1.675
14637 1  -51.392094 -2.746762e+01  1.675
14638 1  -52.628515 -2.676929e+01  1.675
14639 1  -52.641954 -2.534936e+01  1.675
14640 1  -51.418973 -2.462775e+01  1.675
14641 1  -53.851496 -2.749090e+01  1.675
14642 1  -55.087917 -2.679257e+01  1.675
14643 1  -55.101356 -2.537263e+01  1.675
14644 1  -53.878375 -2.465103e+01  1.675
14645 1  -56.310898 -2.751418e+01  1.675
14646 1  -57.547319 -2.681585e+01  1.675
14647 1  -57.560758 -2.539591e+01  1.675
14648 1  -56.337777 -2.467430e+01  1.675
14649 1  -58.770300 -2.753746e+01  1.675
14650 1  -60.006721 -2.683913e+01  1.675
14651 1  -60.020160 -2.541919e+01  1.675
14652 1  -58.797179 -2.469758e+01  1.675
14653 1  -61.229702 -2.756073e+01  1.675
14654 1  -62.466123 -2.686240e+01  1.675
14655 1  -62.479562 -2.544247e+01  1.675
14656 1  -61.256581 -2.472086e+01  1.675
14657 1  -63.689104 -2.758401e+01  1.675
14658 1  -64.925525 -2.688568e+01  1.675
14659 1  -64.938964 -2.546574e+01  1.675
14660 1  -63.715983 -2.474414e+01  1.675
14661 1  -66.148506 -2.760729e+01  1.675
14662 1  -67.384927 -2.690896e+01  1.675
14663 1  -67.398366 -2.548902e+01  1.675
14664 1  -66.175385 -2.476742e+01  1.675
14665 1  -68.607908 -2.763057e+01  1.675
14666 1  -69.844329 -2.693224e+01  1.675
14667 1  -69.857768 -2.551230e+01  1.675
14668 1  -68.634787 -2.479069e+01  1.675
14669 1  -71.067310 -2.765384e+01  1.675
14670 1  -72.303731 -2.695551e+01  1.675
14671 1  -72.317170 -2.553558e+01  1.675
14672 1  -71.094189 -2.481397e+01  1.675
14673 1  -73.526712 -2.767712e+01  1.675
14674 1  -74.763133 -2.697879e+01  1.675
14675 1  -74.776572 -2.555886e+01  1.675
14676 1  -73.553591 -2.483725e+01  1.675
14677 1  -75.986114 -2.770040e+01  1.675
14678 1  -77.222535 -2.700207e+01  1.675
14679 1  -77.235974 -2.558213e+01  1.675
14680 1  -76.012993 -2.486053e+01  1.675
14681 1  -78.445516 -2.772368e+01  1.675
14682 1  -79.681937 -2.702535e+01  1.675
14683 1  -79.695376 -2.560541e+01  1.675
14684 1  -78.472395 -2.488380e+01  1.675
14685 1  -80.904918 -2.774695e+01  1.675
14686 1  -82.141339 -2.704862e+01  1.675
14687 1  -82.154778 -2.562869e+01  1.675
14688 1  -80.931797 -2.490708e+01  1.675
14689 1  -83.364320 -2.777023e+01  1.675
14690 1  -84.600741 -2.707190e+01  1.675
14691 1  -84.614180 -2.565197e+01  1.675
14692 1  -83.391199 -2.493036e+01  1.675
14693 1  -85.823722 -2.779351e+01  1.675
14694 1  -87.060143 -2.709518e+01  1.675
14695 1  -87.073582 -2.567524e+01  1.675
14696 1  -85.850601 -2.495364e+01  1.675
14697 1  -88.283124 -2.781679e+01  1.675
14698 1  -89.519545 -2.711846e+01  1.675
14699 1  -89.532984 -2.569852e+01  1.675
14700 1  -88.310003 -2.497691e+01  1.675
14701 1  -90.742526 -2.784006e+01  1.675
14702 1  -91.978947 -2.714174e+01  1.675
14703 1  -91.992386 -2.572180e+01  1.675
14704 1  -90.769405 -2.500019e+01  1.675
14705 1  -93.201928 -2.786334e+01  1.675
14706 1  -94.438349 -2.716501e+01  1.675
14707 1  -94.451788 -2.574508e+01  1.675
14708 1  -93.228807 -2.502347e+01  1.675
14709 1  -95.661330 -2.788662e+01  1.675
14710 1  -96.897751 -2.718829e+01  1.675
14711 1  -96.911190 -2.576835e+01  1.675
14712 1  -95.688209 -2.504675e+01  1.675
14713 1  -98.120732 -2.790990e+01  1.675
14714 1  -99.357153 -2.721157e+01  1.675
14715 1  -99.370592 -2.579163e+01  1.675
14716 1  -98.147611 -2.507002e+01  1.675
14717 1 -100.580134 -2.793318e+01  1.675
14718 1 -101.816555 -2.723485e+01  1.675
14719 1 -101.829994 -2.581491e+01  1.675
14720 1 -100.607013 -2.509330e+01  1.675
14721 1 -103.039536 -2.795645e+01  1.675
14722 1 -104.275957 -2.725812e+01  1.675
14723 1 -104.289396 -2.583819e+01  1.675
14724 1 -103.066415 -2.511658e+01  1.675
14725 1 -105.498938 -2.797973e+01  1.675
14726 1 -106.735359 -2.728140e+01  1.675
14727 1 -106.748798 -2.586146e+01  1.675
14728 1 -105.525817 -2.513986e+01  1.675
14729 1 -107.958340 -2.800301e+01  1.675
14730 1 -109.194761 -2.730468e+01  1.675
14731 1 -109.208200 -2.588474e+01  1.675
14732 1 -107.985219 -2.516314e+01  1.675
14733 1 -110.417742 -2.802629e+01  1.675
14734 1 -111.654163 -2.732796e+01  1.675
14735 1 -111.667602 -2.590802e+01  1.675
14736 1 -110.444621 -2.518641e+01  1.675
14737 1  112.111101 -2.094988e+01  1.675
14738 1  112.097661 -1.952994e+01  1.675
14739 1  110.888119 -2.167149e+01  1.675
14740 1  109.651699 -2.097316e+01  1.675
14741 1  109.638259 -1.955322e+01  1.675
14742 1  110.861241 -1.883162e+01  1.675
14743 1  108.428717 -2.169477e+01  1.675
14744 1  107.192297 -2.099644e+01  1.675
14745 1  107.178857 -1.957650e+01  1.675
14746 1  108.401839 -1.885489e+01  1.675
14747 1  105.969315 -2.171804e+01  1.675
14748 1  104.732895 -2.101971e+01  1.675
14749 1  104.719455 -1.959978e+01  1.675
14750 1  105.942437 -1.887817e+01  1.675
14751 1  103.509913 -2.174132e+01  1.675
14752 1  102.273493 -2.104299e+01  1.675
14753 1  102.260053 -1.962306e+01  1.675
14754 1  103.483035 -1.890145e+01  1.675
14755 1  101.050511 -2.176460e+01  1.675
14756 1   99.814091 -2.106627e+01  1.675
14757 1   99.800651 -1.964633e+01  1.675
14758 1  101.023633 -1.892473e+01  1.675
14759 1   98.591109 -2.178788e+01  1.675
14760 1   97.354689 -2.108955e+01  1.675
14761 1   97.341249 -1.966961e+01  1.675
14762 1   98.564231 -1.894800e+01  1.675
14763 1   96.131707 -2.181115e+01  1.675
14764 1   94.895287 -2.111282e+01  1.675
14765 1   94.881847 -1.969289e+01  1.675
14766 1   96.104829 -1.897128e+01  1.675
14767 1   93.672305 -2.183443e+01  1.675
14768 1   92.435885 -2.113610e+01  1.675
14769 1   92.422445 -1.971617e+01  1.675
14770 1   93.645427 -1.899456e+01  1.675
14771 1   91.212903 -2.185771e+01  1.675
14772 1   89.976483 -2.115938e+01  1.675
14773 1   89.963043 -1.973944e+01  1.675
14774 1   91.186025 -1.901784e+01  1.675
14775 1   88.753501 -2.188099e+01  1.675
14776 1   87.517081 -2.118266e+01  1.675
14777 1   87.503641 -1.976272e+01  1.675
14778 1   88.726623 -1.904111e+01  1.675
14779 1   86.294099 -2.190426e+01  1.675
14780 1   85.057679 -2.120594e+01  1.675
14781 1   85.044239 -1.978600e+01  1.675
14782 1   86.267221 -1.906439e+01  1.675
14783 1   83.834697 -2.192754e+01  1.675
14784 1   82.598277 -2.122921e+01  1.675
14785 1   82.584837 -1.980928e+01  1.675
14786 1   83.807819 -1.908767e+01  1.675
14787 1   81.375295 -2.195082e+01  1.675
14788 1   80.138875 -2.125249e+01  1.675
14789 1   80.125435 -1.983255e+01  1.675
14790 1   81.348417 -1.911095e+01  1.675
14791 1   78.915893 -2.197410e+01  1.675
14792 1   77.679473 -2.127577e+01  1.675
14793 1   77.666033 -1.985583e+01  1.675
14794 1   78.889015 -1.913422e+01  1.675
14795 1   76.456491 -2.199738e+01  1.675
14796 1   75.220071 -2.129905e+01  1.675
14797 1   75.206631 -1.987911e+01  1.675
14798 1   76.429613 -1.915750e+01  1.675
14799 1   73.997089 -2.202065e+01  1.675
14800 1   72.760669 -2.132232e+01  1.675
14801 1   72.747229 -1.990239e+01  1.675
14802 1   73.970211 -1.918078e+01  1.675
14803 1   71.537687 -2.204393e+01  1.675
14804 1   70.301267 -2.134560e+01  1.675
14805 1   70.287827 -1.992566e+01  1.675
14806 1   71.510809 -1.920406e+01  1.675
14807 1   69.078285 -2.206721e+01  1.675
14808 1   67.841865 -2.136888e+01  1.675
14809 1   67.828425 -1.994894e+01  1.675
14810 1   69.051407 -1.922734e+01  1.675
14811 1   66.618883 -2.209049e+01  1.675
14812 1   65.382463 -2.139216e+01  1.675
14813 1   65.369023 -1.997222e+01  1.675
14814 1   66.592005 -1.925061e+01  1.675
14815 1   64.159481 -2.211376e+01  1.675
14816 1   62.923061 -2.141543e+01  1.675
14817 1   62.909621 -1.999550e+01  1.675
14818 1   64.132603 -1.927389e+01  1.675
14819 1   61.700079 -2.213704e+01  1.675
14820 1   60.463659 -2.143871e+01  1.675
14821 1   60.450219 -2.001878e+01  1.675
14822 1   61.673201 -1.929717e+01  1.675
14823 1   59.240677 -2.216032e+01  1.675
14824 1   58.004257 -2.146199e+01  1.675
14825 1   57.990817 -2.004205e+01  1.675
14826 1   59.213799 -1.932045e+01  1.675
14827 1   56.781275 -2.218360e+01  1.675
14828 1   55.544855 -2.148527e+01  1.675
14829 1   55.531415 -2.006533e+01  1.675
14830 1   56.754397 -1.934372e+01  1.675
14831 1   54.321873 -2.220687e+01  1.675
14832 1   53.085453 -2.150854e+01  1.675
14833 1   53.072013 -2.008861e+01  1.675
14834 1   54.294995 -1.936700e+01  1.675
14835 1   51.862471 -2.223015e+01  1.675
14836 1   50.626051 -2.153182e+01  1.675
14837 1   50.612611 -2.011189e+01  1.675
14838 1   51.835593 -1.939028e+01  1.675
14839 1   49.403069 -2.225343e+01  1.675
14840 1   48.166649 -2.155510e+01  1.675
14841 1   48.153209 -2.013516e+01  1.675
14842 1   49.376191 -1.941356e+01  1.675
14843 1   46.943668 -2.227671e+01  1.675
14844 1   45.707247 -2.157838e+01  1.675
14845 1   45.693807 -2.015844e+01  1.675
14846 1   46.916789 -1.943683e+01  1.675
14847 1   44.484266 -2.229998e+01  1.675
14848 1   43.247845 -2.160166e+01  1.675
14849 1   43.234405 -2.018172e+01  1.675
14850 1   44.457387 -1.946011e+01  1.675
14851 1   42.024864 -2.232326e+01  1.675
14852 1   40.788443 -2.162493e+01  1.675
14853 1   40.775003 -2.020500e+01  1.675
14854 1   41.997985 -1.948339e+01  1.675
14855 1   39.565462 -2.234654e+01  1.675
14856 1   38.329041 -2.164821e+01  1.675
14857 1   38.315602 -2.022827e+01  1.675
14858 1   39.538583 -1.950667e+01  1.675
14859 1   37.106060 -2.236982e+01  1.675
14860 1   35.869639 -2.167149e+01  1.675
14861 1   35.856200 -2.025155e+01  1.675
14862 1   37.079181 -1.952994e+01  1.675
14863 1   34.646658 -2.239310e+01  1.675
14864 1   33.410237 -2.169477e+01  1.675
14865 1   33.396798 -2.027483e+01  1.675
14866 1   34.619779 -1.955322e+01  1.675
14867 1   32.187256 -2.241637e+01  1.675
14868 1   30.950835 -2.171804e+01  1.675
14869 1   30.937396 -2.029811e+01  1.675
14870 1   32.160377 -1.957650e+01  1.675
14871 1   29.727854 -2.243965e+01  1.675
14872 1   28.491433 -2.174132e+01  1.675
14873 1   28.477994 -2.032138e+01  1.675
14874 1   29.700975 -1.959978e+01  1.675
14875 1   27.268452 -2.246293e+01  1.675
14876 1   26.032031 -2.176460e+01  1.675
14877 1   26.018592 -2.034466e+01  1.675
14878 1   27.241573 -1.962306e+01  1.675
14879 1   24.809050 -2.248621e+01  1.675
14880 1   23.572629 -2.178788e+01  1.675
14881 1   23.559190 -2.036794e+01  1.675
14882 1   24.782171 -1.964633e+01  1.675
14883 1   22.349648 -2.250948e+01  1.675
14884 1   21.113227 -2.181115e+01  1.675
14885 1   21.099788 -2.039122e+01  1.675
14886 1   22.322769 -1.966961e+01  1.675
14887 1   19.890246 -2.253276e+01  1.675
14888 1   18.653825 -2.183443e+01  1.675
14889 1   18.640386 -2.041450e+01  1.675
14890 1   19.863367 -1.969289e+01  1.675
14891 1   17.430844 -2.255604e+01  1.675
14892 1   16.194423 -2.185771e+01  1.675
14893 1   16.180984 -2.043777e+01  1.675
14894 1   17.403965 -1.971617e+01  1.675
14895 1   14.971442 -2.257932e+01  1.675
14896 1   13.735021 -2.188099e+01  1.675
14897 1   13.721582 -2.046105e+01  1.675
14898 1   14.944563 -1.973944e+01  1.675
14899 1   12.512040 -2.260259e+01  1.675
14900 1   11.275619 -2.190426e+01  1.675
14901 1   11.262180 -2.048433e+01  1.675
14902 1   12.485161 -1.976272e+01  1.675
14903 1   10.052638 -2.262587e+01  1.675
14904 1    8.816217 -2.192754e+01  1.675
14905 1    8.802778 -2.050761e+01  1.675
14906 1   10.025759 -1.978600e+01  1.675
14907 1    7.593236 -2.264915e+01  1.675
14908 1    6.356815 -2.195082e+01  1.675
14909 1    6.343376 -2.053088e+01  1.675
14910 1    7.566357 -1.980928e+01  1.675
14911 1    5.133834 -2.267243e+01  1.675
14912 1    3.897413 -2.197410e+01  1.675
14913 1    3.883974 -2.055416e+01  1.675
14914 1    5.106955 -1.983255e+01  1.675
14915 1    2.674432 -2.269570e+01  1.675
14916 1    1.438011 -2.199738e+01  1.675
14917 1    1.424572 -2.057744e+01  1.675
14918 1    2.647553 -1.985583e+01  1.675
14919 1    0.215030 -2.271898e+01  1.675
14920 1   -1.021391 -2.202065e+01  1.675
14921 1   -1.034830 -2.060072e+01  1.675
14922 1    0.188151 -1.987911e+01  1.675
14923 1   -2.244372 -2.274226e+01  1.675
14924 1   -3.480793 -2.204393e+01  1.675
14925 1   -3.494232 -2.062399e+01  1.675
14926 1   -2.271251 -1.990239e+01  1.675
14927 1   -4.703774 -2.276554e+01  1.675
14928 1   -5.940195 -2.206721e+01  1.675
14929 1   -5.953634 -2.064727e+01  1.675
14930 1   -4.730653 -1.992566e+01  1.675
14931 1   -7.163176 -2.278882e+01  1.675
14932 1   -8.399597 -2.209049e+01  1.675
14933 1   -8.413036 -2.067055e+01  1.675
14934 1   -7.190055 -1.994894e+01  1.675
14935 1   -9.622578 -2.281209e+01  1.675
14936 1  -10.858999 -2.211376e+01  1.675
14937 1  -10.872438 -2.069383e+01  1.675
14938 1   -9.649457 -1.997222e+01  1.675
14939 1  -12.081980 -2.283537e+01  1.675
14940 1  -13.318401 -2.213704e+01  1.675
14941 1  -13.331840 -2.071710e+01  1.675
14942 1  -12.108859 -1.999550e+01  1.675
14943 1  -14.541382 -2.285865e+01  1.675
14944 1  -15.777803 -2.216032e+01  1.675
14945 1  -15.791242 -2.074038e+01  1.675
14946 1  -14.568261 -2.001878e+01  1.675
14947 1  -17.000784 -2.288193e+01  1.675
14948 1  -18.237205 -2.218360e+01  1.675
14949 1  -18.250644 -2.076366e+01  1.675
14950 1  -17.027663 -2.004205e+01  1.675
14951 1  -19.460186 -2.290520e+01  1.675
14952 1  -20.696607 -2.220687e+01  1.675
14953 1  -20.710046 -2.078694e+01  1.675
14954 1  -19.487065 -2.006533e+01  1.675
14955 1  -21.919588 -2.292848e+01  1.675
14956 1  -23.156009 -2.223015e+01  1.675
14957 1  -23.169448 -2.081022e+01  1.675
14958 1  -21.946467 -2.008861e+01  1.675
14959 1  -24.378990 -2.295176e+01  1.675
14960 1  -25.615411 -2.225343e+01  1.675
14961 1  -25.628850 -2.083349e+01  1.675
14962 1  -24.405869 -2.011189e+01  1.675
14963 1  -26.838392 -2.297504e+01  1.675
14964 1  -28.074813 -2.227671e+01  1.675
14965 1  -28.088252 -2.085677e+01  1.675
14966 1  -26.865271 -2.013516e+01  1.675
14967 1  -29.297794 -2.299831e+01  1.675
14968 1  -30.534215 -2.229998e+01  1.675
14969 1  -30.547654 -2.088005e+01  1.675
14970 1  -29.324673 -2.015844e+01  1.675
14971 1  -31.757196 -2.302159e+01  1.675
14972 1  -32.993617 -2.232326e+01  1.675
14973 1  -33.007056 -2.090333e+01  1.675
14974 1  -31.784075 -2.018172e+01  1.675
14975 1  -34.216598 -2.304487e+01  1.675
14976 1  -35.453019 -2.234654e+01  1.675
14977 1  -35.466458 -2.092660e+01  1.675
14978 1  -34.243477 -2.020500e+01  1.675
14979 1  -36.676000 -2.306815e+01  1.675
14980 1  -37.912421 -2.236982e+01  1.675
14981 1  -37.925860 -2.094988e+01  1.675
14982 1  -36.702879 -2.022827e+01  1.675
14983 1  -39.135402 -2.309142e+01  1.675
14984 1  -40.371823 -2.239310e+01  1.675
14985 1  -40.385262 -2.097316e+01  1.675
14986 1  -39.162281 -2.025155e+01  1.675
14987 1  -41.594804 -2.311470e+01  1.675
14988 1  -42.831225 -2.241637e+01  1.675
14989 1  -42.844664 -2.099644e+01  1.675
14990 1  -41.621683 -2.027483e+01  1.675
14991 1  -44.054206 -2.313798e+01  1.675
14992 1  -45.290627 -2.243965e+01  1.675
14993 1  -45.304066 -2.101971e+01  1.675
14994 1  -44.081085 -2.029811e+01  1.675
14995 1  -46.513608 -2.316126e+01  1.675
14996 1  -47.750029 -2.246293e+01  1.675
14997 1  -47.763468 -2.104299e+01  1.675
14998 1  -46.540487 -2.032138e+01  1.675
14999 1  -48.973010 -2.318454e+01  1.675
15000 1  -50.209431 -2.248621e+01  1.675
15001 1  -50.222870 -2.106627e+01  1.675
15002 1  -48.999889 -2.034466e+01  1.675
15003 1  -51.432412 -2.320781e+01  1.675
15004 1  -52.668833 -2.250948e+01  1.675
15005 1  -52.682272 -2.108955e+01  1.675
15006 1  -51.459291 -2.036794e+01  1.675
15007 1  -53.891814 -2.323109e+01  1.675
15008 1  -55.128235 -2.253276e+01  1.675
15009 1  -55.141674 -2.111282e+01  1.675
15010 1  -53.918693 -2.039122e+01  1.675
15011 1  -56.351216 -2.325437e+01  1.675
15012 1  -57.587637 -2.255604e+01  1.675
15013 1  -57.601076 -2.113610e+01  1.675
15014 1  -56.378095 -2.041450e+01  1.675
15015 1  -58.810618 -2.327765e+01  1.675
15016 1  -60.047039 -2.257932e+01  1.675
15017 1  -60.060478 -2.115938e+01  1.675
15018 1  -58.837497 -2.043777e+01  1.675
15019 1  -61.270020 -2.330092e+01  1.675
15020 1  -62.506441 -2.260259e+01  1.675
15021 1  -62.519880 -2.118266e+01  1.675
15022 1  -61.296899 -2.046105e+01  1.675
15023 1  -63.729422 -2.332420e+01  1.675
15024 1  -64.965843 -2.262587e+01  1.675
15025 1  -64.979282 -2.120594e+01  1.675
15026 1  -63.756301 -2.048433e+01  1.675
15027 1  -66.188824 -2.334748e+01  1.675
15028 1  -67.425245 -2.264915e+01  1.675
15029 1  -67.438684 -2.122921e+01  1.675
15030 1  -66.215703 -2.050761e+01  1.675
15031 1  -68.648226 -2.337076e+01  1.675
15032 1  -69.884647 -2.267243e+01  1.675
15033 1  -69.898086 -2.125249e+01  1.675
15034 1  -68.675105 -2.053088e+01  1.675
15035 1  -71.107628 -2.339403e+01  1.675
15036 1  -72.344049 -2.269570e+01  1.675
15037 1  -72.357488 -2.127577e+01  1.675
15038 1  -71.134507 -2.055416e+01  1.675
15039 1  -73.567030 -2.341731e+01  1.675
15040 1  -74.803451 -2.271898e+01  1.675
15041 1  -74.816890 -2.129905e+01  1.675
15042 1  -73.593909 -2.057744e+01  1.675
15043 1  -76.026432 -2.344059e+01  1.675
15044 1  -77.262853 -2.274226e+01  1.675
15045 1  -77.276292 -2.132232e+01  1.675
15046 1  -76.053311 -2.060072e+01  1.675
15047 1  -78.485834 -2.346387e+01  1.675
15048 1  -79.722255 -2.276554e+01  1.675
15049 1  -79.735694 -2.134560e+01  1.675
15050 1  -78.512713 -2.062399e+01  1.675
15051 1  -80.945236 -2.348714e+01  1.675
15052 1  -82.181657 -2.278882e+01  1.675
15053 1  -82.195096 -2.136888e+01  1.675
15054 1  -80.972115 -2.064727e+01  1.675
15055 1  -83.404638 -2.351042e+01  1.675
15056 1  -84.641059 -2.281209e+01  1.675
15057 1  -84.654498 -2.139216e+01  1.675
15058 1  -83.431517 -2.067055e+01  1.675
15059 1  -85.864040 -2.353370e+01  1.675
15060 1  -87.100461 -2.283537e+01  1.675
15061 1  -87.113900 -2.141543e+01  1.675
15062 1  -85.890919 -2.069383e+01  1.675
15063 1  -88.323442 -2.355698e+01  1.675
15064 1  -89.559863 -2.285865e+01  1.675
15065 1  -89.573302 -2.143871e+01  1.675
15066 1  -88.350321 -2.071710e+01  1.675
15067 1  -90.782844 -2.358026e+01  1.675
15068 1  -92.019265 -2.288193e+01  1.675
15069 1  -92.032704 -2.146199e+01  1.675
15070 1  -90.809723 -2.074038e+01  1.675
15071 1  -93.242246 -2.360353e+01  1.675
15072 1  -94.478667 -2.290520e+01  1.675
15073 1  -94.492106 -2.148527e+01  1.675
15074 1  -93.269125 -2.076366e+01  1.675
15075 1  -95.701648 -2.362681e+01  1.675
15076 1  -96.938069 -2.292848e+01  1.675
15077 1  -96.951508 -2.150854e+01  1.675
15078 1  -95.728527 -2.078694e+01  1.675
15079 1  -98.161050 -2.365009e+01  1.675
15080 1  -99.397471 -2.295176e+01  1.675
15081 1  -99.410910 -2.153182e+01  1.675
15082 1  -98.187929 -2.081022e+01  1.675
15083 1 -100.620452 -2.367337e+01  1.675
15084 1 -101.856873 -2.297504e+01  1.675
15085 1 -101.870312 -2.155510e+01  1.675
15086 1 -100.647331 -2.083349e+01  1.675
15087 1 -103.079854 -2.369664e+01  1.675
15088 1 -104.316275 -2.299831e+01  1.675
15089 1 -104.329714 -2.157838e+01  1.675
15090 1 -103.106733 -2.085677e+01  1.675
15091 1 -105.539256 -2.371992e+01  1.675
15092 1 -106.775677 -2.302159e+01  1.675
15093 1 -106.789116 -2.160166e+01  1.675
15094 1 -105.566135 -2.088005e+01  1.675
15095 1 -107.998658 -2.374320e+01  1.675
15096 1 -109.235079 -2.304487e+01  1.675
15097 1 -109.248518 -2.162493e+01  1.675
15098 1 -108.025537 -2.090333e+01  1.675
15099 1 -110.458060 -2.376648e+01  1.675
15100 1 -111.694481 -2.306815e+01  1.675
15101 1 -111.707920 -2.164821e+01  1.675
15102 1 -110.484939 -2.092660e+01  1.675
15103 1  112.070783 -1.669007e+01  1.675
15104 1  112.057343 -1.527014e+01  1.675
15105 1  110.847801 -1.741168e+01  1.675
15106 1  109.611381 -1.671335e+01  1.675
15107 1  109.597941 -1.529341e+01  1.675
15108 1  110.820922 -1.457181e+01  1.675
15109 1  108.388399 -1.743496e+01  1.675
15110 1  107.151979 -1.673663e+01  1.675
15111 1  107.138539 -1.531669e+01  1.675
15112 1  108.361520 -1.459508e+01  1.675
15113 1  105.928997 -1.745823e+01  1.675
15114 1  104.692577 -1.675991e+01  1.675
15115 1  104.679137 -1.533997e+01  1.675
15116 1  105.902119 -1.461836e+01  1.675
15117 1  103.469595 -1.748151e+01  1.675
15118 1  102.233175 -1.678318e+01  1.675
15119 1  102.219735 -1.536325e+01  1.675
15120 1  103.442717 -1.464164e+01  1.675
15121 1  101.010193 -1.750479e+01  1.675
15122 1   99.773773 -1.680646e+01  1.675
15123 1   99.760333 -1.538652e+01  1.675
15124 1  100.983315 -1.466492e+01  1.675
15125 1   98.550791 -1.752807e+01  1.675
15126 1   97.314371 -1.682974e+01  1.675
15127 1   97.300931 -1.540980e+01  1.675
15128 1   98.523913 -1.468819e+01  1.675
15129 1   96.091389 -1.755135e+01  1.675
15130 1   94.854969 -1.685302e+01  1.675
15131 1   94.841529 -1.543308e+01  1.675
15132 1   96.064511 -1.471147e+01  1.675
15133 1   93.631987 -1.757462e+01  1.675
15134 1   92.395567 -1.687629e+01  1.675
15135 1   92.382127 -1.545636e+01  1.675
15136 1   93.605109 -1.473475e+01  1.675
15137 1   91.172585 -1.759790e+01  1.675
15138 1   89.936165 -1.689957e+01  1.675
15139 1   89.922725 -1.547963e+01  1.675
15140 1   91.145707 -1.475803e+01  1.675
15141 1   88.713183 -1.762118e+01  1.675
15142 1   87.476763 -1.692285e+01  1.675
15143 1   87.463323 -1.550291e+01  1.675
15144 1   88.686305 -1.478131e+01  1.675
15145 1   86.253781 -1.764446e+01  1.675
15146 1   85.017361 -1.694613e+01  1.675
15147 1   85.003921 -1.552619e+01  1.675
15148 1   86.226903 -1.480458e+01  1.675
15149 1   83.794379 -1.766773e+01  1.675
15150 1   82.557959 -1.696940e+01  1.675
15151 1   82.544519 -1.554947e+01  1.675
15152 1   83.767501 -1.482786e+01  1.675
15153 1   81.334977 -1.769101e+01  1.675
15154 1   80.098557 -1.699268e+01  1.675
15155 1   80.085117 -1.557275e+01  1.675
15156 1   81.308099 -1.485114e+01  1.675
15157 1   78.875575 -1.771429e+01  1.675
15158 1   77.639155 -1.701596e+01  1.675
15159 1   77.625715 -1.559602e+01  1.675
15160 1   78.848697 -1.487442e+01  1.675
15161 1   76.416173 -1.773757e+01  1.675
15162 1   75.179753 -1.703924e+01  1.675
15163 1   75.166313 -1.561930e+01  1.675
15164 1   76.389295 -1.489769e+01  1.675
15165 1   73.956771 -1.776084e+01  1.675
15166 1   72.720351 -1.706251e+01  1.675
15167 1   72.706911 -1.564258e+01  1.675
15168 1   73.929893 -1.492097e+01  1.675
15169 1   71.497369 -1.778412e+01  1.675
15170 1   70.260949 -1.708579e+01  1.675
15171 1   70.247509 -1.566586e+01  1.675
15172 1   71.470491 -1.494425e+01  1.675
15173 1   69.037967 -1.780740e+01  1.675
15174 1   67.801547 -1.710907e+01  1.675
15175 1   67.788107 -1.568913e+01  1.675
15176 1   69.011089 -1.496753e+01  1.675
15177 1   66.578565 -1.783068e+01  1.675
15178 1   65.342145 -1.713235e+01  1.675
15179 1   65.328705 -1.571241e+01  1.675
15180 1   66.551687 -1.499080e+01  1.675
15181 1   64.119163 -1.785395e+01  1.675
15182 1   62.882743 -1.715563e+01  1.675
15183 1   62.869303 -1.573569e+01  1.675
15184 1   64.092285 -1.501408e+01  1.675
15185 1   61.659761 -1.787723e+01  1.675
15186 1   60.423341 -1.717890e+01  1.675
15187 1   60.409901 -1.575897e+01  1.675
15188 1   61.632883 -1.503736e+01  1.675
15189 1   59.200359 -1.790051e+01  1.675
15190 1   57.963939 -1.720218e+01  1.675
15191 1   57.950499 -1.578224e+01  1.675
15192 1   59.173481 -1.506064e+01  1.675
15193 1   56.740957 -1.792379e+01  1.675
15194 1   55.504537 -1.722546e+01  1.675
15195 1   55.491097 -1.580552e+01  1.675
15196 1   56.714079 -1.508391e+01  1.675
15197 1   54.281555 -1.794707e+01  1.675
15198 1   53.045135 -1.724874e+01  1.675
15199 1   53.031695 -1.582880e+01  1.675
15200 1   54.254677 -1.510719e+01  1.675
15201 1   51.822153 -1.797034e+01  1.675
15202 1   50.585733 -1.727201e+01  1.675
15203 1   50.572293 -1.585208e+01  1.675
15204 1   51.795275 -1.513047e+01  1.675
15205 1   49.362751 -1.799362e+01  1.675
15206 1   48.126331 -1.729529e+01  1.675
15207 1   48.112891 -1.587535e+01  1.675
15208 1   49.335873 -1.515375e+01  1.675
15209 1   46.903349 -1.801690e+01  1.675
15210 1   45.666929 -1.731857e+01  1.675
15211 1   45.653489 -1.589863e+01  1.675
15212 1   46.876471 -1.517703e+01  1.675
15213 1   44.443947 -1.804018e+01  1.675
15214 1   43.207527 -1.734185e+01  1.675
15215 1   43.194087 -1.592191e+01  1.675
15216 1   44.417069 -1.520030e+01  1.675
15217 1   41.984545 -1.806345e+01  1.675
15218 1   40.748125 -1.736512e+01  1.675
15219 1   40.734685 -1.594519e+01  1.675
15220 1   41.957667 -1.522358e+01  1.675
15221 1   39.525143 -1.808673e+01  1.675
15222 1   38.288723 -1.738840e+01  1.675
15223 1   38.275283 -1.596847e+01  1.675
15224 1   39.498265 -1.524686e+01  1.675
15225 1   37.065741 -1.811001e+01  1.675
15226 1   35.829321 -1.741168e+01  1.675
15227 1   35.815881 -1.599174e+01  1.675
15228 1   37.038863 -1.527014e+01  1.675
15229 1   34.606339 -1.813329e+01  1.675
15230 1   33.369919 -1.743496e+01  1.675
15231 1   33.356479 -1.601502e+01  1.675
15232 1   34.579461 -1.529341e+01  1.675
15233 1   32.146937 -1.815656e+01  1.675
15234 1   30.910517 -1.745823e+01  1.675
15235 1   30.897077 -1.603830e+01  1.675
15236 1   32.120059 -1.531669e+01  1.675
15237 1   29.687536 -1.817984e+01  1.675
15238 1   28.451115 -1.748151e+01  1.675
15239 1   28.437675 -1.606158e+01  1.675
15240 1   29.660657 -1.533997e+01  1.675
15241 1   27.228134 -1.820312e+01  1.675
15242 1   25.991713 -1.750479e+01  1.675
15243 1   25.978273 -1.608485e+01  1.675
15244 1   27.201255 -1.536325e+01  1.675
15245 1   24.768732 -1.822640e+01  1.675
15246 1   23.532311 -1.752807e+01  1.675
15247 1   23.518871 -1.610813e+01  1.675
15248 1   24.741853 -1.538652e+01  1.675
15249 1   22.309330 -1.824967e+01  1.675
15250 1   21.072909 -1.755135e+01  1.675
15251 1   21.059470 -1.613141e+01  1.675
15252 1   22.282451 -1.540980e+01  1.675
15253 1   19.849928 -1.827295e+01  1.675
15254 1   18.613507 -1.757462e+01  1.675
15255 1   18.600068 -1.615469e+01  1.675
15256 1   19.823049 -1.543308e+01  1.675
15257 1   17.390526 -1.829623e+01  1.675
15258 1   16.154105 -1.759790e+01  1.675
15259 1   16.140666 -1.617796e+01  1.675
15260 1   17.363647 -1.545636e+01  1.675
15261 1   14.931124 -1.831951e+01  1.675
15262 1   13.694703 -1.762118e+01  1.675
15263 1   13.681264 -1.620124e+01  1.675
15264 1   14.904245 -1.547963e+01  1.675
15265 1   12.471722 -1.834278e+01  1.675
15266 1   11.235301 -1.764446e+01  1.675
15267 1   11.221862 -1.622452e+01  1.675
15268 1   12.444843 -1.550291e+01  1.675
15269 1   10.012320 -1.836606e+01  1.675
15270 1    8.775899 -1.766773e+01  1.675
15271 1    8.762460 -1.624780e+01  1.675
15272 1    9.985441 -1.552619e+01  1.675
15273 1    7.552918 -1.838934e+01  1.675
15274 1    6.316497 -1.769101e+01  1.675
15275 1    6.303058 -1.627107e+01  1.675
15276 1    7.526039 -1.554947e+01  1.675
15277 1    5.093516 -1.841262e+01  1.675
15278 1    3.857095 -1.771429e+01  1.675
15279 1    3.843656 -1.629435e+01  1.675
15280 1    5.066637 -1.557275e+01  1.675
15281 1    2.634114 -1.843590e+01  1.675
15282 1    1.397693 -1.773757e+01  1.675
15283 1    1.384254 -1.631763e+01  1.675
15284 1    2.607235 -1.559602e+01  1.675
15285 1    0.174712 -1.845917e+01  1.675
15286 1   -1.061709 -1.776084e+01  1.675
15287 1   -1.075148 -1.634091e+01  1.675
15288 1    0.147833 -1.561930e+01  1.675
15289 1   -2.284690 -1.848245e+01  1.675
15290 1   -3.521111 -1.778412e+01  1.675
15291 1   -3.534550 -1.636419e+01  1.675
15292 1   -2.311569 -1.564258e+01  1.675
15293 1   -4.744092 -1.850573e+01  1.675
15294 1   -5.980513 -1.780740e+01  1.675
15295 1   -5.993952 -1.638746e+01  1.675
15296 1   -4.770971 -1.566586e+01  1.675
15297 1   -7.203494 -1.852901e+01  1.675
15298 1   -8.439915 -1.783068e+01  1.675
15299 1   -8.453354 -1.641074e+01  1.675
15300 1   -7.230373 -1.568913e+01  1.675
15301 1   -9.662896 -1.855228e+01  1.675
15302 1  -10.899317 -1.785395e+01  1.675
15303 1  -10.912756 -1.643402e+01  1.675
15304 1   -9.689775 -1.571241e+01  1.675
15305 1  -12.122298 -1.857556e+01  1.675
15306 1  -13.358719 -1.787723e+01  1.675
15307 1  -13.372158 -1.645730e+01  1.675
15308 1  -12.149177 -1.573569e+01  1.675
15309 1  -14.581700 -1.859884e+01  1.675
15310 1  -15.818121 -1.790051e+01  1.675
15311 1  -15.831560 -1.648057e+01  1.675
15312 1  -14.608579 -1.575897e+01  1.675
15313 1  -17.041102 -1.862212e+01  1.675
15314 1  -18.277523 -1.792379e+01  1.675
15315 1  -18.290962 -1.650385e+01  1.675
15316 1  -17.067981 -1.578224e+01  1.675
15317 1  -19.500504 -1.864539e+01  1.675
15318 1  -20.736925 -1.794707e+01  1.675
15319 1  -20.750364 -1.652713e+01  1.675
15320 1  -19.527383 -1.580552e+01  1.675
15321 1  -21.959906 -1.866867e+01  1.675
15322 1  -23.196327 -1.797034e+01  1.675
15323 1  -23.209766 -1.655041e+01  1.675
15324 1  -21.986785 -1.582880e+01  1.675
15325 1  -24.419308 -1.869195e+01  1.675
15326 1  -25.655729 -1.799362e+01  1.675
15327 1  -25.669168 -1.657368e+01  1.675
15328 1  -24.446187 -1.585208e+01  1.675
15329 1  -26.878710 -1.871523e+01  1.675
15330 1  -28.115131 -1.801690e+01  1.675
15331 1  -28.128570 -1.659696e+01  1.675
15332 1  -26.905589 -1.587535e+01  1.675
15333 1  -29.338112 -1.873850e+01  1.675
15334 1  -30.574533 -1.804018e+01  1.675
15335 1  -30.587972 -1.662024e+01  1.675
15336 1  -29.364991 -1.589863e+01  1.675
15337 1  -31.797514 -1.876178e+01  1.675
15338 1  -33.033935 -1.806345e+01  1.675
15339 1  -33.047374 -1.664352e+01  1.675
15340 1  -31.824393 -1.592191e+01  1.675
15341 1  -34.256916 -1.878506e+01  1.675
15342 1  -35.493337 -1.808673e+01  1.675
15343 1  -35.506776 -1.666679e+01  1.675
15344 1  -34.283795 -1.594519e+01  1.675
15345 1  -36.716318 -1.880834e+01  1.675
15346 1  -37.952739 -1.811001e+01  1.675
15347 1  -37.966178 -1.669007e+01  1.675
15348 1  -36.743197 -1.596847e+01  1.675
15349 1  -39.175720 -1.883162e+01  1.675
15350 1  -40.412141 -1.813329e+01  1.675
15351 1  -40.425580 -1.671335e+01  1.675
15352 1  -39.202599 -1.599174e+01  1.675
15353 1  -41.635122 -1.885489e+01  1.675
15354 1  -42.871543 -1.815656e+01  1.675
15355 1  -42.884982 -1.673663e+01  1.675
15356 1  -41.662001 -1.601502e+01  1.675
15357 1  -44.094524 -1.887817e+01  1.675
15358 1  -45.330945 -1.817984e+01  1.675
15359 1  -45.344384 -1.675991e+01  1.675
15360 1  -44.121403 -1.603830e+01  1.675
15361 1  -46.553926 -1.890145e+01  1.675
15362 1  -47.790347 -1.820312e+01  1.675
15363 1  -47.803786 -1.678318e+01  1.675
15364 1  -46.580805 -1.606158e+01  1.675
15365 1  -49.013328 -1.892473e+01  1.675
15366 1  -50.249749 -1.822640e+01  1.675
15367 1  -50.263188 -1.680646e+01  1.675
15368 1  -49.040207 -1.608485e+01  1.675
15369 1  -51.472730 -1.894800e+01  1.675
15370 1  -52.709151 -1.824967e+01  1.675
15371 1  -52.722590 -1.682974e+01  1.675
15372 1  -51.499609 -1.610813e+01  1.675
15373 1  -53.932132 -1.897128e+01  1.675
15374 1  -55.168553 -1.827295e+01  1.675
15375 1  -55.181992 -1.685302e+01  1.675
15376 1  -53.959011 -1.613141e+01  1.675
15377 1  -56.391534 -1.899456e+01  1.675
15378 1  -57.627955 -1.829623e+01  1.675
15379 1  -57.641394 -1.687629e+01  1.675
15380 1  -56.418413 -1.615469e+01  1.675
15381 1  -58.850936 -1.901784e+01  1.675
15382 1  -60.087357 -1.831951e+01  1.675
15383 1  -60.100796 -1.689957e+01  1.675
15384 1  -58.877815 -1.617796e+01  1.675
15385 1  -61.310338 -1.904111e+01  1.675
15386 1  -62.546759 -1.834278e+01  1.675
15387 1  -62.560198 -1.692285e+01  1.675
15388 1  -61.337217 -1.620124e+01  1.675
15389 1  -63.769740 -1.906439e+01  1.675
15390 1  -65.006161 -1.836606e+01  1.675
15391 1  -65.019600 -1.694613e+01  1.675
15392 1  -63.796619 -1.622452e+01  1.675
15393 1  -66.229142 -1.908767e+01  1.675
15394 1  -67.465563 -1.838934e+01  1.675
15395 1  -67.479002 -1.696940e+01  1.675
15396 1  -66.256021 -1.624780e+01  1.675
15397 1  -68.688544 -1.911095e+01  1.675
15398 1  -69.924965 -1.841262e+01  1.675
15399 1  -69.938404 -1.699268e+01  1.675
15400 1  -68.715423 -1.627107e+01  1.675
15401 1  -71.147946 -1.913422e+01  1.675
15402 1  -72.384367 -1.843590e+01  1.675
15403 1  -72.397806 -1.701596e+01  1.675
15404 1  -71.174825 -1.629435e+01  1.675
15405 1  -73.607348 -1.915750e+01  1.675
15406 1  -74.843769 -1.845917e+01  1.675
15407 1  -74.857208 -1.703924e+01  1.675
15408 1  -73.634227 -1.631763e+01  1.675
15409 1  -76.066750 -1.918078e+01  1.675
15410 1  -77.303171 -1.848245e+01  1.675
15411 1  -77.316610 -1.706251e+01  1.675
15412 1  -76.093629 -1.634091e+01  1.675
15413 1  -78.526152 -1.920406e+01  1.675
15414 1  -79.762573 -1.850573e+01  1.675
15415 1  -79.776012 -1.708579e+01  1.675
15416 1  -78.553031 -1.636419e+01  1.675
15417 1  -80.985554 -1.922734e+01  1.675
15418 1  -82.221975 -1.852901e+01  1.675
15419 1  -82.235414 -1.710907e+01  1.675
15420 1  -81.012433 -1.638746e+01  1.675
15421 1  -83.444956 -1.925061e+01  1.675
15422 1  -84.681377 -1.855228e+01  1.675
15423 1  -84.694816 -1.713235e+01  1.675
15424 1  -83.471835 -1.641074e+01  1.675
15425 1  -85.904358 -1.927389e+01  1.675
15426 1  -87.140779 -1.857556e+01  1.675
15427 1  -87.154218 -1.715563e+01  1.675
15428 1  -85.931237 -1.643402e+01  1.675
15429 1  -88.363760 -1.929717e+01  1.675
15430 1  -89.600181 -1.859884e+01  1.675
15431 1  -89.613620 -1.717890e+01  1.675
15432 1  -88.390639 -1.645730e+01  1.675
15433 1  -90.823162 -1.932045e+01  1.675
15434 1  -92.059583 -1.862212e+01  1.675
15435 1  -92.073022 -1.720218e+01  1.675
15436 1  -90.850041 -1.648057e+01  1.675
15437 1  -93.282564 -1.934372e+01  1.675
15438 1  -94.518985 -1.864539e+01  1.675
15439 1  -94.532424 -1.722546e+01  1.675
15440 1  -93.309443 -1.650385e+01  1.675
15441 1  -95.741966 -1.936700e+01  1.675
15442 1  -96.978387 -1.866867e+01  1.675
15443 1  -96.991826 -1.724874e+01  1.675
15444 1  -95.768845 -1.652713e+01  1.675
15445 1  -98.201368 -1.939028e+01  1.675
15446 1  -99.437789 -1.869195e+01  1.675
15447 1  -99.451228 -1.727201e+01  1.675
15448 1  -98.228247 -1.655041e+01  1.675
15449 1 -100.660770 -1.941356e+01  1.675
15450 1 -101.897191 -1.871523e+01  1.675
15451 1 -101.910630 -1.729529e+01  1.675
15452 1 -100.687649 -1.657368e+01  1.675
15453 1 -103.120172 -1.943683e+01  1.675
15454 1 -104.356593 -1.873850e+01  1.675
15455 1 -104.370032 -1.731857e+01  1.675
15456 1 -103.147051 -1.659696e+01  1.675
15457 1 -105.579574 -1.946011e+01  1.675
15458 1 -106.815995 -1.876178e+01  1.675
15459 1 -106.829434 -1.734185e+01  1.675
15460 1 -105.606453 -1.662024e+01  1.675
15461 1 -108.038976 -1.948339e+01  1.675
15462 1 -109.275397 -1.878506e+01  1.675
15463 1 -109.288836 -1.736512e+01  1.675
15464 1 -108.065855 -1.664352e+01  1.675
15465 1 -110.498378 -1.950667e+01  1.675
15466 1 -111.734799 -1.880834e+01  1.675
15467 1 -111.748238 -1.738840e+01  1.675
15468 1 -110.525257 -1.666679e+01  1.675
15469 1  112.030464 -1.243026e+01  1.675
15470 1  112.017025 -1.101033e+01  1.675
15471 1  110.807483 -1.315187e+01  1.675
15472 1  109.571062 -1.245354e+01  1.675
15473 1  109.557623 -1.103360e+01  1.675
15474 1  110.780604 -1.031200e+01  1.675
15475 1  108.348081 -1.317515e+01  1.675
15476 1  107.111660 -1.247682e+01  1.675
15477 1  107.098221 -1.105688e+01  1.675
15478 1  108.321202 -1.033527e+01  1.675
15479 1  105.888679 -1.319843e+01  1.675
15480 1  104.652258 -1.250010e+01  1.675
15481 1  104.638819 -1.108016e+01  1.675
15482 1  105.861800 -1.035855e+01  1.675
15483 1  103.429277 -1.322170e+01  1.675
15484 1  102.192856 -1.252337e+01  1.675
15485 1  102.179417 -1.110344e+01  1.675
15486 1  103.402398 -1.038183e+01  1.675
15487 1  100.969875 -1.324498e+01  1.675
15488 1   99.733454 -1.254665e+01  1.675
15489 1   99.720015 -1.112671e+01  1.675
15490 1  100.942996 -1.040511e+01  1.675
15491 1   98.510473 -1.326826e+01  1.675
15492 1   97.274053 -1.256993e+01  1.675
15493 1   97.260613 -1.114999e+01  1.675
15494 1   98.483594 -1.042839e+01  1.675
15495 1   96.051071 -1.329154e+01  1.675
15496 1   94.814651 -1.259321e+01  1.675
15497 1   94.801211 -1.117327e+01  1.675
15498 1   96.024192 -1.045166e+01  1.675
15499 1   93.591669 -1.331481e+01  1.675
15500 1   92.355249 -1.261648e+01  1.675
15501 1   92.341809 -1.119655e+01  1.675
15502 1   93.564790 -1.047494e+01  1.675
15503 1   91.132267 -1.333809e+01  1.675
15504 1   89.895847 -1.263976e+01  1.675
15505 1   89.882407 -1.121983e+01  1.675
15506 1   91.105388 -1.049822e+01  1.675
15507 1   88.672865 -1.336137e+01  1.675
15508 1   87.436445 -1.266304e+01  1.675
15509 1   87.423005 -1.124310e+01  1.675
15510 1   88.645987 -1.052150e+01  1.675
15511 1   86.213463 -1.338465e+01  1.675
15512 1   84.977043 -1.268632e+01  1.675
15513 1   84.963603 -1.126638e+01  1.675
15514 1   86.186585 -1.054477e+01  1.675
15515 1   83.754061 -1.340792e+01  1.675
15516 1   82.517641 -1.270959e+01  1.675
15517 1   82.504201 -1.128966e+01  1.675
15518 1   83.727183 -1.056805e+01  1.675
15519 1   81.294659 -1.343120e+01  1.675
15520 1   80.058239 -1.273287e+01  1.675
15521 1   80.044799 -1.131294e+01  1.675
15522 1   81.267781 -1.059133e+01  1.675
15523 1   78.835257 -1.345448e+01  1.675
15524 1   77.598837 -1.275615e+01  1.675
15525 1   77.585397 -1.133621e+01  1.675
15526 1   78.808379 -1.061461e+01  1.675
15527 1   76.375855 -1.347776e+01  1.675
15528 1   75.139435 -1.277943e+01  1.675
15529 1   75.125995 -1.135949e+01  1.675
15530 1   76.348977 -1.063788e+01  1.675
15531 1   73.916453 -1.350103e+01  1.675
15532 1   72.680033 -1.280271e+01  1.675
15533 1   72.666593 -1.138277e+01  1.675
15534 1   73.889575 -1.066116e+01  1.675
15535 1   71.457051 -1.352431e+01  1.675
15536 1   70.220631 -1.282598e+01  1.675
15537 1   70.207191 -1.140605e+01  1.675
15538 1   71.430173 -1.068444e+01  1.675
15539 1   68.997649 -1.354759e+01  1.675
15540 1   67.761229 -1.284926e+01  1.675
15541 1   67.747789 -1.142932e+01  1.675
15542 1   68.970771 -1.070772e+01  1.675
15543 1   66.538247 -1.357087e+01  1.675
15544 1   65.301827 -1.287254e+01  1.675
15545 1   65.288387 -1.145260e+01  1.675
15546 1   66.511369 -1.073099e+01  1.675
15547 1   64.078845 -1.359415e+01  1.675
15548 1   62.842425 -1.289582e+01  1.675
15549 1   62.828985 -1.147588e+01  1.675
15550 1   64.051967 -1.075427e+01  1.675
15551 1   61.619443 -1.361742e+01  1.675
15552 1   60.383023 -1.291909e+01  1.675
15553 1   60.369583 -1.149916e+01  1.675
15554 1   61.592565 -1.077755e+01  1.675
15555 1   59.160041 -1.364070e+01  1.675
15556 1   57.923621 -1.294237e+01  1.675
15557 1   57.910181 -1.152243e+01  1.675
15558 1   59.133163 -1.080083e+01  1.675
15559 1   56.700639 -1.366398e+01  1.675
15560 1   55.464219 -1.296565e+01  1.675
15561 1   55.450779 -1.154571e+01  1.675
15562 1   56.673761 -1.082411e+01  1.675
15563 1   54.241237 -1.368726e+01  1.675
15564 1   53.004817 -1.298893e+01  1.675
15565 1   52.991377 -1.156899e+01  1.675
15566 1   54.214359 -1.084738e+01  1.675
15567 1   51.781835 -1.371053e+01  1.675
15568 1   50.545415 -1.301220e+01  1.675
15569 1   50.531975 -1.159227e+01  1.675
15570 1   51.754957 -1.087066e+01  1.675
15571 1   49.322433 -1.373381e+01  1.675
15572 1   48.086013 -1.303548e+01  1.675
15573 1   48.072573 -1.161555e+01  1.675
15574 1   49.295555 -1.089394e+01  1.675
15575 1   46.863031 -1.375709e+01  1.675
15576 1   45.626611 -1.305876e+01  1.675
15577 1   45.613171 -1.163882e+01  1.675
15578 1   46.836153 -1.091722e+01  1.675
15579 1   44.403629 -1.378037e+01  1.675
15580 1   43.167209 -1.308204e+01  1.675
15581 1   43.153769 -1.166210e+01  1.675
15582 1   44.376751 -1.094049e+01  1.675
15583 1   41.944227 -1.380364e+01  1.675
15584 1   40.707807 -1.310531e+01  1.675
15585 1   40.694367 -1.168538e+01  1.675
15586 1   41.917349 -1.096377e+01  1.675
15587 1   39.484825 -1.382692e+01  1.675
15588 1   38.248405 -1.312859e+01  1.675
15589 1   38.234965 -1.170866e+01  1.675
15590 1   39.457947 -1.098705e+01  1.675
15591 1   37.025423 -1.385020e+01  1.675
15592 1   35.789003 -1.315187e+01  1.675
15593 1   35.775563 -1.173193e+01  1.675
15594 1   36.998545 -1.101033e+01  1.675
15595 1   34.566021 -1.387348e+01  1.675
15596 1   33.329601 -1.317515e+01  1.675
15597 1   33.316161 -1.175521e+01  1.675
15598 1   34.539143 -1.103360e+01  1.675
15599 1   32.106619 -1.389675e+01  1.675
15600 1   30.870199 -1.319843e+01  1.675
15601 1   30.856759 -1.177849e+01  1.675
15602 1   32.079741 -1.105688e+01  1.675
15603 1   29.647217 -1.392003e+01  1.675
15604 1   28.410797 -1.322170e+01  1.675
15605 1   28.397357 -1.180177e+01  1.675
15606 1   29.620339 -1.108016e+01  1.675
15607 1   27.187815 -1.394331e+01  1.675
15608 1   25.951395 -1.324498e+01  1.675
15609 1   25.937955 -1.182504e+01  1.675
15610 1   27.160937 -1.110344e+01  1.675
15611 1   24.728413 -1.396659e+01  1.675
15612 1   23.491993 -1.326826e+01  1.675
15613 1   23.478553 -1.184832e+01  1.675
15614 1   24.701535 -1.112671e+01  1.675
15615 1   22.269011 -1.398987e+01  1.675
15616 1   21.032591 -1.329154e+01  1.675
15617 1   21.019151 -1.187160e+01  1.675
15618 1   22.242133 -1.114999e+01  1.675
15619 1   19.809609 -1.401314e+01  1.675
15620 1   18.573189 -1.331481e+01  1.675
15621 1   18.559749 -1.189488e+01  1.675
15622 1   19.782731 -1.117327e+01  1.675
15623 1   17.350207 -1.403642e+01  1.675
15624 1   16.113787 -1.333809e+01  1.675
15625 1   16.100347 -1.191815e+01  1.675
15626 1   17.323329 -1.119655e+01  1.675
15627 1   14.890805 -1.405970e+01  1.675
15628 1   13.654385 -1.336137e+01  1.675
15629 1   13.640945 -1.194143e+01  1.675
15630 1   14.863927 -1.121983e+01  1.675
15631 1   12.431404 -1.408298e+01  1.675
15632 1   11.194983 -1.338465e+01  1.675
15633 1   11.181543 -1.196471e+01  1.675
15634 1   12.404525 -1.124310e+01  1.675
15635 1    9.972002 -1.410625e+01  1.675
15636 1    8.735581 -1.340792e+01  1.675
15637 1    8.722141 -1.198799e+01  1.675
15638 1    9.945123 -1.126638e+01  1.675
15639 1    7.512600 -1.412953e+01  1.675
15640 1    6.276179 -1.343120e+01  1.675
15641 1    6.262739 -1.201127e+01  1.675
15642 1    7.485721 -1.128966e+01  1.675
15643 1    5.053198 -1.415281e+01  1.675
15644 1    3.816777 -1.345448e+01  1.675
15645 1    3.803338 -1.203454e+01  1.675
15646 1    5.026319 -1.131294e+01  1.675
15647 1    2.593796 -1.417609e+01  1.675
15648 1    1.357375 -1.347776e+01  1.675
15649 1    1.343936 -1.205782e+01  1.675
15650 1    2.566917 -1.133621e+01  1.675
15651 1    0.134394 -1.419936e+01  1.675
15652 1   -1.102027 -1.350103e+01  1.675
15653 1   -1.115466 -1.208110e+01  1.675
15654 1    0.107515 -1.135949e+01  1.675
15655 1   -2.325008 -1.422264e+01  1.675
15656 1   -3.561429 -1.352431e+01  1.675
15657 1   -3.574868 -1.210438e+01  1.675
15658 1   -2.351887 -1.138277e+01  1.675
15659 1   -4.784410 -1.424592e+01  1.675
15660 1   -6.020831 -1.354759e+01  1.675
15661 1   -6.034270 -1.212765e+01  1.675
15662 1   -4.811289 -1.140605e+01  1.675
15663 1   -7.243812 -1.426920e+01  1.675
15664 1   -8.480233 -1.357087e+01  1.675
15665 1   -8.493672 -1.215093e+01  1.675
15666 1   -7.270691 -1.142932e+01  1.675
15667 1   -9.703214 -1.429247e+01  1.675
15668 1  -10.939635 -1.359415e+01  1.675
15669 1  -10.953074 -1.217421e+01  1.675
15670 1   -9.730093 -1.145260e+01  1.675
15671 1  -12.162616 -1.431575e+01  1.675
15672 1  -13.399037 -1.361742e+01  1.675
15673 1  -13.412476 -1.219749e+01  1.675
15674 1  -12.189495 -1.147588e+01  1.675
15675 1  -14.622018 -1.433903e+01  1.675
15676 1  -15.858439 -1.364070e+01  1.675
15677 1  -15.871878 -1.222076e+01  1.675
15678 1  -14.648897 -1.149916e+01  1.675
15679 1  -17.081420 -1.436231e+01  1.675
15680 1  -18.317841 -1.366398e+01  1.675
15681 1  -18.331280 -1.224404e+01  1.675
15682 1  -17.108299 -1.152243e+01  1.675
15683 1  -19.540822 -1.438559e+01  1.675
15684 1  -20.777243 -1.368726e+01  1.675
15685 1  -20.790682 -1.226732e+01  1.675
15686 1  -19.567701 -1.154571e+01  1.675
15687 1  -22.000224 -1.440886e+01  1.675
15688 1  -23.236645 -1.371053e+01  1.675
15689 1  -23.250084 -1.229060e+01  1.675
15690 1  -22.027103 -1.156899e+01  1.675
15691 1  -24.459626 -1.443214e+01  1.675
15692 1  -25.696047 -1.373381e+01  1.675
15693 1  -25.709486 -1.231387e+01  1.675
15694 1  -24.486505 -1.159227e+01  1.675
15695 1  -26.919028 -1.445542e+01  1.675
15696 1  -28.155449 -1.375709e+01  1.675
15697 1  -28.168888 -1.233715e+01  1.675
15698 1  -26.945907 -1.161555e+01  1.675
15699 1  -29.378430 -1.447870e+01  1.675
15700 1  -30.614851 -1.378037e+01  1.675
15701 1  -30.628290 -1.236043e+01  1.675
15702 1  -29.405309 -1.163882e+01  1.675
15703 1  -31.837832 -1.450197e+01  1.675
15704 1  -33.074253 -1.380364e+01  1.675
15705 1  -33.087692 -1.238371e+01  1.675
15706 1  -31.864711 -1.166210e+01  1.675
15707 1  -34.297234 -1.452525e+01  1.675
15708 1  -35.533655 -1.382692e+01  1.675
15709 1  -35.547094 -1.240699e+01  1.675
15710 1  -34.324113 -1.168538e+01  1.675
15711 1  -36.756636 -1.454853e+01  1.675
15712 1  -37.993057 -1.385020e+01  1.675
15713 1  -38.006496 -1.243026e+01  1.675
15714 1  -36.783515 -1.170866e+01  1.675
15715 1  -39.216038 -1.457181e+01  1.675
15716 1  -40.452459 -1.387348e+01  1.675
15717 1  -40.465898 -1.245354e+01  1.675
15718 1  -39.242917 -1.173193e+01  1.675
15719 1  -41.675440 -1.459508e+01  1.675
15720 1  -42.911861 -1.389675e+01  1.675
15721 1  -42.925300 -1.247682e+01  1.675
15722 1  -41.702319 -1.175521e+01  1.675
15723 1  -44.134842 -1.461836e+01  1.675
15724 1  -45.371263 -1.392003e+01  1.675
15725 1  -45.384702 -1.250010e+01  1.675
15726 1  -44.161721 -1.177849e+01  1.675
15727 1  -46.594244 -1.464164e+01  1.675
15728 1  -47.830665 -1.394331e+01  1.675
15729 1  -47.844104 -1.252337e+01  1.675
15730 1  -46.621123 -1.180177e+01  1.675
15731 1  -49.053646 -1.466492e+01  1.675
15732 1  -50.290067 -1.396659e+01  1.675
15733 1  -50.303506 -1.254665e+01  1.675
15734 1  -49.080525 -1.182504e+01  1.675
15735 1  -51.513048 -1.468819e+01  1.675
15736 1  -52.749469 -1.398987e+01  1.675
15737 1  -52.762908 -1.256993e+01  1.675
15738 1  -51.539927 -1.184832e+01  1.675
15739 1  -53.972450 -1.471147e+01  1.675
15740 1  -55.208871 -1.401314e+01  1.675
15741 1  -55.222310 -1.259321e+01  1.675
15742 1  -53.999329 -1.187160e+01  1.675
15743 1  -56.431852 -1.473475e+01  1.675
15744 1  -57.668273 -1.403642e+01  1.675
15745 1  -57.681712 -1.261648e+01  1.675
15746 1  -56.458731 -1.189488e+01  1.675
15747 1  -58.891254 -1.475803e+01  1.675
15748 1  -60.127675 -1.405970e+01  1.675
15749 1  -60.141114 -1.263976e+01  1.675
15750 1  -58.918133 -1.191815e+01  1.675
15751 1  -61.350656 -1.478131e+01  1.675
15752 1  -62.587077 -1.408298e+01  1.675
15753 1  -62.600516 -1.266304e+01  1.675
15754 1  -61.377535 -1.194143e+01  1.675
15755 1  -63.810058 -1.480458e+01  1.675
15756 1  -65.046479 -1.410625e+01  1.675
15757 1  -65.059918 -1.268632e+01  1.675
15758 1  -63.836937 -1.196471e+01  1.675
15759 1  -66.269460 -1.482786e+01  1.675
15760 1  -67.505881 -1.412953e+01  1.675
15761 1  -67.519320 -1.270959e+01  1.675
15762 1  -66.296339 -1.198799e+01  1.675
15763 1  -68.728862 -1.485114e+01  1.675
15764 1  -69.965283 -1.415281e+01  1.675
15765 1  -69.978722 -1.273287e+01  1.675
15766 1  -68.755741 -1.201127e+01  1.675
15767 1  -71.188264 -1.487442e+01  1.675
15768 1  -72.424685 -1.417609e+01  1.675
15769 1  -72.438124 -1.275615e+01  1.675
15770 1  -71.215143 -1.203454e+01  1.675
15771 1  -73.647666 -1.489769e+01  1.675
15772 1  -74.884087 -1.419936e+01  1.675
15773 1  -74.897526 -1.277943e+01  1.675
15774 1  -73.674545 -1.205782e+01  1.675
15775 1  -76.107068 -1.492097e+01  1.675
15776 1  -77.343489 -1.422264e+01  1.675
15777 1  -77.356928 -1.280271e+01  1.675
15778 1  -76.133947 -1.208110e+01  1.675
15779 1  -78.566470 -1.494425e+01  1.675
15780 1  -79.802891 -1.424592e+01  1.675
15781 1  -79.816330 -1.282598e+01  1.675
15782 1  -78.593349 -1.210438e+01  1.675
15783 1  -81.025872 -1.496753e+01  1.675
15784 1  -82.262293 -1.426920e+01  1.675
15785 1  -82.275732 -1.284926e+01  1.675
15786 1  -81.052751 -1.212765e+01  1.675
15787 1  -83.485274 -1.499080e+01  1.675
15788 1  -84.721695 -1.429247e+01  1.675
15789 1  -84.735134 -1.287254e+01  1.675
15790 1  -83.512153 -1.215093e+01  1.675
15791 1  -85.944676 -1.501408e+01  1.675
15792 1  -87.181097 -1.431575e+01  1.675
15793 1  -87.194536 -1.289582e+01  1.675
15794 1  -85.971555 -1.217421e+01  1.675
15795 1  -88.404078 -1.503736e+01  1.675
15796 1  -89.640499 -1.433903e+01  1.675
15797 1  -89.653938 -1.291909e+01  1.675
15798 1  -88.430957 -1.219749e+01  1.675
15799 1  -90.863480 -1.506064e+01  1.675
15800 1  -92.099901 -1.436231e+01  1.675
15801 1  -92.113340 -1.294237e+01  1.675
15802 1  -90.890359 -1.222076e+01  1.675
15803 1  -93.322882 -1.508391e+01  1.675
15804 1  -94.559303 -1.438559e+01  1.675
15805 1  -94.572742 -1.296565e+01  1.675
15806 1  -93.349761 -1.224404e+01  1.675
15807 1  -95.782284 -1.510719e+01  1.675
15808 1  -97.018705 -1.440886e+01  1.675
15809 1  -97.032144 -1.298893e+01  1.675
15810 1  -95.809163 -1.226732e+01  1.675
15811 1  -98.241686 -1.513047e+01  1.675
15812 1  -99.478107 -1.443214e+01  1.675
15813 1  -99.491546 -1.301220e+01  1.675
15814 1  -98.268565 -1.229060e+01  1.675
15815 1 -100.701088 -1.515375e+01  1.675
15816 1 -101.937509 -1.445542e+01  1.675
15817 1 -101.950948 -1.303548e+01  1.675
15818 1 -100.727967 -1.231387e+01  1.675
15819 1 -103.160490 -1.517703e+01  1.675
15820 1 -104.396911 -1.447870e+01  1.675
15821 1 -104.410350 -1.305876e+01  1.675
15822 1 -103.187369 -1.233715e+01  1.675
15823 1 -105.619892 -1.520030e+01  1.675
15824 1 -106.856313 -1.450197e+01  1.675
15825 1 -106.869752 -1.308204e+01  1.675
15826 1 -105.646771 -1.236043e+01  1.675
15827 1 -108.079294 -1.522358e+01  1.675
15828 1 -109.315715 -1.452525e+01  1.675
15829 1 -109.329154 -1.310531e+01  1.675
15830 1 -108.106173 -1.238371e+01  1.675
15831 1 -110.538696 -1.524686e+01  1.675
15832 1 -111.775117 -1.454853e+01  1.675
15833 1 -111.788556 -1.312859e+01  1.675
15834 1 -110.565575 -1.240699e+01  1.675
15835 1  111.990146 -8.170454e+00  1.675
15836 1  111.976707 -6.750517e+00  1.675
15837 1  110.767165 -8.892061e+00  1.675
15838 1  109.530744 -8.193731e+00  1.675
15839 1  109.517305 -6.773795e+00  1.675
15840 1  110.740286 -6.052188e+00  1.675
15841 1  108.307763 -8.915338e+00  1.675
15842 1  107.071342 -8.217009e+00  1.675
15843 1  107.057903 -6.797073e+00  1.675
15844 1  108.280884 -6.075466e+00  1.675
15845 1  105.848361 -8.938616e+00  1.675
15846 1  104.611940 -8.240287e+00  1.675
15847 1  104.598501 -6.820350e+00  1.675
15848 1  105.821482 -6.098743e+00  1.675
15849 1  103.388959 -8.961894e+00  1.675
15850 1  102.152538 -8.263564e+00  1.675
15851 1  102.139099 -6.843628e+00  1.675
15852 1  103.362080 -6.122021e+00  1.675
15853 1  100.929557 -8.985171e+00  1.675
15854 1   99.693136 -8.286842e+00  1.675
15855 1   99.679697 -6.866906e+00  1.675
15856 1  100.902678 -6.145299e+00  1.675
15857 1   98.470155 -9.008449e+00  1.675
15858 1   97.233734 -8.310120e+00  1.675
15859 1   97.220295 -6.890183e+00  1.675
15860 1   98.443276 -6.168576e+00  1.675
15861 1   96.010753 -9.031727e+00  1.675
15862 1   94.774332 -8.333397e+00  1.675
15863 1   94.760893 -6.913461e+00  1.675
15864 1   95.983874 -6.191854e+00  1.675
15865 1   93.551351 -9.055004e+00  1.675
15866 1   92.314930 -8.356675e+00  1.675
15867 1   92.301491 -6.936738e+00  1.675
15868 1   93.524472 -6.215131e+00  1.675
15869 1   91.091949 -9.078282e+00  1.675
15870 1   89.855528 -8.379953e+00  1.675
15871 1   89.842089 -6.960016e+00  1.675
15872 1   91.065070 -6.238409e+00  1.675
15873 1   88.632547 -9.101560e+00  1.675
15874 1   87.396126 -8.403230e+00  1.675
15875 1   87.382687 -6.983294e+00  1.675
15876 1   88.605668 -6.261687e+00  1.675
15877 1   86.173145 -9.124837e+00  1.675
15878 1   84.936724 -8.426508e+00  1.675
15879 1   84.923285 -7.006571e+00  1.675
15880 1   86.146266 -6.284964e+00  1.675
15881 1   83.713743 -9.148115e+00  1.675
15882 1   82.477322 -8.449785e+00  1.675
15883 1   82.463883 -7.029849e+00  1.675
15884 1   83.686864 -6.308242e+00  1.675
15885 1   81.254341 -9.171392e+00  1.675
15886 1   80.017921 -8.473063e+00  1.675
15887 1   80.004481 -7.053127e+00  1.675
15888 1   81.227462 -6.331520e+00  1.675
15889 1   78.794939 -9.194670e+00  1.675
15890 1   77.558519 -8.496341e+00  1.675
15891 1   77.545079 -7.076404e+00  1.675
15892 1   78.768060 -6.354797e+00  1.675
15893 1   76.335537 -9.217948e+00  1.675
15894 1   75.099117 -8.519618e+00  1.675
15895 1   75.085677 -7.099682e+00  1.675
15896 1   76.308658 -6.378075e+00  1.675
15897 1   73.876135 -9.241225e+00  1.675
15898 1   72.639715 -8.542896e+00  1.675
15899 1   72.626275 -7.122960e+00  1.675
15900 1   73.849256 -6.401353e+00  1.675
15901 1   71.416733 -9.264503e+00  1.675
15902 1   70.180313 -8.566174e+00  1.675
15903 1   70.166873 -7.146237e+00  1.675
15904 1   71.389855 -6.424630e+00  1.675
15905 1   68.957331 -9.287781e+00  1.675
15906 1   67.720911 -8.589451e+00  1.675
15907 1   67.707471 -7.169515e+00  1.675
15908 1   68.930453 -6.447908e+00  1.675
15909 1   66.497929 -9.311058e+00  1.675
15910 1   65.261509 -8.612729e+00  1.675
15911 1   65.248069 -7.192793e+00  1.675
15912 1   66.471051 -6.471186e+00  1.675
15913 1   64.038527 -9.334336e+00  1.675
15914 1   62.802107 -8.636007e+00  1.675
15915 1   62.788667 -7.216070e+00  1.675
15916 1   64.011649 -6.494463e+00  1.675
15917 1   61.579125 -9.357614e+00  1.675
15918 1   60.342705 -8.659284e+00  1.675
15919 1   60.329265 -7.239348e+00  1.675
15920 1   61.552247 -6.517741e+00  1.675
15921 1   59.119723 -9.380891e+00  1.675
15922 1   57.883303 -8.682562e+00  1.675
15923 1   57.869863 -7.262626e+00  1.675
15924 1   59.092845 -6.541019e+00  1.675
15925 1   56.660321 -9.404169e+00  1.675
15926 1   55.423901 -8.705840e+00  1.675
15927 1   55.410461 -7.285903e+00  1.675
15928 1   56.633443 -6.564296e+00  1.675
15929 1   54.200919 -9.427447e+00  1.675
15930 1   52.964499 -8.729117e+00  1.675
15931 1   52.951059 -7.309181e+00  1.675
15932 1   54.174041 -6.587574e+00  1.675
15933 1   51.741517 -9.450724e+00  1.675
15934 1   50.505097 -8.752395e+00  1.675
15935 1   50.491657 -7.332458e+00  1.675
15936 1   51.714639 -6.610851e+00  1.675
15937 1   49.282115 -9.474002e+00  1.675
15938 1   48.045695 -8.775673e+00  1.675
15939 1   48.032255 -7.355736e+00  1.675
15940 1   49.255237 -6.634129e+00  1.675
15941 1   46.822713 -9.497280e+00  1.675
15942 1   45.586293 -8.798950e+00  1.675
15943 1   45.572853 -7.379014e+00  1.675
15944 1   46.795835 -6.657407e+00  1.675
15945 1   44.363311 -9.520557e+00  1.675
15946 1   43.126891 -8.822228e+00  1.675
15947 1   43.113451 -7.402291e+00  1.675
15948 1   44.336433 -6.680684e+00  1.675
15949 1   41.903909 -9.543835e+00  1.675
15950 1   40.667489 -8.845505e+00  1.675
15951 1   40.654049 -7.425569e+00  1.675
15952 1   41.877031 -6.703962e+00  1.675
15953 1   39.444507 -9.567112e+00  1.675
15954 1   38.208087 -8.868783e+00  1.675
15955 1   38.194647 -7.448847e+00  1.675
15956 1   39.417629 -6.727240e+00  1.675
15957 1   36.985105 -9.590390e+00  1.675
15958 1   35.748685 -8.892061e+00  1.675
15959 1   35.735245 -7.472124e+00  1.675
15960 1   36.958227 -6.750517e+00  1.675
15961 1   34.525703 -9.613668e+00  1.675
15962 1   33.289283 -8.915338e+00  1.675
15963 1   33.275843 -7.495402e+00  1.675
15964 1   34.498825 -6.773795e+00  1.675
15965 1   32.066301 -9.636945e+00  1.675
15966 1   30.829881 -8.938616e+00  1.675
15967 1   30.816441 -7.518680e+00  1.675
15968 1   32.039423 -6.797073e+00  1.675
15969 1   29.606899 -9.660223e+00  1.675
15970 1   28.370479 -8.961894e+00  1.675
15971 1   28.357039 -7.541957e+00  1.675
15972 1   29.580021 -6.820350e+00  1.675
15973 1   27.147497 -9.683501e+00  1.675
15974 1   25.911077 -8.985171e+00  1.675
15975 1   25.897637 -7.565235e+00  1.675
15976 1   27.120619 -6.843628e+00  1.675
15977 1   24.688095 -9.706778e+00  1.675
15978 1   23.451675 -9.008449e+00  1.675
15979 1   23.438235 -7.588513e+00  1.675
15980 1   24.661217 -6.866906e+00  1.675
15981 1   22.228693 -9.730056e+00  1.675
15982 1   20.992273 -9.031727e+00  1.675
15983 1   20.978833 -7.611790e+00  1.675
15984 1   22.201815 -6.890183e+00  1.675
15985 1   19.769291 -9.753334e+00  1.675
15986 1   18.532871 -9.055004e+00  1.675
15987 1   18.519431 -7.635068e+00  1.675
15988 1   19.742413 -6.913461e+00  1.675
15989 1   17.309889 -9.776611e+00  1.675
15990 1   16.073469 -9.078282e+00  1.675
15991 1   16.060029 -7.658346e+00  1.675
15992 1   17.283011 -6.936738e+00  1.675
15993 1   14.850487 -9.799889e+00  1.675
15994 1   13.614067 -9.101560e+00  1.675
15995 1   13.600627 -7.681623e+00  1.675
15996 1   14.823609 -6.960016e+00  1.675
15997 1   12.391085 -9.823167e+00  1.675
15998 1   11.154665 -9.124837e+00  1.675
15999 1   11.141225 -7.704901e+00  1.675
16000 1   12.364207 -6.983294e+00  1.675
16001 1    9.931683 -9.846444e+00  1.675
16002 1    8.695263 -9.148115e+00  1.675
16003 1    8.681823 -7.728178e+00  1.675
16004 1    9.904805 -7.006571e+00  1.675
16005 1    7.472281 -9.869722e+00  1.675
16006 1    6.235861 -9.171392e+00  1.675
16007 1    6.222421 -7.751456e+00  1.675
16008 1    7.445403 -7.029849e+00  1.675
16009 1    5.012879 -9.893000e+00  1.675
16010 1    3.776459 -9.194670e+00  1.675
16011 1    3.763019 -7.774734e+00  1.675
16012 1    4.986001 -7.053127e+00  1.675
16013 1    2.553477 -9.916277e+00  1.675
16014 1    1.317057 -9.217948e+00  1.675
16015 1    1.303617 -7.798011e+00  1.675
16016 1    2.526599 -7.076404e+00  1.675
16017 1    0.094075 -9.939555e+00  1.675
16018 1   -1.142345 -9.241225e+00  1.675
16019 1   -1.155785 -7.821289e+00  1.675
16020 1    0.067197 -7.099682e+00  1.675
16021 1   -2.365327 -9.962832e+00  1.675
16022 1   -3.601747 -9.264503e+00  1.675
16023 1   -3.615187 -7.844567e+00  1.675
16024 1   -2.392205 -7.122960e+00  1.675
16025 1   -4.824728 -9.986110e+00  1.675
16026 1   -6.061149 -9.287781e+00  1.675
16027 1   -6.074589 -7.867844e+00  1.675
16028 1   -4.851607 -7.146237e+00  1.675
16029 1   -7.284130 -1.000939e+01  1.675
16030 1   -8.520551 -9.311058e+00  1.675
16031 1   -8.533991 -7.891122e+00  1.675
16032 1   -7.311009 -7.169515e+00  1.675
16033 1   -9.743532 -1.003267e+01  1.675
16034 1  -10.979953 -9.334336e+00  1.675
16035 1  -10.993393 -7.914400e+00  1.675
16036 1   -9.770411 -7.192793e+00  1.675
16037 1  -12.202934 -1.005594e+01  1.675
16038 1  -13.439355 -9.357614e+00  1.675
16039 1  -13.452794 -7.937677e+00  1.675
16040 1  -12.229813 -7.216070e+00  1.675
16041 1  -14.662336 -1.007922e+01  1.675
16042 1  -15.898757 -9.380891e+00  1.675
16043 1  -15.912196 -7.960955e+00  1.675
16044 1  -14.689215 -7.239348e+00  1.675
16045 1  -17.121738 -1.010250e+01  1.675
16046 1  -18.358159 -9.404169e+00  1.675
16047 1  -18.371598 -7.984233e+00  1.675
16048 1  -17.148617 -7.262626e+00  1.675
16049 1  -19.581140 -1.012578e+01  1.675
16050 1  -20.817561 -9.427447e+00  1.675
16051 1  -20.831000 -8.007510e+00  1.675
16052 1  -19.608019 -7.285903e+00  1.675
16053 1  -22.040542 -1.014905e+01  1.675
16054 1  -23.276963 -9.450724e+00  1.675
16055 1  -23.290402 -8.030788e+00  1.675
16056 1  -22.067421 -7.309181e+00  1.675
16057 1  -24.499944 -1.017233e+01  1.675
16058 1  -25.736365 -9.474002e+00  1.675
16059 1  -25.749804 -8.054065e+00  1.675
16060 1  -24.526823 -7.332458e+00  1.675
16061 1  -26.959346 -1.019561e+01  1.675
16062 1  -28.195767 -9.497280e+00  1.675
16063 1  -28.209206 -8.077343e+00  1.675
16064 1  -26.986225 -7.355736e+00  1.675
16065 1  -29.418748 -1.021889e+01  1.675
16066 1  -30.655169 -9.520557e+00  1.675
16067 1  -30.668608 -8.100621e+00  1.675
16068 1  -29.445627 -7.379014e+00  1.675
16069 1  -31.878150 -1.024216e+01  1.675
16070 1  -33.114571 -9.543835e+00  1.675
16071 1  -33.128010 -8.123898e+00  1.675
16072 1  -31.905029 -7.402291e+00  1.675
16073 1  -34.337552 -1.026544e+01  1.675
16074 1  -35.573973 -9.567112e+00  1.675
16075 1  -35.587412 -8.147176e+00  1.675
16076 1  -34.364431 -7.425569e+00  1.675
16077 1  -36.796954 -1.028872e+01  1.675
16078 1  -38.033375 -9.590390e+00  1.675
16079 1  -38.046814 -8.170454e+00  1.675
16080 1  -36.823833 -7.448847e+00  1.675
16081 1  -39.256356 -1.031200e+01  1.675
16082 1  -40.492777 -9.613668e+00  1.675
16083 1  -40.506216 -8.193731e+00  1.675
16084 1  -39.283235 -7.472124e+00  1.675
16085 1  -41.715758 -1.033527e+01  1.675
16086 1  -42.952179 -9.636945e+00  1.675
16087 1  -42.965618 -8.217009e+00  1.675
16088 1  -41.742637 -7.495402e+00  1.675
16089 1  -44.175160 -1.035855e+01  1.675
16090 1  -45.411581 -9.660223e+00  1.675
16091 1  -45.425020 -8.240287e+00  1.675
16092 1  -44.202039 -7.518680e+00  1.675
16093 1  -46.634562 -1.038183e+01  1.675
16094 1  -47.870983 -9.683501e+00  1.675
16095 1  -47.884422 -8.263564e+00  1.675
16096 1  -46.661441 -7.541957e+00  1.675
16097 1  -49.093964 -1.040511e+01  1.675
16098 1  -50.330385 -9.706778e+00  1.675
16099 1  -50.343824 -8.286842e+00  1.675
16100 1  -49.120843 -7.565235e+00  1.675
16101 1  -51.553366 -1.042839e+01  1.675
16102 1  -52.789787 -9.730056e+00  1.675
16103 1  -52.803226 -8.310120e+00  1.675
16104 1  -51.580245 -7.588513e+00  1.675
16105 1  -54.012768 -1.045166e+01  1.675
16106 1  -55.249189 -9.753334e+00  1.675
16107 1  -55.262628 -8.333397e+00  1.675
16108 1  -54.039647 -7.611790e+00  1.675
16109 1  -56.472170 -1.047494e+01  1.675
16110 1  -57.708591 -9.776611e+00  1.675
16111 1  -57.722030 -8.356675e+00  1.675
16112 1  -56.499049 -7.635068e+00  1.675
16113 1  -58.931572 -1.049822e+01  1.675
16114 1  -60.167993 -9.799889e+00  1.675
16115 1  -60.181432 -8.379953e+00  1.675
16116 1  -58.958451 -7.658346e+00  1.675
16117 1  -61.390974 -1.052150e+01  1.675
16118 1  -62.627395 -9.823167e+00  1.675
16119 1  -62.640834 -8.403230e+00  1.675
16120 1  -61.417853 -7.681623e+00  1.675
16121 1  -63.850376 -1.054477e+01  1.675
16122 1  -65.086797 -9.846444e+00  1.675
16123 1  -65.100236 -8.426508e+00  1.675
16124 1  -63.877255 -7.704901e+00  1.675
16125 1  -66.309778 -1.056805e+01  1.675
16126 1  -67.546199 -9.869722e+00  1.675
16127 1  -67.559638 -8.449785e+00  1.675
16128 1  -66.336657 -7.728178e+00  1.675
16129 1  -68.769180 -1.059133e+01  1.675
16130 1  -70.005601 -9.893000e+00  1.675
16131 1  -70.019040 -8.473063e+00  1.675
16132 1  -68.796059 -7.751456e+00  1.675
16133 1  -71.228582 -1.061461e+01  1.675
16134 1  -72.465003 -9.916277e+00  1.675
16135 1  -72.478442 -8.496341e+00  1.675
16136 1  -71.255461 -7.774734e+00  1.675
16137 1  -73.687984 -1.063788e+01  1.675
16138 1  -74.924405 -9.939555e+00  1.675
16139 1  -74.937844 -8.519618e+00  1.675
16140 1  -73.714863 -7.798011e+00  1.675
16141 1  -76.147386 -1.066116e+01  1.675
16142 1  -77.383807 -9.962832e+00  1.675
16143 1  -77.397246 -8.542896e+00  1.675
16144 1  -76.174265 -7.821289e+00  1.675
16145 1  -78.606788 -1.068444e+01  1.675
16146 1  -79.843209 -9.986110e+00  1.675
16147 1  -79.856648 -8.566174e+00  1.675
16148 1  -78.633667 -7.844567e+00  1.675
16149 1  -81.066190 -1.070772e+01  1.675
16150 1  -82.302611 -1.000939e+01  1.675
16151 1  -82.316050 -8.589451e+00  1.675
16152 1  -81.093069 -7.867844e+00  1.675
16153 1  -83.525592 -1.073099e+01  1.675
16154 1  -84.762013 -1.003267e+01  1.675
16155 1  -84.775452 -8.612729e+00  1.675
16156 1  -83.552471 -7.891122e+00  1.675
16157 1  -85.984994 -1.075427e+01  1.675
16158 1  -87.221415 -1.005594e+01  1.675
16159 1  -87.234854 -8.636007e+00  1.675
16160 1  -86.011873 -7.914400e+00  1.675
16161 1  -88.444396 -1.077755e+01  1.675
16162 1  -89.680817 -1.007922e+01  1.675
16163 1  -89.694256 -8.659284e+00  1.675
16164 1  -88.471275 -7.937677e+00  1.675
16165 1  -90.903798 -1.080083e+01  1.675
16166 1  -92.140219 -1.010250e+01  1.675
16167 1  -92.153658 -8.682562e+00  1.675
16168 1  -90.930677 -7.960955e+00  1.675
16169 1  -93.363200 -1.082411e+01  1.675
16170 1  -94.599621 -1.012578e+01  1.675
16171 1  -94.613060 -8.705840e+00  1.675
16172 1  -93.390079 -7.984233e+00  1.675
16173 1  -95.822602 -1.084738e+01  1.675
16174 1  -97.059023 -1.014905e+01  1.675
16175 1  -97.072462 -8.729117e+00  1.675
16176 1  -95.849481 -8.007510e+00  1.675
16177 1  -98.282004 -1.087066e+01  1.675
16178 1  -99.518425 -1.017233e+01  1.675
16179 1  -99.531864 -8.752395e+00  1.675
16180 1  -98.308883 -8.030788e+00  1.675
16181 1 -100.741406 -1.089394e+01  1.675
16182 1 -101.977827 -1.019561e+01  1.675
16183 1 -101.991266 -8.775673e+00  1.675
16184 1 -100.768285 -8.054065e+00  1.675
16185 1 -103.200808 -1.091722e+01  1.675
16186 1 -104.437229 -1.021889e+01  1.675
16187 1 -104.450668 -8.798950e+00  1.675
16188 1 -103.227687 -8.077343e+00  1.675
16189 1 -105.660210 -1.094049e+01  1.675
16190 1 -106.896631 -1.024216e+01  1.675
16191 1 -106.910070 -8.822228e+00  1.675
16192 1 -105.687089 -8.100621e+00  1.675
16193 1 -108.119612 -1.096377e+01  1.675
16194 1 -109.356033 -1.026544e+01  1.675
16195 1 -109.369472 -8.845505e+00  1.675
16196 1 -108.146491 -8.123898e+00  1.675
16197 1 -110.579014 -1.098705e+01  1.675
16198 1 -111.815435 -1.028872e+01  1.675
16199 1 -111.828874 -8.868783e+00  1.675
16200 1 -110.605893 -8.147176e+00  1.675
16201 1  111.949828 -3.910645e+00  1.675
16202 1  111.936389 -2.490708e+00  1.675
16203 1  110.726847 -4.632252e+00  1.675
16204 1  109.490426 -3.933922e+00  1.675
16205 1  109.476987 -2.513986e+00  1.675
16206 1  110.699968 -1.792379e+00  1.675
16207 1  108.267445 -4.655529e+00  1.675
16208 1  107.031024 -3.957200e+00  1.675
16209 1  107.017585 -2.537263e+00  1.675
16210 1  108.240566 -1.815656e+00  1.675
16211 1  105.808043 -4.678807e+00  1.675
16212 1  104.571622 -3.980477e+00  1.675
16213 1  104.558183 -2.560541e+00  1.675
16214 1  105.781164 -1.838934e+00  1.675
16215 1  103.348641 -4.702084e+00  1.675
16216 1  102.112220 -4.003755e+00  1.675
16217 1  102.098781 -2.583819e+00  1.675
16218 1  103.321762 -1.862212e+00  1.675
16219 1  100.889239 -4.725362e+00  1.675
16220 1   99.652818 -4.027033e+00  1.675
16221 1   99.639379 -2.607096e+00  1.675
16222 1  100.862360 -1.885489e+00  1.675
16223 1   98.429837 -4.748640e+00  1.675
16224 1   97.193416 -4.050310e+00  1.675
16225 1   97.179977 -2.630374e+00  1.675
16226 1   98.402958 -1.908767e+00  1.675
16227 1   95.970435 -4.771917e+00  1.675
16228 1   94.734014 -4.073588e+00  1.675
16229 1   94.720575 -2.653652e+00  1.675
16230 1   95.943556 -1.932045e+00  1.675
16231 1   93.511033 -4.795195e+00  1.675
16232 1   92.274612 -4.096866e+00  1.675
16233 1   92.261173 -2.676929e+00  1.675
16234 1   93.484154 -1.955322e+00  1.675
16235 1   91.051631 -4.818473e+00  1.675
16236 1   89.815210 -4.120143e+00  1.675
16237 1   89.801771 -2.700207e+00  1.675
16238 1   91.024752 -1.978600e+00  1.675
16239 1   88.592229 -4.841750e+00  1.675
16240 1   87.355808 -4.143421e+00  1.675
16241 1   87.342369 -2.723485e+00  1.675
16242 1   88.565350 -2.001878e+00  1.675
16243 1   86.132827 -4.865028e+00  1.675
16244 1   84.896406 -4.166699e+00  1.675
16245 1   84.882967 -2.746762e+00  1.675
16246 1   86.105948 -2.025155e+00  1.675
16247 1   83.673425 -4.888306e+00  1.675
16248 1   82.437004 -4.189976e+00  1.675
16249 1   82.423565 -2.770040e+00  1.675
16250 1   83.646546 -2.048433e+00  1.675
16251 1   81.214023 -4.911583e+00  1.675
16252 1   79.977602 -4.213254e+00  1.675
16253 1   79.964163 -2.793318e+00  1.675
16254 1   81.187144 -2.071710e+00  1.675
16255 1   78.754621 -4.934861e+00  1.675
16256 1   77.518200 -4.236532e+00  1.675
16257 1   77.504761 -2.816595e+00  1.675
16258 1   78.727742 -2.094988e+00  1.675
16259 1   76.295219 -4.958139e+00  1.675
16260 1   75.058798 -4.259809e+00  1.675
16261 1   75.045359 -2.839873e+00  1.675
16262 1   76.268340 -2.118266e+00  1.675
16263 1   73.835817 -4.981416e+00  1.675
16264 1   72.599396 -4.283087e+00  1.675
16265 1   72.585957 -2.863150e+00  1.675
16266 1   73.808938 -2.141543e+00  1.675
16267 1   71.376415 -5.004694e+00  1.675
16268 1   70.139994 -4.306364e+00  1.675
16269 1   70.126555 -2.886428e+00  1.675
16270 1   71.349536 -2.164821e+00  1.675
16271 1   68.917013 -5.027972e+00  1.675
16272 1   67.680592 -4.329642e+00  1.675
16273 1   67.667153 -2.909706e+00  1.675
16274 1   68.890134 -2.188099e+00  1.675
16275 1   66.457611 -5.051249e+00  1.675
16276 1   65.221190 -4.352920e+00  1.675
16277 1   65.207751 -2.932983e+00  1.675
16278 1   66.430732 -2.211376e+00  1.675
16279 1   63.998209 -5.074527e+00  1.675
16280 1   62.761789 -4.376197e+00  1.675
16281 1   62.748349 -2.956261e+00  1.675
16282 1   63.971330 -2.234654e+00  1.675
16283 1   61.538807 -5.097804e+00  1.675
16284 1   60.302387 -4.399475e+00  1.675
16285 1   60.288947 -2.979539e+00  1.675
16286 1   61.511928 -2.257932e+00  1.675
16287 1   59.079405 -5.121082e+00  1.675
16288 1   57.842985 -4.422753e+00  1.675
16289 1   57.829545 -3.002816e+00  1.675
16290 1   59.052526 -2.281209e+00  1.675
16291 1   56.620003 -5.144360e+00  1.675
16292 1   55.383583 -4.446030e+00  1.675
16293 1   55.370143 -3.026094e+00  1.675
16294 1   56.593124 -2.304487e+00  1.675
16295 1   54.160601 -5.167637e+00  1.675
16296 1   52.924181 -4.469308e+00  1.675
16297 1   52.910741 -3.049372e+00  1.675
16298 1   54.133723 -2.327765e+00  1.675
16299 1   51.701199 -5.190915e+00  1.675
16300 1   50.464779 -4.492586e+00  1.675
16301 1   50.451339 -3.072649e+00  1.675
16302 1   51.674321 -2.351042e+00  1.675
16303 1   49.241797 -5.214193e+00  1.675
16304 1   48.005377 -4.515863e+00  1.675
16305 1   47.991937 -3.095927e+00  1.675
16306 1   49.214919 -2.374320e+00  1.675
16307 1   46.782395 -5.237470e+00  1.675
16308 1   45.545975 -4.539141e+00  1.675
16309 1   45.532535 -3.119205e+00  1.675
16310 1   46.755517 -2.397598e+00  1.675
16311 1   44.322993 -5.260748e+00  1.675
16312 1   43.086573 -4.562419e+00  1.675
16313 1   43.073133 -3.142482e+00  1.675
16314 1   44.296115 -2.420875e+00  1.675
16315 1   41.863591 -5.284026e+00  1.675
16316 1   40.627171 -4.585696e+00  1.675
16317 1   40.613731 -3.165760e+00  1.675
16318 1   41.836713 -2.444153e+00  1.675
16319 1   39.404189 -5.307303e+00  1.675
16320 1   38.167769 -4.608974e+00  1.675
16321 1   38.154329 -3.189037e+00  1.675
16322 1   39.377311 -2.467430e+00  1.675
16323 1   36.944787 -5.330581e+00  1.675
16324 1   35.708367 -4.632252e+00  1.675
16325 1   35.694927 -3.212315e+00  1.675
16326 1   36.917909 -2.490708e+00  1.675
16327 1   34.485385 -5.353859e+00  1.675
16328 1   33.248965 -4.655529e+00  1.675
16329 1   33.235525 -3.235593e+00  1.675
16330 1   34.458507 -2.513986e+00  1.675
16331 1   32.025983 -5.377136e+00  1.675
16332 1   30.789563 -4.678807e+00  1.675
16333 1   30.776123 -3.258870e+00  1.675
16334 1   31.999105 -2.537263e+00  1.675
16335 1   29.566581 -5.400414e+00  1.675
16336 1   28.330161 -4.702084e+00  1.675
16337 1   28.316721 -3.282148e+00  1.675
16338 1   29.539703 -2.560541e+00  1.675
16339 1   27.107179 -5.423692e+00  1.675
16340 1   25.870759 -4.725362e+00  1.675
16341 1   25.857319 -3.305426e+00  1.675
16342 1   27.080301 -2.583819e+00  1.675
16343 1   24.647777 -5.446969e+00  1.675
16344 1   23.411357 -4.748640e+00  1.675
16345 1   23.397917 -3.328703e+00  1.675
16346 1   24.620899 -2.607096e+00  1.675
16347 1   22.188375 -5.470247e+00  1.675
16348 1   20.951955 -4.771917e+00  1.675
16349 1   20.938515 -3.351981e+00  1.675
16350 1   22.161497 -2.630374e+00  1.675
16351 1   19.728973 -5.493524e+00  1.675
16352 1   18.492553 -4.795195e+00  1.675
16353 1   18.479113 -3.375259e+00  1.675
16354 1   19.702095 -2.653652e+00  1.675
16355 1   17.269571 -5.516802e+00  1.675
16356 1   16.033151 -4.818473e+00  1.675
16357 1   16.019711 -3.398536e+00  1.675
16358 1   17.242693 -2.676929e+00  1.675
16359 1   14.810169 -5.540080e+00  1.675
16360 1   13.573749 -4.841750e+00  1.675
16361 1   13.560309 -3.421814e+00  1.675
16362 1   14.783291 -2.700207e+00  1.675
16363 1   12.350767 -5.563357e+00  1.675
16364 1   11.114347 -4.865028e+00  1.675
16365 1   11.100907 -3.445092e+00  1.675
16366 1   12.323889 -2.723485e+00  1.675
16367 1    9.891365 -5.586635e+00  1.675
16368 1    8.654945 -4.888306e+00  1.675
16369 1    8.641505 -3.468369e+00  1.675
16370 1    9.864487 -2.746762e+00  1.675
16371 1    7.431963 -5.609913e+00  1.675
16372 1    6.195543 -4.911583e+00  1.675
16373 1    6.182103 -3.491647e+00  1.675
16374 1    7.405085 -2.770040e+00  1.675
16375 1    4.972561 -5.633190e+00  1.675
16376 1    3.736141 -4.934861e+00  1.675
16377 1    3.722701 -3.514925e+00  1.675
16378 1    4.945683 -2.793318e+00  1.675
16379 1    2.513159 -5.656468e+00  1.675
16380 1    1.276739 -4.958139e+00  1.675
16381 1    1.263299 -3.538202e+00  1.675
16382 1    2.486281 -2.816595e+00  1.675
16383 1    0.053757 -5.679746e+00  1.675
16384 1   -1.182663 -4.981416e+00  1.675
16385 1   -1.196103 -3.561480e+00  1.675
16386 1    0.026879 -2.839873e+00  1.675
16387 1   -2.405645 -5.703023e+00  1.675
16388 1   -3.642065 -5.004694e+00  1.675
16389 1   -3.655505 -3.584757e+00  1.675
16390 1   -2.432523 -2.863150e+00  1.675
16391 1   -4.865047 -5.726301e+00  1.675
16392 1   -6.101467 -5.027972e+00  1.675
16393 1   -6.114907 -3.608035e+00  1.675
16394 1   -4.891925 -2.886428e+00  1.675
16395 1   -7.324449 -5.749579e+00  1.675
16396 1   -8.560869 -5.051249e+00  1.675
16397 1   -8.574309 -3.631313e+00  1.675
16398 1   -7.351327 -2.909706e+00  1.675
16399 1   -9.783851 -5.772856e+00  1.675
16400 1  -11.020271 -5.074527e+00  1.675
16401 1  -11.033711 -3.654590e+00  1.675
16402 1   -9.810729 -2.932983e+00  1.675
16403 1  -12.243253 -5.796134e+00  1.675
16404 1  -13.479673 -5.097804e+00  1.675
16405 1  -13.493113 -3.677868e+00  1.675
16406 1  -12.270131 -2.956261e+00  1.675
16407 1  -14.702655 -5.819411e+00  1.675
16408 1  -15.939075 -5.121082e+00  1.675
16409 1  -15.952515 -3.701146e+00  1.675
16410 1  -14.729533 -2.979539e+00  1.675
16411 1  -17.162057 -5.842689e+00  1.675
16412 1  -18.398477 -5.144360e+00  1.675
16413 1  -18.411917 -3.724423e+00  1.675
16414 1  -17.188935 -3.002816e+00  1.675
16415 1  -19.621459 -5.865967e+00  1.675
16416 1  -20.857879 -5.167637e+00  1.675
16417 1  -20.871319 -3.747701e+00  1.675
16418 1  -19.648337 -3.026094e+00  1.675
16419 1  -22.080860 -5.889244e+00  1.675
16420 1  -23.317281 -5.190915e+00  1.675
16421 1  -23.330721 -3.770979e+00  1.675
16422 1  -22.107739 -3.049372e+00  1.675
16423 1  -24.540262 -5.912522e+00  1.675
16424 1  -25.776683 -5.214193e+00  1.675
16425 1  -25.790123 -3.794256e+00  1.675
16426 1  -24.567141 -3.072649e+00  1.675
16427 1  -26.999664 -5.935800e+00  1.675
16428 1  -28.236085 -5.237470e+00  1.675
16429 1  -28.249525 -3.817534e+00  1.675
16430 1  -27.026543 -3.095927e+00  1.675
16431 1  -29.459066 -5.959077e+00  1.675
16432 1  -30.695487 -5.260748e+00  1.675
16433 1  -30.708926 -3.840812e+00  1.675
16434 1  -29.485945 -3.119205e+00  1.675
16435 1  -31.918468 -5.982355e+00  1.675
16436 1  -33.154889 -5.284026e+00  1.675
16437 1  -33.168328 -3.864089e+00  1.675
16438 1  -31.945347 -3.142482e+00  1.675
16439 1  -34.377870 -6.005633e+00  1.675
16440 1  -35.614291 -5.307303e+00  1.675
16441 1  -35.627730 -3.887367e+00  1.675
16442 1  -34.404749 -3.165760e+00  1.675
16443 1  -36.837272 -6.028910e+00  1.675
16444 1  -38.073693 -5.330581e+00  1.675
16445 1  -38.087132 -3.910645e+00  1.675
16446 1  -36.864151 -3.189037e+00  1.675
16447 1  -39.296674 -6.052188e+00  1.675
16448 1  -40.533095 -5.353859e+00  1.675
16449 1  -40.546534 -3.933922e+00  1.675
16450 1  -39.323553 -3.212315e+00  1.675
16451 1  -41.756076 -6.075466e+00  1.675
16452 1  -42.992497 -5.377136e+00  1.675
16453 1  -43.005936 -3.957200e+00  1.675
16454 1  -41.782955 -3.235593e+00  1.675
16455 1  -44.215478 -6.098743e+00  1.675
16456 1  -45.451899 -5.400414e+00  1.675
16457 1  -45.465338 -3.980477e+00  1.675
16458 1  -44.242357 -3.258870e+00  1.675
16459 1  -46.674880 -6.122021e+00  1.675
16460 1  -47.911301 -5.423692e+00  1.675
16461 1  -47.924740 -4.003755e+00  1.675
16462 1  -46.701759 -3.282148e+00  1.675
16463 1  -49.134282 -6.145299e+00  1.675
16464 1  -50.370703 -5.446969e+00  1.675
16465 1  -50.384142 -4.027033e+00  1.675
16466 1  -49.161161 -3.305426e+00  1.675
16467 1  -51.593684 -6.168576e+00  1.675
16468 1  -52.830105 -5.470247e+00  1.675
16469 1  -52.843544 -4.050310e+00  1.675
16470 1  -51.620563 -3.328703e+00  1.675
16471 1  -54.053086 -6.191854e+00  1.675
16472 1  -55.289507 -5.493524e+00  1.675
16473 1  -55.302946 -4.073588e+00  1.675
16474 1  -54.079965 -3.351981e+00  1.675
16475 1  -56.512488 -6.215131e+00  1.675
16476 1  -57.748909 -5.516802e+00  1.675
16477 1  -57.762348 -4.096866e+00  1.675
16478 1  -56.539367 -3.375259e+00  1.675
16479 1  -58.971890 -6.238409e+00  1.675
16480 1  -60.208311 -5.540080e+00  1.675
16481 1  -60.221750 -4.120143e+00  1.675
16482 1  -58.998769 -3.398536e+00  1.675
16483 1  -61.431292 -6.261687e+00  1.675
16484 1  -62.667713 -5.563357e+00  1.675
16485 1  -62.681152 -4.143421e+00  1.675
16486 1  -61.458171 -3.421814e+00  1.675
16487 1  -63.890694 -6.284964e+00  1.675
16488 1  -65.127115 -5.586635e+00  1.675
16489 1  -65.140554 -4.166699e+00  1.675
16490 1  -63.917573 -3.445092e+00  1.675
16491 1  -66.350096 -6.308242e+00  1.675
16492 1  -67.586517 -5.609913e+00  1.675
16493 1  -67.599956 -4.189976e+00  1.675
16494 1  -66.376975 -3.468369e+00  1.675
16495 1  -68.809498 -6.331520e+00  1.675
16496 1  -70.045919 -5.633190e+00  1.675
16497 1  -70.059358 -4.213254e+00  1.675
16498 1  -68.836377 -3.491647e+00  1.675
16499 1  -71.268900 -6.354797e+00  1.675
16500 1  -72.505321 -5.656468e+00  1.675
16501 1  -72.518760 -4.236532e+00  1.675
16502 1  -71.295779 -3.514925e+00  1.675
16503 1  -73.728302 -6.378075e+00  1.675
16504 1  -74.964723 -5.679746e+00  1.675
16505 1  -74.978162 -4.259809e+00  1.675
16506 1  -73.755181 -3.538202e+00  1.675
16507 1  -76.187704 -6.401353e+00  1.675
16508 1  -77.424125 -5.703023e+00  1.675
16509 1  -77.437564 -4.283087e+00  1.675
16510 1  -76.214583 -3.561480e+00  1.675
16511 1  -78.647106 -6.424630e+00  1.675
16512 1  -79.883527 -5.726301e+00  1.675
16513 1  -79.896966 -4.306364e+00  1.675
16514 1  -78.673985 -3.584757e+00  1.675
16515 1  -81.106508 -6.447908e+00  1.675
16516 1  -82.342929 -5.749579e+00  1.675
16517 1  -82.356368 -4.329642e+00  1.675
16518 1  -81.133387 -3.608035e+00  1.675
16519 1  -83.565910 -6.471186e+00  1.675
16520 1  -84.802331 -5.772856e+00  1.675
16521 1  -84.815770 -4.352920e+00  1.675
16522 1  -83.592789 -3.631313e+00  1.675
16523 1  -86.025312 -6.494463e+00  1.675
16524 1  -87.261733 -5.796134e+00  1.675
16525 1  -87.275172 -4.376197e+00  1.675
16526 1  -86.052191 -3.654590e+00  1.675
16527 1  -88.484714 -6.517741e+00  1.675
16528 1  -89.721135 -5.819411e+00  1.675
16529 1  -89.734574 -4.399475e+00  1.675
16530 1  -88.511593 -3.677868e+00  1.675
16531 1  -90.944116 -6.541019e+00  1.675
16532 1  -92.180537 -5.842689e+00  1.675
16533 1  -92.193976 -4.422753e+00  1.675
16534 1  -90.970995 -3.701146e+00  1.675
16535 1  -93.403518 -6.564296e+00  1.675
16536 1  -94.639939 -5.865967e+00  1.675
16537 1  -94.653378 -4.446030e+00  1.675
16538 1  -93.430397 -3.724423e+00  1.675
16539 1  -95.862920 -6.587574e+00  1.675
16540 1  -97.099341 -5.889244e+00  1.675
16541 1  -97.112780 -4.469308e+00  1.675
16542 1  -95.889799 -3.747701e+00  1.675
16543 1  -98.322322 -6.610851e+00  1.675
16544 1  -99.558743 -5.912522e+00  1.675
16545 1  -99.572182 -4.492586e+00  1.675
16546 1  -98.349201 -3.770979e+00  1.675
16547 1 -100.781724 -6.634129e+00  1.675
16548 1 -102.018145 -5.935800e+00  1.675
16549 1 -102.031584 -4.515863e+00  1.675
16550 1 -100.808603 -3.794256e+00  1.675
16551 1 -103.241126 -6.657407e+00  1.675
16552 1 -104.477547 -5.959077e+00  1.675
16553 1 -104.490986 -4.539141e+00  1.675
16554 1 -103.268005 -3.817534e+00  1.675
16555 1 -105.700528 -6.680684e+00  1.675
16556 1 -106.936949 -5.982355e+00  1.675
16557 1 -106.950388 -4.562419e+00  1.675
16558 1 -105.727407 -3.840812e+00  1.675
16559 1 -108.159930 -6.703962e+00  1.675
16560 1 -109.396351 -6.005633e+00  1.675
16561 1 -109.409790 -4.585696e+00  1.675
16562 1 -108.186809 -3.864089e+00  1.675
16563 1 -110.619332 -6.727240e+00  1.675
16564 1 -111.855753 -6.028910e+00  1.675
16565 1 -111.869192 -4.608974e+00  1.675
16566 1 -110.646211 -3.887367e+00  1.675
16567 1  111.909510  3.491647e-01  1.675
16568 1  111.896071  1.769101e+00  1.675
16569 1  110.686529 -3.724423e-01  1.675
16570 1  109.450108  3.258870e-01  1.675
16571 1  109.436669  1.745823e+00  1.675
16572 1  110.659650  2.467430e+00  1.675
16573 1  108.227127 -3.957200e-01  1.675
16574 1  106.990706  3.026094e-01  1.675
16575 1  106.977267  1.722546e+00  1.675
16576 1  108.200248  2.444153e+00  1.675
16577 1  105.767725 -4.189976e-01  1.675
16578 1  104.531304  2.793318e-01  1.675
16579 1  104.517865  1.699268e+00  1.675
16580 1  105.740846  2.420875e+00  1.675
16581 1  103.308323 -4.422753e-01  1.675
16582 1  102.071902  2.560541e-01  1.675
16583 1  102.058463  1.675991e+00  1.675
16584 1  103.281444  2.397598e+00  1.675
16585 1  100.848921 -4.655529e-01  1.675
16586 1   99.612500  2.327765e-01  1.675
16587 1   99.599061  1.652713e+00  1.675
16588 1  100.822042  2.374320e+00  1.675
16589 1   98.389519 -4.888306e-01  1.675
16590 1   97.153098  2.094988e-01  1.675
16591 1   97.139659  1.629435e+00  1.675
16592 1   98.362640  2.351042e+00  1.675
16593 1   95.930117 -5.121082e-01  1.675
16594 1   94.693696  1.862212e-01  1.675
16595 1   94.680257  1.606158e+00  1.675
16596 1   95.903238  2.327765e+00  1.675
16597 1   93.470715 -5.353859e-01  1.675
16598 1   92.234294  1.629435e-01  1.675
16599 1   92.220855  1.582880e+00  1.675
16600 1   93.443836  2.304487e+00  1.675
16601 1   91.011313 -5.586635e-01  1.675
16602 1   89.774892  1.396659e-01  1.675
16603 1   89.761453  1.559602e+00  1.675
16604 1   90.984434  2.281209e+00  1.675
16605 1   88.551911 -5.819411e-01  1.675
16606 1   87.315490  1.163882e-01  1.675
16607 1   87.302051  1.536325e+00  1.675
16608 1   88.525032  2.257932e+00  1.675
16609 1   86.092509 -6.052188e-01  1.675
16610 1   84.856088  9.311058e-02  1.675
16611 1   84.842649  1.513047e+00  1.675
16612 1   86.065630  2.234654e+00  1.675
16613 1   83.633107 -6.284964e-01  1.675
16614 1   82.396686  6.983294e-02  1.675
16615 1   82.383247  1.489769e+00  1.675
16616 1   83.606228  2.211376e+00  1.675
16617 1   81.173705 -6.517741e-01  1.675
16618 1   79.937284  4.655529e-02  1.675
16619 1   79.923845  1.466492e+00  1.675
16620 1   81.146826  2.188099e+00  1.675
16621 1   78.714303 -6.750517e-01  1.675
16622 1   77.477882  2.327765e-02  1.675
16623 1   77.464443  1.443214e+00  1.675
16624 1   78.687424  2.164821e+00  1.675
16625 1   76.254901 -6.983294e-01  1.675
16626 1   75.018480 -7.346959e-15  1.675
16627 1   75.005041  1.419936e+00  1.675
16628 1   76.228022  2.141543e+00  1.675
16629 1   73.795499 -7.216070e-01  1.675
16630 1   72.559078 -2.327765e-02  1.675
16631 1   72.545639  1.396659e+00  1.675
16632 1   73.768620  2.118266e+00  1.675
16633 1   71.336097 -7.448847e-01  1.675
16634 1   70.099676 -4.655529e-02  1.675
16635 1   70.086237  1.373381e+00  1.675
16636 1   71.309218  2.094988e+00  1.675
16637 1   68.876695 -7.681623e-01  1.675
16638 1   67.640274 -6.983294e-02  1.675
16639 1   67.626835  1.350103e+00  1.675
16640 1   68.849816  2.071710e+00  1.675
16641 1   66.417293 -7.914400e-01  1.675
16642 1   65.180872 -9.311058e-02  1.675
16643 1   65.167433  1.326826e+00  1.675
16644 1   66.390414  2.048433e+00  1.675
16645 1   63.957891 -8.147176e-01  1.675
16646 1   62.721470 -1.163882e-01  1.675
16647 1   62.708031  1.303548e+00  1.675
16648 1   63.931012  2.025155e+00  1.675
16649 1   61.498489 -8.379953e-01  1.675
16650 1   60.262068 -1.396659e-01  1.675
16651 1   60.248629  1.280271e+00  1.675
16652 1   61.471610  2.001878e+00  1.675
16653 1   59.039087 -8.612729e-01  1.675
16654 1   57.802666 -1.629435e-01  1.675
16655 1   57.789227  1.256993e+00  1.675
16656 1   59.012208  1.978600e+00  1.675
16657 1   56.579685 -8.845505e-01  1.675
16658 1   55.343264 -1.862212e-01  1.675
16659 1   55.329825  1.233715e+00  1.675
16660 1   56.552806  1.955322e+00  1.675
16661 1   54.120283 -9.078282e-01  1.675
16662 1   52.883862 -2.094988e-01  1.675
16663 1   52.870423  1.210438e+00  1.675
16664 1   54.093404  1.932045e+00  1.675
16665 1   51.660881 -9.311058e-01  1.675
16666 1   50.424460 -2.327765e-01  1.675
16667 1   50.411021  1.187160e+00  1.675
16668 1   51.634002  1.908767e+00  1.675
16669 1   49.201479 -9.543835e-01  1.675
16670 1   47.965058 -2.560541e-01  1.675
16671 1   47.951619  1.163882e+00  1.675
16672 1   49.174600  1.885489e+00  1.675
16673 1   46.742077 -9.776611e-01  1.675
16674 1   45.505657 -2.793318e-01  1.675
16675 1   45.492217  1.140605e+00  1.675
16676 1   46.715198  1.862212e+00  1.675
16677 1   44.282675 -1.000939e+00  1.675
16678 1   43.046255 -3.026094e-01  1.675
16679 1   43.032815  1.117327e+00  1.675
16680 1   44.255796  1.838934e+00  1.675
16681 1   41.823273 -1.024216e+00  1.675
16682 1   40.586853 -3.258870e-01  1.675
16683 1   40.573413  1.094049e+00  1.675
16684 1   41.796394  1.815656e+00  1.675
16685 1   39.363871 -1.047494e+00  1.675
16686 1   38.127451 -3.491647e-01  1.675
16687 1   38.114011  1.070772e+00  1.675
16688 1   39.336992  1.792379e+00  1.675
16689 1   36.904469 -1.070772e+00  1.675
16690 1   35.668049 -3.724423e-01  1.675
16691 1   35.654609  1.047494e+00  1.675
16692 1   36.877591  1.769101e+00  1.675
16693 1   34.445067 -1.094049e+00  1.675
16694 1   33.208647 -3.957200e-01  1.675
16695 1   33.195207  1.024216e+00  1.675
16696 1   34.418189  1.745823e+00  1.675
16697 1   31.985665 -1.117327e+00  1.675
16698 1   30.749245 -4.189976e-01  1.675
16699 1   30.735805  1.000939e+00  1.675
16700 1   31.958787  1.722546e+00  1.675
16701 1   29.526263 -1.140605e+00  1.675
16702 1   28.289843 -4.422753e-01  1.675
16703 1   28.276403  9.776611e-01  1.675
16704 1   29.499385  1.699268e+00  1.675
16705 1   27.066861 -1.163882e+00  1.675
16706 1   25.830441 -4.655529e-01  1.675
16707 1   25.817001  9.543835e-01  1.675
16708 1   27.039983  1.675991e+00  1.675
16709 1   24.607459 -1.187160e+00  1.675
16710 1   23.371039 -4.888306e-01  1.675
16711 1   23.357599  9.311058e-01  1.675
16712 1   24.580581  1.652713e+00  1.675
16713 1   22.148057 -1.210438e+00  1.675
16714 1   20.911637 -5.121082e-01  1.675
16715 1   20.898197  9.078282e-01  1.675
16716 1   22.121179  1.629435e+00  1.675
16717 1   19.688655 -1.233715e+00  1.675
16718 1   18.452235 -5.353859e-01  1.675
16719 1   18.438795  8.845505e-01  1.675
16720 1   19.661777  1.606158e+00  1.675
16721 1   17.229253 -1.256993e+00  1.675
16722 1   15.992833 -5.586635e-01  1.675
16723 1   15.979393  8.612729e-01  1.675
16724 1   17.202375  1.582880e+00  1.675
16725 1   14.769851 -1.280271e+00  1.675
16726 1   13.533431 -5.819411e-01  1.675
16727 1   13.519991  8.379953e-01  1.675
16728 1   14.742973  1.559602e+00  1.675
16729 1   12.310449 -1.303548e+00  1.675
16730 1   11.074029 -6.052188e-01  1.675
16731 1   11.060589  8.147176e-01  1.675
16732 1   12.283571  1.536325e+00  1.675
16733 1    9.851047 -1.326826e+00  1.675
16734 1    8.614627 -6.284964e-01  1.675
16735 1    8.601187  7.914400e-01  1.675
16736 1    9.824169  1.513047e+00  1.675
16737 1    7.391645 -1.350103e+00  1.675
16738 1    6.155225 -6.517741e-01  1.675
16739 1    6.141785  7.681623e-01  1.675
16740 1    7.364767  1.489769e+00  1.675
16741 1    4.932243 -1.373381e+00  1.675
16742 1    3.695823 -6.750517e-01  1.675
16743 1    3.682383  7.448847e-01  1.675
16744 1    4.905365  1.466492e+00  1.675
16745 1    2.472841 -1.396659e+00  1.675
16746 1    1.236421 -6.983294e-01  1.675
16747 1    1.222981  7.216070e-01  1.675
16748 1    2.445963  1.443214e+00  1.675
16749 1    0.013439 -1.419936e+00  1.675
16750 1   -1.222981 -7.216070e-01  1.675
16751 1   -1.236421  6.983294e-01  1.675
16752 1   -0.013439  1.419936e+00  1.675
16753 1   -2.445963 -1.443214e+00  1.675
16754 1   -3.682383 -7.448847e-01  1.675
16755 1   -3.695823  6.750517e-01  1.675
16756 1   -2.472841  1.396659e+00  1.675
16757 1   -4.905365 -1.466492e+00  1.675
16758 1   -6.141785 -7.681623e-01  1.675
16759 1   -6.155225  6.517741e-01  1.675
16760 1   -4.932243  1.373381e+00  1.675
16761 1   -7.364767 -1.489769e+00  1.675
16762 1   -8.601187 -7.914400e-01  1.675
16763 1   -8.614627  6.284964e-01  1.675
16764 1   -7.391645  1.350103e+00  1.675
16765 1   -9.824169 -1.513047e+00  1.675
16766 1  -11.060589 -8.147176e-01  1.675
16767 1  -11.074029  6.052188e-01  1.675
16768 1   -9.851047  1.326826e+00  1.675
16769 1  -12.283571 -1.536325e+00  1.675
16770 1  -13.519991 -8.379953e-01  1.675
16771 1  -13.533431  5.819411e-01  1.675
16772 1  -12.310449  1.303548e+00  1.675
16773 1  -14.742973 -1.559602e+00  1.675
16774 1  -15.979393 -8.612729e-01  1.675
16775 1  -15.992833  5.586635e-01  1.675
16776 1  -14.769851  1.280271e+00  1.675
16777 1  -17.202375 -1.582880e+00  1.675
16778 1  -18.438795 -8.845505e-01  1.675
16779 1  -18.452235  5.353859e-01  1.675
16780 1  -17.229253  1.256993e+00  1.675
16781 1  -19.661777 -1.606158e+00  1.675
16782 1  -20.898197 -9.078282e-01  1.675
16783 1  -20.911637  5.121082e-01  1.675
16784 1  -19.688655  1.233715e+00  1.675
16785 1  -22.121179 -1.629435e+00  1.675
16786 1  -23.357599 -9.311058e-01  1.675
16787 1  -23.371039  4.888306e-01  1.675
16788 1  -22.148057  1.210438e+00  1.675
16789 1  -24.580581 -1.652713e+00  1.675
16790 1  -25.817001 -9.543835e-01  1.675
16791 1  -25.830441  4.655529e-01  1.675
16792 1  -24.607459  1.187160e+00  1.675
16793 1  -27.039983 -1.675991e+00  1.675
16794 1  -28.276403 -9.776611e-01  1.675
16795 1  -28.289843  4.422753e-01  1.675
16796 1  -27.066861  1.163882e+00  1.675
16797 1  -29.499385 -1.699268e+00  1.675
16798 1  -30.735805 -1.000939e+00  1.675
16799 1  -30.749245  4.189976e-01  1.675
16800 1  -29.526263  1.140605e+00  1.675
16801 1  -31.958787 -1.722546e+00  1.675
16802 1  -33.195207 -1.024216e+00  1.675
16803 1  -33.208647  3.957200e-01  1.675
16804 1  -31.985665  1.117327e+00  1.675
16805 1  -34.418189 -1.745823e+00  1.675
16806 1  -35.654609 -1.047494e+00  1.675
16807 1  -35.668049  3.724423e-01  1.675
16808 1  -34.445067  1.094049e+00  1.675
16809 1  -36.877591 -1.769101e+00  1.675
16810 1  -38.114011 -1.070772e+00  1.675
16811 1  -38.127451  3.491647e-01  1.675
16812 1  -36.904469  1.070772e+00  1.675
16813 1  -39.336992 -1.792379e+00  1.675
16814 1  -40.573413 -1.094049e+00  1.675
16815 1  -40.586853  3.258870e-01  1.675
16816 1  -39.363871  1.047494e+00  1.675
16817 1  -41.796394 -1.815656e+00  1.675
16818 1  -43.032815 -1.117327e+00  1.675
16819 1  -43.046255  3.026094e-01  1.675
16820 1  -41.823273  1.024216e+00  1.675
16821 1  -44.255796 -1.838934e+00  1.675
16822 1  -45.492217 -1.140605e+00  1.675
16823 1  -45.505657  2.793318e-01  1.675
16824 1  -44.282675  1.000939e+00  1.675
16825 1  -46.715198 -1.862212e+00  1.675
16826 1  -47.951619 -1.163882e+00  1.675
16827 1  -47.965058  2.560541e-01  1.675
16828 1  -46.742077  9.776611e-01  1.675
16829 1  -49.174600 -1.885489e+00  1.675
16830 1  -50.411021 -1.187160e+00  1.675
16831 1  -50.424460  2.327765e-01  1.675
16832 1  -49.201479  9.543835e-01  1.675
16833 1  -51.634002 -1.908767e+00  1.675
16834 1  -52.870423 -1.210438e+00  1.675
16835 1  -52.883862  2.094988e-01  1.675
16836 1  -51.660881  9.311058e-01  1.675
16837 1  -54.093404 -1.932045e+00  1.675
16838 1  -55.329825 -1.233715e+00  1.675
16839 1  -55.343264  1.862212e-01  1.675
16840 1  -54.120283  9.078282e-01  1.675
16841 1  -56.552806 -1.955322e+00  1.675
16842 1  -57.789227 -1.256993e+00  1.675
16843 1  -57.802666  1.629435e-01  1.675
16844 1  -56.579685  8.845505e-01  1.675
16845 1  -59.012208 -1.978600e+00  1.675
16846 1  -60.248629 -1.280271e+00  1.675
16847 1  -60.262068  1.396659e-01  1.675
16848 1  -59.039087  8.612729e-01  1.675
16849 1  -61.471610 -2.001878e+00  1.675
16850 1  -62.708031 -1.303548e+00  1.675
16851 1  -62.721470  1.163882e-01  1.675
16852 1  -61.498489  8.379953e-01  1.675
16853 1  -63.931012 -2.025155e+00  1.675
16854 1  -65.167433 -1.326826e+00  1.675
16855 1  -65.180872  9.311058e-02  1.675
16856 1  -63.957891  8.147176e-01  1.675
16857 1  -66.390414 -2.048433e+00  1.675
16858 1  -67.626835 -1.350103e+00  1.675
16859 1  -67.640274  6.983294e-02  1.675
16860 1  -66.417293  7.914400e-01  1.675
16861 1  -68.849816 -2.071710e+00  1.675
16862 1  -70.086237 -1.373381e+00  1.675
16863 1  -70.099676  4.655529e-02  1.675
16864 1  -68.876695  7.681623e-01  1.675
16865 1  -71.309218 -2.094988e+00  1.675
16866 1  -72.545639 -1.396659e+00  1.675
16867 1  -72.559078  2.327765e-02  1.675
16868 1  -71.336097  7.448847e-01  1.675
16869 1  -73.768620 -2.118266e+00  1.675
16870 1  -75.005041 -1.419936e+00  1.675
16871 1  -75.018480  2.087085e-15  1.675
16872 1  -73.795499  7.216070e-01  1.675
16873 1  -76.228022 -2.141543e+00  1.675
16874 1  -77.464443 -1.443214e+00  1.675
16875 1  -77.477882 -2.327765e-02  1.675
16876 1  -76.254901  6.983294e-01  1.675
16877 1  -78.687424 -2.164821e+00  1.675
16878 1  -79.923845 -1.466492e+00  1.675
16879 1  -79.937284 -4.655529e-02  1.675
16880 1  -78.714303  6.750517e-01  1.675
16881 1  -81.146826 -2.188099e+00  1.675
16882 1  -82.383247 -1.489769e+00  1.675
16883 1  -82.396686 -6.983294e-02  1.675
16884 1  -81.173705  6.517741e-01  1.675
16885 1  -83.606228 -2.211376e+00  1.675
16886 1  -84.842649 -1.513047e+00  1.675
16887 1  -84.856088 -9.311058e-02  1.675
16888 1  -83.633107  6.284964e-01  1.675
16889 1  -86.065630 -2.234654e+00  1.675
16890 1  -87.302051 -1.536325e+00  1.675
16891 1  -87.315490 -1.163882e-01  1.675
16892 1  -86.092509  6.052188e-01  1.675
16893 1  -88.525032 -2.257932e+00  1.675
16894 1  -89.761453 -1.559602e+00  1.675
16895 1  -89.774892 -1.396659e-01  1.675
16896 1  -88.551911  5.819411e-01  1.675
16897 1  -90.984434 -2.281209e+00  1.675
16898 1  -92.220855 -1.582880e+00  1.675
16899 1  -92.234294 -1.629435e-01  1.675
16900 1  -91.011313  5.586635e-01  1.675
16901 1  -93.443836 -2.304487e+00  1.675
16902 1  -94.680257 -1.606158e+00  1.675
16903 1  -94.693696 -1.862212e-01  1.675
16904 1  -93.470715  5.353859e-01  1.675
16905 1  -95.903238 -2.327765e+00  1.675
16906 1  -97.139659 -1.629435e+00  1.675
16907 1  -97.153098 -2.094988e-01  1.675
16908 1  -95.930117  5.121082e-01  1.675
16909 1  -98.362640 -2.351042e+00  1.675
16910 1  -99.599061 -1.652713e+00  1.675
16911 1  -99.612500 -2.327765e-01  1.675
16912 1  -98.389519  4.888306e-01  1.675
16913 1 -100.822042 -2.374320e+00  1.675
16914 1 -102.058463 -1.675991e+00  1.675
16915 1 -102.071902 -2.560541e-01  1.675
16916 1 -100.848921  4.655529e-01  1.675
16917 1 -103.281444 -2.397598e+00  1.675
16918 1 -104.517865 -1.699268e+00  1.675
16919 1 -104.531304 -2.793318e-01  1.675
16920 1 -103.308323  4.422753e-01  1.675
16921 1 -105.740846 -2.420875e+00  1.675
16922 1 -106.977267 -1.722546e+00  1.675
16923 1 -106.990706 -3.026094e-01  1.675
16924 1 -105.767725  4.189976e-01  1.675
16925 1 -108.200248 -2.444153e+00  1.675
16926 1 -109.436669 -1.745823e+00  1.675
16927 1 -109.450108 -3.258870e-01  1.675
16928 1 -108.227127  3.957200e-01  1.675
16929 1 -110.659650 -2.467430e+00  1.675
16930 1 -111.896071 -1.769101e+00  1.675
16931 1 -111.909510 -3.491647e-01  1.675
16932 1 -110.686529  3.724423e-01  1.675
16933 1  111.869192  4.608974e+00  1.675
16934 1  111.855753  6.028910e+00  1.675
16935 1  110.646211  3.887367e+00  1.675
16936 1  109.409790  4.585696e+00  1.675
16937 1  109.396351  6.005633e+00  1.675
16938 1  110.619332  6.727240e+00  1.675
16939 1  108.186809  3.864089e+00  1.675
16940 1  106.950388  4.562419e+00  1.675
16941 1  106.936949  5.982355e+00  1.675
16942 1  108.159930  6.703962e+00  1.675
16943 1  105.727407  3.840812e+00  1.675
16944 1  104.490986  4.539141e+00  1.675
16945 1  104.477547  5.959077e+00  1.675
16946 1  105.700528  6.680684e+00  1.675
16947 1  103.268005  3.817534e+00  1.675
16948 1  102.031584  4.515863e+00  1.675
16949 1  102.018145  5.935800e+00  1.675
16950 1  103.241126  6.657407e+00  1.675
16951 1  100.808603  3.794256e+00  1.675
16952 1   99.572182  4.492586e+00  1.675
16953 1   99.558743  5.912522e+00  1.675
16954 1  100.781724  6.634129e+00  1.675
16955 1   98.349201  3.770979e+00  1.675
16956 1   97.112780  4.469308e+00  1.675
16957 1   97.099341  5.889244e+00  1.675
16958 1   98.322322  6.610851e+00  1.675
16959 1   95.889799  3.747701e+00  1.675
16960 1   94.653378  4.446030e+00  1.675
16961 1   94.639939  5.865967e+00  1.675
16962 1   95.862920  6.587574e+00  1.675
16963 1   93.430397  3.724423e+00  1.675
16964 1   92.193976  4.422753e+00  1.675
16965 1   92.180537  5.842689e+00  1.675
16966 1   93.403518  6.564296e+00  1.675
16967 1   90.970995  3.701146e+00  1.675
16968 1   89.734574  4.399475e+00  1.675
16969 1   89.721135  5.819411e+00  1.675
16970 1   90.944116  6.541019e+00  1.675
16971 1   88.511593  3.677868e+00  1.675
16972 1   87.275172  4.376197e+00  1.675
16973 1   87.261733  5.796134e+00  1.675
16974 1   88.484714  6.517741e+00  1.675
16975 1   86.052191  3.654590e+00  1.675
16976 1   84.815770  4.352920e+00  1.675
16977 1   84.802331  5.772856e+00  1.675
16978 1   86.025312  6.494463e+00  1.675
16979 1   83.592789  3.631313e+00  1.675
16980 1   82.356368  4.329642e+00  1.675
16981 1   82.342929  5.749579e+00  1.675
16982 1   83.565910  6.471186e+00  1.675
16983 1   81.133387  3.608035e+00  1.675
16984 1   79.896966  4.306364e+00  1.675
16985 1   79.883527  5.726301e+00  1.675
16986 1   81.106508  6.447908e+00  1.675
16987 1   78.673985  3.584757e+00  1.675
16988 1   77.437564  4.283087e+00  1.675
16989 1   77.424125  5.703023e+00  1.675
16990 1   78.647106  6.424630e+00  1.675
16991 1   76.214583  3.561480e+00  1.675
16992 1   74.978162  4.259809e+00  1.675
16993 1   74.964723  5.679746e+00  1.675
16994 1   76.187704  6.401353e+00  1.675
16995 1   73.755181  3.538202e+00  1.675
16996 1   72.518760  4.236532e+00  1.675
16997 1   72.505321  5.656468e+00  1.675
16998 1   73.728302  6.378075e+00  1.675
16999 1   71.295779  3.514925e+00  1.675
17000 1   70.059358  4.213254e+00  1.675
17001 1   70.045919  5.633190e+00  1.675
17002 1   71.268900  6.354797e+00  1.675
17003 1   68.836377  3.491647e+00  1.675
17004 1   67.599956  4.189976e+00  1.675
17005 1   67.586517  5.609913e+00  1.675
17006 1   68.809498  6.331520e+00  1.675
17007 1   66.376975  3.468369e+00  1.675
17008 1   65.140554  4.166699e+00  1.675
17009 1   65.127115  5.586635e+00  1.675
17010 1   66.350096  6.308242e+00  1.675
17011 1   63.917573  3.445092e+00  1.675
17012 1   62.681152  4.143421e+00  1.675
17013 1   62.667713  5.563357e+00  1.675
17014 1   63.890694  6.284964e+00  1.675
17015 1   61.458171  3.421814e+00  1.675
17016 1   60.221750  4.120143e+00  1.675
17017 1   60.208311  5.540080e+00  1.675
17018 1   61.431292  6.261687e+00  1.675
17019 1   58.998769  3.398536e+00  1.675
17020 1   57.762348  4.096866e+00  1.675
17021 1   57.748909  5.516802e+00  1.675
17022 1   58.971890  6.238409e+00  1.675
17023 1   56.539367  3.375259e+00  1.675
17024 1   55.302946  4.073588e+00  1.675
17025 1   55.289507  5.493524e+00  1.675
17026 1   56.512488  6.215131e+00  1.675
17027 1   54.079965  3.351981e+00  1.675
17028 1   52.843544  4.050310e+00  1.675
17029 1   52.830105  5.470247e+00  1.675
17030 1   54.053086  6.191854e+00  1.675
17031 1   51.620563  3.328703e+00  1.675
17032 1   50.384142  4.027033e+00  1.675
17033 1   50.370703  5.446969e+00  1.675
17034 1   51.593684  6.168576e+00  1.675
17035 1   49.161161  3.305426e+00  1.675
17036 1   47.924740  4.003755e+00  1.675
17037 1   47.911301  5.423692e+00  1.675
17038 1   49.134282  6.145299e+00  1.675
17039 1   46.701759  3.282148e+00  1.675
17040 1   45.465338  3.980477e+00  1.675
17041 1   45.451899  5.400414e+00  1.675
17042 1   46.674880  6.122021e+00  1.675
17043 1   44.242357  3.258870e+00  1.675
17044 1   43.005936  3.957200e+00  1.675
17045 1   42.992497  5.377136e+00  1.675
17046 1   44.215478  6.098743e+00  1.675
17047 1   41.782955  3.235593e+00  1.675
17048 1   40.546534  3.933922e+00  1.675
17049 1   40.533095  5.353859e+00  1.675
17050 1   41.756076  6.075466e+00  1.675
17051 1   39.323553  3.212315e+00  1.675
17052 1   38.087132  3.910645e+00  1.675
17053 1   38.073693  5.330581e+00  1.675
17054 1   39.296674  6.052188e+00  1.675
17055 1   36.864151  3.189037e+00  1.675
17056 1   35.627730  3.887367e+00  1.675
17057 1   35.614291  5.307303e+00  1.675
17058 1   36.837272  6.028910e+00  1.675
17059 1   34.404749  3.165760e+00  1.675
17060 1   33.168328  3.864089e+00  1.675
17061 1   33.154889  5.284026e+00  1.675
17062 1   34.377870  6.005633e+00  1.675
17063 1   31.945347  3.142482e+00  1.675
17064 1   30.708926  3.840812e+00  1.675
17065 1   30.695487  5.260748e+00  1.675
17066 1   31.918468  5.982355e+00  1.675
17067 1   29.485945  3.119205e+00  1.675
17068 1   28.249525  3.817534e+00  1.675
17069 1   28.236085  5.237470e+00  1.675
17070 1   29.459066  5.959077e+00  1.675
17071 1   27.026543  3.095927e+00  1.675
17072 1   25.790123  3.794256e+00  1.675
17073 1   25.776683  5.214193e+00  1.675
17074 1   26.999664  5.935800e+00  1.675
17075 1   24.567141  3.072649e+00  1.675
17076 1   23.330721  3.770979e+00  1.675
17077 1   23.317281  5.190915e+00  1.675
17078 1   24.540262  5.912522e+00  1.675
17079 1   22.107739  3.049372e+00  1.675
17080 1   20.871319  3.747701e+00  1.675
17081 1   20.857879  5.167637e+00  1.675
17082 1   22.080860  5.889244e+00  1.675
17083 1   19.648337  3.026094e+00  1.675
17084 1   18.411917  3.724423e+00  1.675
17085 1   18.398477  5.144360e+00  1.675
17086 1   19.621459  5.865967e+00  1.675
17087 1   17.188935  3.002816e+00  1.675
17088 1   15.952515  3.701146e+00  1.675
17089 1   15.939075  5.121082e+00  1.675
17090 1   17.162057  5.842689e+00  1.675
17091 1   14.729533  2.979539e+00  1.675
17092 1   13.493113  3.677868e+00  1.675
17093 1   13.479673  5.097804e+00  1.675
17094 1   14.702655  5.819411e+00  1.675
17095 1   12.270131  2.956261e+00  1.675
17096 1   11.033711  3.654590e+00  1.675
17097 1   11.020271  5.074527e+00  1.675
17098 1   12.243253  5.796134e+00  1.675
17099 1    9.810729  2.932983e+00  1.675
17100 1    8.574309  3.631313e+00  1.675
17101 1    8.560869  5.051249e+00  1.675
17102 1    9.783851  5.772856e+00  1.675
17103 1    7.351327  2.909706e+00  1.675
17104 1    6.114907  3.608035e+00  1.675
17105 1    6.101467  5.027972e+00  1.675
17106 1    7.324449  5.749579e+00  1.675
17107 1    4.891925  2.886428e+00  1.675
17108 1    3.655505  3.584757e+00  1.675
17109 1    3.642065  5.004694e+00  1.675
17110 1    4.865047  5.726301e+00  1.675
17111 1    2.432523  2.863150e+00  1.675
17112 1    1.196103  3.561480e+00  1.675
17113 1    1.182663  4.981416e+00  1.675
17114 1    2.405645  5.703023e+00  1.675
17115 1   -0.026879  2.839873e+00  1.675
17116 1   -1.263299  3.538202e+00  1.675
17117 1   -1.276739  4.958139e+00  1.675
17118 1   -0.053757  5.679746e+00  1.675
17119 1   -2.486281  2.816595e+00  1.675
17120 1   -3.722701  3.514925e+00  1.675
17121 1   -3.736141  4.934861e+00  1.675
17122 1   -2.513159  5.656468e+00  1.675
17123 1   -4.945683  2.793318e+00  1.675
17124 1   -6.182103  3.491647e+00  1.675
17125 1   -6.195543  4.911583e+00  1.675
17126 1   -4.972561  5.633190e+00  1.675
17127 1   -7.405085  2.770040e+00  1.675
17128 1   -8.641505  3.468369e+00  1.675
17129 1   -8.654945  4.888306e+00  1.675
17130 1   -7.431963  5.609913e+00  1.675
17131 1   -9.864487  2.746762e+00  1.675
17132 1  -11.100907  3.445092e+00  1.675
17133 1  -11.114347  4.865028e+00  1.675
17134 1   -9.891365  5.586635e+00  1.675
17135 1  -12.323889  2.723485e+00  1.675
17136 1  -13.560309  3.421814e+00  1.675
17137 1  -13.573749  4.841750e+00  1.675
17138 1  -12.350767  5.563357e+00  1.675
17139 1  -14.783291  2.700207e+00  1.675
17140 1  -16.019711  3.398536e+00  1.675
17141 1  -16.033151  4.818473e+00  1.675
17142 1  -14.810169  5.540080e+00  1.675
17143 1  -17.242693  2.676929e+00  1.675
17144 1  -18.479113  3.375259e+00  1.675
17145 1  -18.492553  4.795195e+00  1.675
17146 1  -17.269571  5.516802e+00  1.675
17147 1  -19.702095  2.653652e+00  1.675
17148 1  -20.938515  3.351981e+00  1.675
17149 1  -20.951955  4.771917e+00  1.675
17150 1  -19.728973  5.493524e+00  1.675
17151 1  -22.161497  2.630374e+00  1.675
17152 1  -23.397917  3.328703e+00  1.675
17153 1  -23.411357  4.748640e+00  1.675
17154 1  -22.188375  5.470247e+00  1.675
17155 1  -24.620899  2.607096e+00  1.675
17156 1  -25.857319  3.305426e+00  1.675
17157 1  -25.870759  4.725362e+00  1.675
17158 1  -24.647777  5.446969e+00  1.675
17159 1  -27.080301  2.583819e+00  1.675
17160 1  -28.316721  3.282148e+00  1.675
17161 1  -28.330161  4.702084e+00  1.675
17162 1  -27.107179  5.423692e+00  1.675
17163 1  -29.539703  2.560541e+00  1.675
17164 1  -30.776123  3.258870e+00  1.675
17165 1  -30.789563  4.678807e+00  1.675
17166 1  -29.566581  5.400414e+00  1.675
17167 1  -31.999105  2.537263e+00  1.675
17168 1  -33.235525  3.235593e+00  1.675
17169 1  -33.248965  4.655529e+00  1.675
17170 1  -32.025983  5.377136e+00  1.675
17171 1  -34.458507  2.513986e+00  1.675
17172 1  -35.694927  3.212315e+00  1.675
17173 1  -35.708367  4.632252e+00  1.675
17174 1  -34.485385  5.353859e+00  1.675
17175 1  -36.917909  2.490708e+00  1.675
17176 1  -38.154329  3.189037e+00  1.675
17177 1  -38.167769  4.608974e+00  1.675
17178 1  -36.944787  5.330581e+00  1.675
17179 1  -39.377311  2.467430e+00  1.675
17180 1  -40.613731  3.165760e+00  1.675
17181 1  -40.627171  4.585696e+00  1.675
17182 1  -39.404189  5.307303e+00  1.675
17183 1  -41.836713  2.444153e+00  1.675
17184 1  -43.073133  3.142482e+00  1.675
17185 1  -43.086573  4.562419e+00  1.675
17186 1  -41.863591  5.284026e+00  1.675
17187 1  -44.296115  2.420875e+00  1.675
17188 1  -45.532535  3.119205e+00  1.675
17189 1  -45.545975  4.539141e+00  1.675
17190 1  -44.322993  5.260748e+00  1.675
17191 1  -46.755517  2.397598e+00  1.675
17192 1  -47.991937  3.095927e+00  1.675
17193 1  -48.005377  4.515863e+00  1.675
17194 1  -46.782395  5.237470e+00  1.675
17195 1  -49.214919  2.374320e+00  1.675
17196 1  -50.451339  3.072649e+00  1.675
17197 1  -50.464779  4.492586e+00  1.675
17198 1  -49.241797  5.214193e+00  1.675
17199 1  -51.674321  2.351042e+00  1.675
17200 1  -52.910741  3.049372e+00  1.675
17201 1  -52.924181  4.469308e+00  1.675
17202 1  -51.701199  5.190915e+00  1.675
17203 1  -54.133723  2.327765e+00  1.675
17204 1  -55.370143  3.026094e+00  1.675
17205 1  -55.383583  4.446030e+00  1.675
17206 1  -54.160601  5.167637e+00  1.675
17207 1  -56.593124  2.304487e+00  1.675
17208 1  -57.829545  3.002816e+00  1.675
17209 1  -57.842985  4.422753e+00  1.675
17210 1  -56.620003  5.144360e+00  1.675
17211 1  -59.052526  2.281209e+00  1.675
17212 1  -60.288947  2.979539e+00  1.675
17213 1  -60.302387  4.399475e+00  1.675
17214 1  -59.079405  5.121082e+00  1.675
17215 1  -61.511928  2.257932e+00  1.675
17216 1  -62.748349  2.956261e+00  1.675
17217 1  -62.761789  4.376197e+00  1.675
17218 1  -61.538807  5.097804e+00  1.675
17219 1  -63.971330  2.234654e+00  1.675
17220 1  -65.207751  2.932983e+00  1.675
17221 1  -65.221190  4.352920e+00  1.675
17222 1  -63.998209  5.074527e+00  1.675
17223 1  -66.430732  2.211376e+00  1.675
17224 1  -67.667153  2.909706e+00  1.675
17225 1  -67.680592  4.329642e+00  1.675
17226 1  -66.457611  5.051249e+00  1.675
17227 1  -68.890134  2.188099e+00  1.675
17228 1  -70.126555  2.886428e+00  1.675
17229 1  -70.139994  4.306364e+00  1.675
17230 1  -68.917013  5.027972e+00  1.675
17231 1  -71.349536  2.164821e+00  1.675
17232 1  -72.585957  2.863150e+00  1.675
17233 1  -72.599396  4.283087e+00  1.675
17234 1  -71.376415  5.004694e+00  1.675
17235 1  -73.808938  2.141543e+00  1.675
17236 1  -75.045359  2.839873e+00  1.675
17237 1  -75.058798  4.259809e+00  1.675
17238 1  -73.835817  4.981416e+00  1.675
17239 1  -76.268340  2.118266e+00  1.675
17240 1  -77.504761  2.816595e+00  1.675
17241 1  -77.518200  4.236532e+00  1.675
17242 1  -76.295219  4.958139e+00  1.675
17243 1  -78.727742  2.094988e+00  1.675
17244 1  -79.964163  2.793318e+00  1.675
17245 1  -79.977602  4.213254e+00  1.675
17246 1  -78.754621  4.934861e+00  1.675
17247 1  -81.187144  2.071710e+00  1.675
17248 1  -82.423565  2.770040e+00  1.675
17249 1  -82.437004  4.189976e+00  1.675
17250 1  -81.214023  4.911583e+00  1.675
17251 1  -83.646546  2.048433e+00  1.675
17252 1  -84.882967  2.746762e+00  1.675
17253 1  -84.896406  4.166699e+00  1.675
17254 1  -83.673425  4.888306e+00  1.675
17255 1  -86.105948  2.025155e+00  1.675
17256 1  -87.342369  2.723485e+00  1.675
17257 1  -87.355808  4.143421e+00  1.675
17258 1  -86.132827  4.865028e+00  1.675
17259 1  -88.565350  2.001878e+00  1.675
17260 1  -89.801771  2.700207e+00  1.675
17261 1  -89.815210  4.120143e+00  1.675
17262 1  -88.592229  4.841750e+00  1.675
17263 1  -91.024752  1.978600e+00  1.675
17264 1  -92.261173  2.676929e+00  1.675
17265 1  -92.274612  4.096866e+00  1.675
17266 1  -91.051631  4.818473e+00  1.675
17267 1  -93.484154  1.955322e+00  1.675
17268 1  -94.720575  2.653652e+00  1.675
17269 1  -94.734014  4.073588e+00  1.675
17270 1  -93.511033  4.795195e+00  1.675
17271 1  -95.943556  1.932045e+00  1.675
17272 1  -97.179977  2.630374e+00  1.675
17273 1  -97.193416  4.050310e+00  1.675
17274 1  -95.970435  4.771917e+00  1.675
17275 1  -98.402958  1.908767e+00  1.675
17276 1  -99.639379  2.607096e+00  1.675
17277 1  -99.652818  4.027033e+00  1.675
17278 1  -98.429837  4.748640e+00  1.675
17279 1 -100.862360  1.885489e+00  1.675
17280 1 -102.098781  2.583819e+00  1.675
17281 1 -102.112220  4.003755e+00  1.675
17282 1 -100.889239  4.725362e+00  1.675
17283 1 -103.321762  1.862212e+00  1.675
17284 1 -104.558183  2.560541e+00  1.675
17285 1 -104.571622  3.980477e+00  1.675
17286 1 -103.348641  4.702084e+00  1.675
17287 1 -105.781164  1.838934e+00  1.675
17288 1 -107.017585  2.537263e+00  1.675
17289 1 -107.031024  3.957200e+00  1.675
17290 1 -105.808043  4.678807e+00  1.675
17291 1 -108.240566  1.815656e+00  1.675
17292 1 -109.476987  2.513986e+00  1.675
17293 1 -109.490426  3.933922e+00  1.675
17294 1 -108.267445  4.655529e+00  1.675
17295 1 -110.699968  1.792379e+00  1.675
17296 1 -111.936389  2.490708e+00  1.675
17297 1 -111.949828  3.910645e+00  1.675
17298 1 -110.726847  4.632252e+00  1.675
17299 1  111.828874  8.868783e+00  1.675
17300 1  111.815435  1.028872e+01  1.675
17301 1  110.605893  8.147176e+00  1.675
17302 1  109.369472  8.845505e+00  1.675
17303 1  109.356033  1.026544e+01  1.675
17304 1  110.579014  1.098705e+01  1.675
17305 1  108.146491  8.123898e+00  1.675
17306 1  106.910070  8.822228e+00  1.675
17307 1  106.896631  1.024216e+01  1.675
17308 1  108.119612  1.096377e+01  1.675
17309 1  105.687089  8.100621e+00  1.675
17310 1  104.450668  8.798950e+00  1.675
17311 1  104.437229  1.021889e+01  1.675
17312 1  105.660210  1.094049e+01  1.675
17313 1  103.227687  8.077343e+00  1.675
17314 1  101.991266  8.775673e+00  1.675
17315 1  101.977827  1.019561e+01  1.675
17316 1  103.200808  1.091722e+01  1.675
17317 1  100.768285  8.054065e+00  1.675
17318 1   99.531864  8.752395e+00  1.675
17319 1   99.518425  1.017233e+01  1.675
17320 1  100.741406  1.089394e+01  1.675
17321 1   98.308883  8.030788e+00  1.675
17322 1   97.072462  8.729117e+00  1.675
17323 1   97.059023  1.014905e+01  1.675
17324 1   98.282004  1.087066e+01  1.675
17325 1   95.849481  8.007510e+00  1.675
17326 1   94.613060  8.705840e+00  1.675
17327 1   94.599621  1.012578e+01  1.675
17328 1   95.822602  1.084738e+01  1.675
17329 1   93.390079  7.984233e+00  1.675
17330 1   92.153658  8.682562e+00  1.675
17331 1   92.140219  1.010250e+01  1.675
17332 1   93.363200  1.082411e+01  1.675
17333 1   90.930677  7.960955e+00  1.675
17334 1   89.694256  8.659284e+00  1.675
17335 1   89.680817  1.007922e+01  1.675
17336 1   90.903798  1.080083e+01  1.675
17337 1   88.471275  7.937677e+00  1.675
17338 1   87.234854  8.636007e+00  1.675
17339 1   87.221415  1.005594e+01  1.675
17340 1   88.444396  1.077755e+01  1.675
17341 1   86.011873  7.914400e+00  1.675
17342 1   84.775452  8.612729e+00  1.675
17343 1   84.762013  1.003267e+01  1.675
17344 1   85.984994  1.075427e+01  1.675
17345 1   83.552471  7.891122e+00  1.675
17346 1   82.316050  8.589451e+00  1.675
17347 1   82.302611  1.000939e+01  1.675
17348 1   83.525592  1.073099e+01  1.675
17349 1   81.093069  7.867844e+00  1.675
17350 1   79.856648  8.566174e+00  1.675
17351 1   79.843209  9.986110e+00  1.675
17352 1   81.066190  1.070772e+01  1.675
17353 1   78.633667  7.844567e+00  1.675
17354 1   77.397246  8.542896e+00  1.675
17355 1   77.383807  9.962832e+00  1.675
17356 1   78.606788  1.068444e+01  1.675
17357 1   76.174265  7.821289e+00  1.675
17358 1   74.937844  8.519618e+00  1.675
17359 1   74.924405  9.939555e+00  1.675
17360 1   76.147386  1.066116e+01  1.675
17361 1   73.714863  7.798011e+00  1.675
17362 1   72.478442  8.496341e+00  1.675
17363 1   72.465003  9.916277e+00  1.675
17364 1   73.687984  1.063788e+01  1.675
17365 1   71.255461  7.774734e+00  1.675
17366 1   70.019040  8.473063e+00  1.675
17367 1   70.005601  9.893000e+00  1.675
17368 1   71.228582  1.061461e+01  1.675
17369 1   68.796059  7.751456e+00  1.675
17370 1   67.559638  8.449785e+00  1.675
17371 1   67.546199  9.869722e+00  1.675
17372 1   68.769180  1.059133e+01  1.675
17373 1   66.336657  7.728178e+00  1.675
17374 1   65.100236  8.426508e+00  1.675
17375 1   65.086797  9.846444e+00  1.675
17376 1   66.309778  1.056805e+01  1.675
17377 1   63.877255  7.704901e+00  1.675
17378 1   62.640834  8.403230e+00  1.675
17379 1   62.627395  9.823167e+00  1.675
17380 1   63.850376  1.054477e+01  1.675
17381 1   61.417853  7.681623e+00  1.675
17382 1   60.181432  8.379953e+00  1.675
17383 1   60.167993  9.799889e+00  1.675
17384 1   61.390974  1.052150e+01  1.675
17385 1   58.958451  7.658346e+00  1.675
17386 1   57.722030  8.356675e+00  1.675
17387 1   57.708591  9.776611e+00  1.675
17388 1   58.931572  1.049822e+01  1.675
17389 1   56.499049  7.635068e+00  1.675
17390 1   55.262628  8.333397e+00  1.675
17391 1   55.249189  9.753334e+00  1.675
17392 1   56.472170  1.047494e+01  1.675
17393 1   54.039647  7.611790e+00  1.675
17394 1   52.803226  8.310120e+00  1.675
17395 1   52.789787  9.730056e+00  1.675
17396 1   54.012768  1.045166e+01  1.675
17397 1   51.580245  7.588513e+00  1.675
17398 1   50.343824  8.286842e+00  1.675
17399 1   50.330385  9.706778e+00  1.675
17400 1   51.553366  1.042839e+01  1.675
17401 1   49.120843  7.565235e+00  1.675
17402 1   47.884422  8.263564e+00  1.675
17403 1   47.870983  9.683501e+00  1.675
17404 1   49.093964  1.040511e+01  1.675
17405 1   46.661441  7.541957e+00  1.675
17406 1   45.425020  8.240287e+00  1.675
17407 1   45.411581  9.660223e+00  1.675
17408 1   46.634562  1.038183e+01  1.675
17409 1   44.202039  7.518680e+00  1.675
17410 1   42.965618  8.217009e+00  1.675
17411 1   42.952179  9.636945e+00  1.675
17412 1   44.175160  1.035855e+01  1.675
17413 1   41.742637  7.495402e+00  1.675
17414 1   40.506216  8.193731e+00  1.675
17415 1   40.492777  9.613668e+00  1.675
17416 1   41.715758  1.033527e+01  1.675
17417 1   39.283235  7.472124e+00  1.675
17418 1   38.046814  8.170454e+00  1.675
17419 1   38.033375  9.590390e+00  1.675
17420 1   39.256356  1.031200e+01  1.675
17421 1   36.823833  7.448847e+00  1.675
17422 1   35.587412  8.147176e+00  1.675
17423 1   35.573973  9.567112e+00  1.675
17424 1   36.796954  1.028872e+01  1.675
17425 1   34.364431  7.425569e+00  1.675
17426 1   33.128010  8.123898e+00  1.675
17427 1   33.114571  9.543835e+00  1.675
17428 1   34.337552  1.026544e+01  1.675
17429 1   31.905029  7.402291e+00  1.675
17430 1   30.668608  8.100621e+00  1.675
17431 1   30.655169  9.520557e+00  1.675
17432 1   31.878150  1.024216e+01  1.675
17433 1   29.445627  7.379014e+00  1.675
17434 1   28.209206  8.077343e+00  1.675
17435 1   28.195767  9.497280e+00  1.675
17436 1   29.418748  1.021889e+01  1.675
17437 1   26.986225  7.355736e+00  1.675
17438 1   25.749804  8.054065e+00  1.675
17439 1   25.736365  9.474002e+00  1.675
17440 1   26.959346  1.019561e+01  1.675
17441 1   24.526823  7.332458e+00  1.675
17442 1   23.290402  8.030788e+00  1.675
17443 1   23.276963  9.450724e+00  1.675
17444 1   24.499944  1.017233e+01  1.675
17445 1   22.067421  7.309181e+00  1.675
17446 1   20.831000  8.007510e+00  1.675
17447 1   20.817561  9.427447e+00  1.675
17448 1   22.040542  1.014905e+01  1.675
17449 1   19.608019  7.285903e+00  1.675
17450 1   18.371598  7.984233e+00  1.675
17451 1   18.358159  9.404169e+00  1.675
17452 1   19.581140  1.012578e+01  1.675
17453 1   17.148617  7.262626e+00  1.675
17454 1   15.912196  7.960955e+00  1.675
17455 1   15.898757  9.380891e+00  1.675
17456 1   17.121738  1.010250e+01  1.675
17457 1   14.689215  7.239348e+00  1.675
17458 1   13.452794  7.937677e+00  1.675
17459 1   13.439355  9.357614e+00  1.675
17460 1   14.662336  1.007922e+01  1.675
17461 1   12.229813  7.216070e+00  1.675
17462 1   10.993393  7.914400e+00  1.675
17463 1   10.979953  9.334336e+00  1.675
17464 1   12.202934  1.005594e+01  1.675
17465 1    9.770411  7.192793e+00  1.675
17466 1    8.533991  7.891122e+00  1.675
17467 1    8.520551  9.311058e+00  1.675
17468 1    9.743532  1.003267e+01  1.675
17469 1    7.311009  7.169515e+00  1.675
17470 1    6.074589  7.867844e+00  1.675
17471 1    6.061149  9.287781e+00  1.675
17472 1    7.284130  1.000939e+01  1.675
17473 1    4.851607  7.146237e+00  1.675
17474 1    3.615187  7.844567e+00  1.675
17475 1    3.601747  9.264503e+00  1.675
17476 1    4.824728  9.986110e+00  1.675
17477 1    2.392205  7.122960e+00  1.675
17478 1    1.155785  7.821289e+00  1.675
17479 1    1.142345  9.241225e+00  1.675
17480 1    2.365327  9.962832e+00  1.675
17481 1   -0.067197  7.099682e+00  1.675
17482 1   -1.303617  7.798011e+00  1.675
17483 1   -1.317057  9.217948e+00  1.675
17484 1   -0.094075  9.939555e+00  1.675
17485 1   -2.526599  7.076404e+00  1.675
17486 1   -3.763019  7.774734e+00  1.675
17487 1   -3.776459  9.194670e+00  1.675
17488 1   -2.553477  9.916277e+00  1.675
17489 1   -4.986001  7.053127e+00  1.675
17490 1   -6.222421  7.751456e+00  1.675
17491 1   -6.235861  9.171392e+00  1.675
17492 1   -5.012879  9.893000e+00  1.675
17493 1   -7.445403  7.029849e+00  1.675
17494 1   -8.681823  7.728178e+00  1.675
17495 1   -8.695263  9.148115e+00  1.675
17496 1   -7.472281  9.869722e+00  1.675
17497 1   -9.904805  7.006571e+00  1.675
17498 1  -11.141225  7.704901e+00  1.675
17499 1  -11.154665  9.124837e+00  1.675
17500 1   -9.931683  9.846444e+00  1.675
17501 1  -12.364207  6.983294e+00  1.675
17502 1  -13.600627  7.681623e+00  1.675
17503 1  -13.614067  9.101560e+00  1.675
17504 1  -12.391085  9.823167e+00  1.675
17505 1  -14.823609  6.960016e+00  1.675
17506 1  -16.060029  7.658346e+00  1.675
17507 1  -16.073469  9.078282e+00  1.675
17508 1  -14.850487  9.799889e+00  1.675
17509 1  -17.283011  6.936738e+00  1.675
17510 1  -18.519431  7.635068e+00  1.675
17511 1  -18.532871  9.055004e+00  1.675
17512 1  -17.309889  9.776611e+00  1.675
17513 1  -19.742413  6.913461e+00  1.675
17514 1  -20.978833  7.611790e+00  1.675
17515 1  -20.992273  9.031727e+00  1.675
17516 1  -19.769291  9.753334e+00  1.675
17517 1  -22.201815  6.890183e+00  1.675
17518 1  -23.438235  7.588513e+00  1.675
17519 1  -23.451675  9.008449e+00  1.675
17520 1  -22.228693  9.730056e+00  1.675
17521 1  -24.661217  6.866906e+00  1.675
17522 1  -25.897637  7.565235e+00  1.675
17523 1  -25.911077  8.985171e+00  1.675
17524 1  -24.688095  9.706778e+00  1.675
17525 1  -27.120619  6.843628e+00  1.675
17526 1  -28.357039  7.541957e+00  1.675
17527 1  -28.370479  8.961894e+00  1.675
17528 1  -27.147497  9.683501e+00  1.675
17529 1  -29.580021  6.820350e+00  1.675
17530 1  -30.816441  7.518680e+00  1.675
17531 1  -30.829881  8.938616e+00  1.675
17532 1  -29.606899  9.660223e+00  1.675
17533 1  -32.039423  6.797073e+00  1.675
17534 1  -33.275843  7.495402e+00  1.675
17535 1  -33.289283  8.915338e+00  1.675
17536 1  -32.066301  9.636945e+00  1.675
17537 1  -34.498825  6.773795e+00  1.675
17538 1  -35.735245  7.472124e+00  1.675
17539 1  -35.748685  8.892061e+00  1.675
17540 1  -34.525703  9.613668e+00  1.675
17541 1  -36.958227  6.750517e+00  1.675
17542 1  -38.194647  7.448847e+00  1.675
17543 1  -38.208087  8.868783e+00  1.675
17544 1  -36.985105  9.590390e+00  1.675
17545 1  -39.417629  6.727240e+00  1.675
17546 1  -40.654049  7.425569e+00  1.675
17547 1  -40.667489  8.845505e+00  1.675
17548 1  -39.444507  9.567112e+00  1.675
17549 1  -41.877031  6.703962e+00  1.675
17550 1  -43.113451  7.402291e+00  1.675
17551 1  -43.126891  8.822228e+00  1.675
17552 1  -41.903909  9.543835e+00  1.675
17553 1  -44.336433  6.680684e+00  1.675
17554 1  -45.572853  7.379014e+00  1.675
17555 1  -45.586293  8.798950e+00  1.675
17556 1  -44.363311  9.520557e+00  1.675
17557 1  -46.795835  6.657407e+00  1.675
17558 1  -48.032255  7.355736e+00  1.675
17559 1  -48.045695  8.775673e+00  1.675
17560 1  -46.822713  9.497280e+00  1.675
17561 1  -49.255237  6.634129e+00  1.675
17562 1  -50.491657  7.332458e+00  1.675
17563 1  -50.505097  8.752395e+00  1.675
17564 1  -49.282115  9.474002e+00  1.675
17565 1  -51.714639  6.610851e+00  1.675
17566 1  -52.951059  7.309181e+00  1.675
17567 1  -52.964499  8.729117e+00  1.675
17568 1  -51.741517  9.450724e+00  1.675
17569 1  -54.174041  6.587574e+00  1.675
17570 1  -55.410461  7.285903e+00  1.675
17571 1  -55.423901  8.705840e+00  1.675
17572 1  -54.200919  9.427447e+00  1.675
17573 1  -56.633443  6.564296e+00  1.675
17574 1  -57.869863  7.262626e+00  1.675
17575 1  -57.883303  8.682562e+00  1.675
17576 1  -56.660321  9.404169e+00  1.675
17577 1  -59.092845  6.541019e+00  1.675
17578 1  -60.329265  7.239348e+00  1.675
17579 1  -60.342705  8.659284e+00  1.675
17580 1  -59.119723  9.380891e+00  1.675
17581 1  -61.552247  6.517741e+00  1.675
17582 1  -62.788667  7.216070e+00  1.675
17583 1  -62.802107  8.636007e+00  1.675
17584 1  -61.579125  9.357614e+00  1.675
17585 1  -64.011649  6.494463e+00  1.675
17586 1  -65.248069  7.192793e+00  1.675
17587 1  -65.261509  8.612729e+00  1.675
17588 1  -64.038527  9.334336e+00  1.675
17589 1  -66.471051  6.471186e+00  1.675
17590 1  -67.707471  7.169515e+00  1.675
17591 1  -67.720911  8.589451e+00  1.675
17592 1  -66.497929  9.311058e+00  1.675
17593 1  -68.930453  6.447908e+00  1.675
17594 1  -70.166873  7.146237e+00  1.675
17595 1  -70.180313  8.566174e+00  1.675
17596 1  -68.957331  9.287781e+00  1.675
17597 1  -71.389855  6.424630e+00  1.675
17598 1  -72.626275  7.122960e+00  1.675
17599 1  -72.639715  8.542896e+00  1.675
17600 1  -71.416733  9.264503e+00  1.675
17601 1  -73.849256  6.401353e+00  1.675
17602 1  -75.085677  7.099682e+00  1.675
17603 1  -75.099117  8.519618e+00  1.675
17604 1  -73.876135  9.241225e+00  1.675
17605 1  -76.308658  6.378075e+00  1.675
17606 1  -77.545079  7.076404e+00  1.675
17607 1  -77.558519  8.496341e+00  1.675
17608 1  -76.335537  9.217948e+00  1.675
17609 1  -78.768060  6.354797e+00  1.675
17610 1  -80.004481  7.053127e+00  1.675
17611 1  -80.017921  8.473063e+00  1.675
17612 1  -78.794939  9.194670e+00  1.675
17613 1  -81.227462  6.331520e+00  1.675
17614 1  -82.463883  7.029849e+00  1.675
17615 1  -82.477322  8.449785e+00  1.675
17616 1  -81.254341  9.171392e+00  1.675
17617 1  -83.686864  6.308242e+00  1.675
17618 1  -84.923285  7.006571e+00  1.675
17619 1  -84.936724  8.426508e+00  1.675
17620 1  -83.713743  9.148115e+00  1.675
17621 1  -86.146266  6.284964e+00  1.675
17622 1  -87.382687  6.983294e+00  1.675
17623 1  -87.396126  8.403230e+00  1.675
17624 1  -86.173145  9.124837e+00  1.675
17625 1  -88.605668  6.261687e+00  1.675
17626 1  -89.842089  6.960016e+00  1.675
17627 1  -89.855528  8.379953e+00  1.675
17628 1  -88.632547  9.101560e+00  1.675
17629 1  -91.065070  6.238409e+00  1.675
17630 1  -92.301491  6.936738e+00  1.675
17631 1  -92.314930  8.356675e+00  1.675
17632 1  -91.091949  9.078282e+00  1.675
17633 1  -93.524472  6.215131e+00  1.675
17634 1  -94.760893  6.913461e+00  1.675
17635 1  -94.774332  8.333397e+00  1.675
17636 1  -93.551351  9.055004e+00  1.675
17637 1  -95.983874  6.191854e+00  1.675
17638 1  -97.220295  6.890183e+00  1.675
17639 1  -97.233734  8.310120e+00  1.675
17640 1  -96.010753  9.031727e+00  1.675
17641 1  -98.443276  6.168576e+00  1.675
17642 1  -99.679697  6.866906e+00  1.675
17643 1  -99.693136  8.286842e+00  1.675
17644 1  -98.470155  9.008449e+00  1.675
17645 1 -100.902678  6.145299e+00  1.675
17646 1 -102.139099  6.843628e+00  1.675
17647 1 -102.152538  8.263564e+00  1.675
17648 1 -100.929557  8.985171e+00  1.675
17649 1 -103.362080  6.122021e+00  1.675
17650 1 -104.598501  6.820350e+00  1.675
17651 1 -104.611940  8.240287e+00  1.675
17652 1 -103.388959  8.961894e+00  1.675
17653 1 -105.821482  6.098743e+00  1.675
17654 1 -107.057903  6.797073e+00  1.675
17655 1 -107.071342  8.217009e+00  1.675
17656 1 -105.848361  8.938616e+00  1.675
17657 1 -108.280884  6.075466e+00  1.675
17658 1 -109.517305  6.773795e+00  1.675
17659 1 -109.530744  8.193731e+00  1.675
17660 1 -108.307763  8.915338e+00  1.675
17661 1 -110.740286  6.052188e+00  1.675
17662 1 -111.976707  6.750517e+00  1.675
17663 1 -111.990146  8.170454e+00  1.675
17664 1 -110.767165  8.892061e+00  1.675
17665 1  111.788556  1.312859e+01  1.675
17666 1  111.775117  1.454853e+01  1.675
17667 1  110.565575  1.240699e+01  1.675
17668 1  109.329154  1.310531e+01  1.675
17669 1  109.315715  1.452525e+01  1.675
17670 1  110.538696  1.524686e+01  1.675
17671 1  108.106173  1.238371e+01  1.675
17672 1  106.869752  1.308204e+01  1.675
17673 1  106.856313  1.450197e+01  1.675
17674 1  108.079294  1.522358e+01  1.675
17675 1  105.646771  1.236043e+01  1.675
17676 1  104.410350  1.305876e+01  1.675
17677 1  104.396911  1.447870e+01  1.675
17678 1  105.619892  1.520030e+01  1.675
17679 1  103.187369  1.233715e+01  1.675
17680 1  101.950948  1.303548e+01  1.675
17681 1  101.937509  1.445542e+01  1.675
17682 1  103.160490  1.517703e+01  1.675
17683 1  100.727967  1.231387e+01  1.675
17684 1   99.491546  1.301220e+01  1.675
17685 1   99.478107  1.443214e+01  1.675
17686 1  100.701088  1.515375e+01  1.675
17687 1   98.268565  1.229060e+01  1.675
17688 1   97.032144  1.298893e+01  1.675
17689 1   97.018705  1.440886e+01  1.675
17690 1   98.241686  1.513047e+01  1.675
17691 1   95.809163  1.226732e+01  1.675
17692 1   94.572742  1.296565e+01  1.675
17693 1   94.559303  1.438559e+01  1.675
17694 1   95.782284  1.510719e+01  1.675
17695 1   93.349761  1.224404e+01  1.675
17696 1   92.113340  1.294237e+01  1.675
17697 1   92.099901  1.436231e+01  1.675
17698 1   93.322882  1.508391e+01  1.675
17699 1   90.890359  1.222076e+01  1.675
17700 1   89.653938  1.291909e+01  1.675
17701 1   89.640499  1.433903e+01  1.675
17702 1   90.863480  1.506064e+01  1.675
17703 1   88.430957  1.219749e+01  1.675
17704 1   87.194536  1.289582e+01  1.675
17705 1   87.181097  1.431575e+01  1.675
17706 1   88.404078  1.503736e+01  1.675
17707 1   85.971555  1.217421e+01  1.675
17708 1   84.735134  1.287254e+01  1.675
17709 1   84.721695  1.429247e+01  1.675
17710 1   85.944676  1.501408e+01  1.675
17711 1   83.512153  1.215093e+01  1.675
17712 1   82.275732  1.284926e+01  1.675
17713 1   82.262293  1.426920e+01  1.675
17714 1   83.485274  1.499080e+01  1.675
17715 1   81.052751  1.212765e+01  1.675
17716 1   79.816330  1.282598e+01  1.675
17717 1   79.802891  1.424592e+01  1.675
17718 1   81.025872  1.496753e+01  1.675
17719 1   78.593349  1.210438e+01  1.675
17720 1   77.356928  1.280271e+01  1.675
17721 1   77.343489  1.422264e+01  1.675
17722 1   78.566470  1.494425e+01  1.675
17723 1   76.133947  1.208110e+01  1.675
17724 1   74.897526  1.277943e+01  1.675
17725 1   74.884087  1.419936e+01  1.675
17726 1   76.107068  1.492097e+01  1.675
17727 1   73.674545  1.205782e+01  1.675
17728 1   72.438124  1.275615e+01  1.675
17729 1   72.424685  1.417609e+01  1.675
17730 1   73.647666  1.489769e+01  1.675
17731 1   71.215143  1.203454e+01  1.675
17732 1   69.978722  1.273287e+01  1.675
17733 1   69.965283  1.415281e+01  1.675
17734 1   71.188264  1.487442e+01  1.675
17735 1   68.755741  1.201127e+01  1.675
17736 1   67.519320  1.270959e+01  1.675
17737 1   67.505881  1.412953e+01  1.675
17738 1   68.728862  1.485114e+01  1.675
17739 1   66.296339  1.198799e+01  1.675
17740 1   65.059918  1.268632e+01  1.675
17741 1   65.046479  1.410625e+01  1.675
17742 1   66.269460  1.482786e+01  1.675
17743 1   63.836937  1.196471e+01  1.675
17744 1   62.600516  1.266304e+01  1.675
17745 1   62.587077  1.408298e+01  1.675
17746 1   63.810058  1.480458e+01  1.675
17747 1   61.377535  1.194143e+01  1.675
17748 1   60.141114  1.263976e+01  1.675
17749 1   60.127675  1.405970e+01  1.675
17750 1   61.350656  1.478131e+01  1.675
17751 1   58.918133  1.191815e+01  1.675
17752 1   57.681712  1.261648e+01  1.675
17753 1   57.668273  1.403642e+01  1.675
17754 1   58.891254  1.475803e+01  1.675
17755 1   56.458731  1.189488e+01  1.675
17756 1   55.222310  1.259321e+01  1.675
17757 1   55.208871  1.401314e+01  1.675
17758 1   56.431852  1.473475e+01  1.675
17759 1   53.999329  1.187160e+01  1.675
17760 1   52.762908  1.256993e+01  1.675
17761 1   52.749469  1.398987e+01  1.675
17762 1   53.972450  1.471147e+01  1.675
17763 1   51.539927  1.184832e+01  1.675
17764 1   50.303506  1.254665e+01  1.675
17765 1   50.290067  1.396659e+01  1.675
17766 1   51.513048  1.468819e+01  1.675
17767 1   49.080525  1.182504e+01  1.675
17768 1   47.844104  1.252337e+01  1.675
17769 1   47.830665  1.394331e+01  1.675
17770 1   49.053646  1.466492e+01  1.675
17771 1   46.621123  1.180177e+01  1.675
17772 1   45.384702  1.250010e+01  1.675
17773 1   45.371263  1.392003e+01  1.675
17774 1   46.594244  1.464164e+01  1.675
17775 1   44.161721  1.177849e+01  1.675
17776 1   42.925300  1.247682e+01  1.675
17777 1   42.911861  1.389675e+01  1.675
17778 1   44.134842  1.461836e+01  1.675
17779 1   41.702319  1.175521e+01  1.675
17780 1   40.465898  1.245354e+01  1.675
17781 1   40.452459  1.387348e+01  1.675
17782 1   41.675440  1.459508e+01  1.675
17783 1   39.242917  1.173193e+01  1.675
17784 1   38.006496  1.243026e+01  1.675
17785 1   37.993057  1.385020e+01  1.675
17786 1   39.216038  1.457181e+01  1.675
17787 1   36.783515  1.170866e+01  1.675
17788 1   35.547094  1.240699e+01  1.675
17789 1   35.533655  1.382692e+01  1.675
17790 1   36.756636  1.454853e+01  1.675
17791 1   34.324113  1.168538e+01  1.675
17792 1   33.087692  1.238371e+01  1.675
17793 1   33.074253  1.380364e+01  1.675
17794 1   34.297234  1.452525e+01  1.675
17795 1   31.864711  1.166210e+01  1.675
17796 1   30.628290  1.236043e+01  1.675
17797 1   30.614851  1.378037e+01  1.675
17798 1   31.837832  1.450197e+01  1.675
17799 1   29.405309  1.163882e+01  1.675
17800 1   28.168888  1.233715e+01  1.675
17801 1   28.155449  1.375709e+01  1.675
17802 1   29.378430  1.447870e+01  1.675
17803 1   26.945907  1.161555e+01  1.675
17804 1   25.709486  1.231387e+01  1.675
17805 1   25.696047  1.373381e+01  1.675
17806 1   26.919028  1.445542e+01  1.675
17807 1   24.486505  1.159227e+01  1.675
17808 1   23.250084  1.229060e+01  1.675
17809 1   23.236645  1.371053e+01  1.675
17810 1   24.459626  1.443214e+01  1.675
17811 1   22.027103  1.156899e+01  1.675
17812 1   20.790682  1.226732e+01  1.675
17813 1   20.777243  1.368726e+01  1.675
17814 1   22.000224  1.440886e+01  1.675
17815 1   19.567701  1.154571e+01  1.675
17816 1   18.331280  1.224404e+01  1.675
17817 1   18.317841  1.366398e+01  1.675
17818 1   19.540822  1.438559e+01  1.675
17819 1   17.108299  1.152243e+01  1.675
17820 1   15.871878  1.222076e+01  1.675
17821 1   15.858439  1.364070e+01  1.675
17822 1   17.081420  1.436231e+01  1.675
17823 1   14.648897  1.149916e+01  1.675
17824 1   13.412476  1.219749e+01  1.675
17825 1   13.399037  1.361742e+01  1.675
17826 1   14.622018  1.433903e+01  1.675
17827 1   12.189495  1.147588e+01  1.675
17828 1   10.953074  1.217421e+01  1.675
17829 1   10.939635  1.359415e+01  1.675
17830 1   12.162616  1.431575e+01  1.675
17831 1    9.730093  1.145260e+01  1.675
17832 1    8.493672  1.215093e+01  1.675
17833 1    8.480233  1.357087e+01  1.675
17834 1    9.703214  1.429247e+01  1.675
17835 1    7.270691  1.142932e+01  1.675
17836 1    6.034270  1.212765e+01  1.675
17837 1    6.020831  1.354759e+01  1.675
17838 1    7.243812  1.426920e+01  1.675
17839 1    4.811289  1.140605e+01  1.675
17840 1    3.574868  1.210438e+01  1.675
17841 1    3.561429  1.352431e+01  1.675
17842 1    4.784410  1.424592e+01  1.675
17843 1    2.351887  1.138277e+01  1.675
17844 1    1.115466  1.208110e+01  1.675
17845 1    1.102027  1.350103e+01  1.675
17846 1    2.325008  1.422264e+01  1.675
17847 1   -0.107515  1.135949e+01  1.675
17848 1   -1.343936  1.205782e+01  1.675
17849 1   -1.357375  1.347776e+01  1.675
17850 1   -0.134394  1.419936e+01  1.675
17851 1   -2.566917  1.133621e+01  1.675
17852 1   -3.803338  1.203454e+01  1.675
17853 1   -3.816777  1.345448e+01  1.675
17854 1   -2.593796  1.417609e+01  1.675
17855 1   -5.026319  1.131294e+01  1.675
17856 1   -6.262739  1.201127e+01  1.675
17857 1   -6.276179  1.343120e+01  1.675
17858 1   -5.053198  1.415281e+01  1.675
17859 1   -7.485721  1.128966e+01  1.675
17860 1   -8.722141  1.198799e+01  1.675
17861 1   -8.735581  1.340792e+01  1.675
17862 1   -7.512600  1.412953e+01  1.675
17863 1   -9.945123  1.126638e+01  1.675
17864 1  -11.181543  1.196471e+01  1.675
17865 1  -11.194983  1.338465e+01  1.675
17866 1   -9.972002  1.410625e+01  1.675
17867 1  -12.404525  1.124310e+01  1.675
17868 1  -13.640945  1.194143e+01  1.675
17869 1  -13.654385  1.336137e+01  1.675
17870 1  -12.431404  1.408298e+01  1.675
17871 1  -14.863927  1.121983e+01  1.675
17872 1  -16.100347  1.191815e+01  1.675
17873 1  -16.113787  1.333809e+01  1.675
17874 1  -14.890805  1.405970e+01  1.675
17875 1  -17.323329  1.119655e+01  1.675
17876 1  -18.559749  1.189488e+01  1.675
17877 1  -18.573189  1.331481e+01  1.675
17878 1  -17.350207  1.403642e+01  1.675
17879 1  -19.782731  1.117327e+01  1.675
17880 1  -21.019151  1.187160e+01  1.675
17881 1  -21.032591  1.329154e+01  1.675
17882 1  -19.809609  1.401314e+01  1.675
17883 1  -22.242133  1.114999e+01  1.675
17884 1  -23.478553  1.184832e+01  1.675
17885 1  -23.491993  1.326826e+01  1.675
17886 1  -22.269011  1.398987e+01  1.675
17887 1  -24.701535  1.112671e+01  1.675
17888 1  -25.937955  1.182504e+01  1.675
17889 1  -25.951395  1.324498e+01  1.675
17890 1  -24.728413  1.396659e+01  1.675
17891 1  -27.160937  1.110344e+01  1.675
17892 1  -28.397357  1.180177e+01  1.675
17893 1  -28.410797  1.322170e+01  1.675
17894 1  -27.187815  1.394331e+01  1.675
17895 1  -29.620339  1.108016e+01  1.675
17896 1  -30.856759  1.177849e+01  1.675
17897 1  -30.870199  1.319843e+01  1.675
17898 1  -29.647217  1.392003e+01  1.675
17899 1  -32.079741  1.105688e+01  1.675
17900 1  -33.316161  1.175521e+01  1.675
17901 1  -33.329601  1.317515e+01  1.675
17902 1  -32.106619  1.389675e+01  1.675
17903 1  -34.539143  1.103360e+01  1.675
17904 1  -35.775563  1.173193e+01  1.675
17905 1  -35.789003  1.315187e+01  1.675
17906 1  -34.566021  1.387348e+01  1.675
17907 1  -36.998545  1.101033e+01  1.675
17908 1  -38.234965  1.170866e+01  1.675
17909 1  -38.248405  1.312859e+01  1.675
17910 1  -37.025423  1.385020e+01  1.675
17911 1  -39.457947  1.098705e+01  1.675
17912 1  -40.694367  1.168538e+01  1.675
17913 1  -40.707807  1.310531e+01  1.675
17914 1  -39.484825  1.382692e+01  1.675
17915 1  -41.917349  1.096377e+01  1.675
17916 1  -43.153769  1.166210e+01  1.675
17917 1  -43.167209  1.308204e+01  1.675
17918 1  -41.944227  1.380364e+01  1.675
17919 1  -44.376751  1.094049e+01  1.675
17920 1  -45.613171  1.163882e+01  1.675
17921 1  -45.626611  1.305876e+01  1.675
17922 1  -44.403629  1.378037e+01  1.675
17923 1  -46.836153  1.091722e+01  1.675
17924 1  -48.072573  1.161555e+01  1.675
17925 1  -48.086013  1.303548e+01  1.675
17926 1  -46.863031  1.375709e+01  1.675
17927 1  -49.295555  1.089394e+01  1.675
17928 1  -50.531975  1.159227e+01  1.675
17929 1  -50.545415  1.301220e+01  1.675
17930 1  -49.322433  1.373381e+01  1.675
17931 1  -51.754957  1.087066e+01  1.675
17932 1  -52.991377  1.156899e+01  1.675
17933 1  -53.004817  1.298893e+01  1.675
17934 1  -51.781835  1.371053e+01  1.675
17935 1  -54.214359  1.084738e+01  1.675
17936 1  -55.450779  1.154571e+01  1.675
17937 1  -55.464219  1.296565e+01  1.675
17938 1  -54.241237  1.368726e+01  1.675
17939 1  -56.673761  1.082411e+01  1.675
17940 1  -57.910181  1.152243e+01  1.675
17941 1  -57.923621  1.294237e+01  1.675
17942 1  -56.700639  1.366398e+01  1.675
17943 1  -59.133163  1.080083e+01  1.675
17944 1  -60.369583  1.149916e+01  1.675
17945 1  -60.383023  1.291909e+01  1.675
17946 1  -59.160041  1.364070e+01  1.675
17947 1  -61.592565  1.077755e+01  1.675
17948 1  -62.828985  1.147588e+01  1.675
17949 1  -62.842425  1.289582e+01  1.675
17950 1  -61.619443  1.361742e+01  1.675
17951 1  -64.051967  1.075427e+01  1.675
17952 1  -65.288387  1.145260e+01  1.675
17953 1  -65.301827  1.287254e+01  1.675
17954 1  -64.078845  1.359415e+01  1.675
17955 1  -66.511369  1.073099e+01  1.675
17956 1  -67.747789  1.142932e+01  1.675
17957 1  -67.761229  1.284926e+01  1.675
17958 1  -66.538247  1.357087e+01  1.675
17959 1  -68.970771  1.070772e+01  1.675
17960 1  -70.207191  1.140605e+01  1.675
17961 1  -70.220631  1.282598e+01  1.675
17962 1  -68.997649  1.354759e+01  1.675
17963 1  -71.430173  1.068444e+01  1.675
17964 1  -72.666593  1.138277e+01  1.675
17965 1  -72.680033  1.280271e+01  1.675
17966 1  -71.457051  1.352431e+01  1.675
17967 1  -73.889575  1.066116e+01  1.675
17968 1  -75.125995  1.135949e+01  1.675
17969 1  -75.139435  1.277943e+01  1.675
17970 1  -73.916453  1.350103e+01  1.675
17971 1  -76.348977  1.063788e+01  1.675
17972 1  -77.585397  1.133621e+01  1.675
17973 1  -77.598837  1.275615e+01  1.675
17974 1  -76.375855  1.347776e+01  1.675
17975 1  -78.808379  1.061461e+01  1.675
17976 1  -80.044799  1.131294e+01  1.675
17977 1  -80.058239  1.273287e+01  1.675
17978 1  -78.835257  1.345448e+01  1.675
17979 1  -81.267781  1.059133e+01  1.675
17980 1  -82.504201  1.128966e+01  1.675
17981 1  -82.517641  1.270959e+01  1.675
17982 1  -81.294659  1.343120e+01  1.675
17983 1  -83.727183  1.056805e+01  1.675
17984 1  -84.963603  1.126638e+01  1.675
17985 1  -84.977043  1.268632e+01  1.675
17986 1  -83.754061  1.340792e+01  1.675
17987 1  -86.186585  1.054477e+01  1.675
17988 1  -87.423005  1.124310e+01  1.675
17989 1  -87.436445  1.266304e+01  1.675
17990 1  -86.213463  1.338465e+01  1.675
17991 1  -88.645987  1.052150e+01  1.675
17992 1  -89.882407  1.121983e+01  1.675
17993 1  -89.895847  1.263976e+01  1.675
17994 1  -88.672865  1.336137e+01  1.675
17995 1  -91.105388  1.049822e+01  1.675
17996 1  -92.341809  1.119655e+01  1.675
17997 1  -92.355249  1.261648e+01  1.675
17998 1  -91.132267  1.333809e+01  1.675
17999 1  -93.564790  1.047494e+01  1.675
18000 1  -94.801211  1.117327e+01  1.675
18001 1  -94.814651  1.259321e+01  1.675
18002 1  -93.591669  1.331481e+01  1.675
18003 1  -96.024192  1.045166e+01  1.675
18004 1  -97.260613  1.114999e+01  1.675
18005 1  -97.274053  1.256993e+01  1.675
18006 1  -96.051071  1.329154e+01  1.675
18007 1  -98.483594  1.042839e+01  1.675
18008 1  -99.720015  1.112671e+01  1.675
18009 1  -99.733454  1.254665e+01  1.675
18010 1  -98.510473  1.326826e+01  1.675
18011 1 -100.942996  1.040511e+01  1.675
18012 1 -102.179417  1.110344e+01  1.675
18013 1 -102.192856  1.252337e+01  1.675
18014 1 -100.969875  1.324498e+01  1.675
18015 1 -103.402398  1.038183e+01  1.675
18016 1 -104.638819  1.108016e+01  1.675
18017 1 -104.652258  1.250010e+01  1.675
18018 1 -103.429277  1.322170e+01  1.675
18019 1 -105.861800  1.035855e+01  1.675
18020 1 -107.098221  1.105688e+01  1.675
18021 1 -107.111660  1.247682e+01  1.675
18022 1 -105.888679  1.319843e+01  1.675
18023 1 -108.321202  1.033527e+01  1.675
18024 1 -109.557623  1.103360e+01  1.675
18025 1 -109.571062  1.245354e+01  1.675
18026 1 -108.348081  1.317515e+01  1.675
18027 1 -110.780604  1.031200e+01  1.675
18028 1 -112.017025  1.101033e+01  1.675
18029 1 -112.030464  1.243026e+01  1.675
18030 1 -110.807483  1.315187e+01  1.675
18031 1  111.748238  1.738840e+01  1.675
18032 1  111.734799  1.880834e+01  1.675
18033 1  110.525257  1.666679e+01  1.675
18034 1  109.288836  1.736512e+01  1.675
18035 1  109.275397  1.878506e+01  1.675
18036 1  110.498378  1.950667e+01  1.675
18037 1  108.065855  1.664352e+01  1.675
18038 1  106.829434  1.734185e+01  1.675
18039 1  106.815995  1.876178e+01  1.675
18040 1  108.038976  1.948339e+01  1.675
18041 1  105.606453  1.662024e+01  1.675
18042 1  104.370032  1.731857e+01  1.675
18043 1  104.356593  1.873850e+01  1.675
18044 1  105.579574  1.946011e+01  1.675
18045 1  103.147051  1.659696e+01  1.675
18046 1  101.910630  1.729529e+01  1.675
18047 1  101.897191  1.871523e+01  1.675
18048 1  103.120172  1.943683e+01  1.675
18049 1  100.687649  1.657368e+01  1.675
18050 1   99.451228  1.727201e+01  1.675
18051 1   99.437789  1.869195e+01  1.675
18052 1  100.660770  1.941356e+01  1.675
18053 1   98.228247  1.655041e+01  1.675
18054 1   96.991826  1.724874e+01  1.675
18055 1   96.978387  1.866867e+01  1.675
18056 1   98.201368  1.939028e+01  1.675
18057 1   95.768845  1.652713e+01  1.675
18058 1   94.532424  1.722546e+01  1.675
18059 1   94.518985  1.864539e+01  1.675
18060 1   95.741966  1.936700e+01  1.675
18061 1   93.309443  1.650385e+01  1.675
18062 1   92.073022  1.720218e+01  1.675
18063 1   92.059583  1.862212e+01  1.675
18064 1   93.282564  1.934372e+01  1.675
18065 1   90.850041  1.648057e+01  1.675
18066 1   89.613620  1.717890e+01  1.675
18067 1   89.600181  1.859884e+01  1.675
18068 1   90.823162  1.932045e+01  1.675
18069 1   88.390639  1.645730e+01  1.675
18070 1   87.154218  1.715563e+01  1.675
18071 1   87.140779  1.857556e+01  1.675
18072 1   88.363760  1.929717e+01  1.675
18073 1   85.931237  1.643402e+01  1.675
18074 1   84.694816  1.713235e+01  1.675
18075 1   84.681377  1.855228e+01  1.675
18076 1   85.904358  1.927389e+01  1.675
18077 1   83.471835  1.641074e+01  1.675
18078 1   82.235414  1.710907e+01  1.675
18079 1   82.221975  1.852901e+01  1.675
18080 1   83.444956  1.925061e+01  1.675
18081 1   81.012433  1.638746e+01  1.675
18082 1   79.776012  1.708579e+01  1.675
18083 1   79.762573  1.850573e+01  1.675
18084 1   80.985554  1.922734e+01  1.675
18085 1   78.553031  1.636419e+01  1.675
18086 1   77.316610  1.706251e+01  1.675
18087 1   77.303171  1.848245e+01  1.675
18088 1   78.526152  1.920406e+01  1.675
18089 1   76.093629  1.634091e+01  1.675
18090 1   74.857208  1.703924e+01  1.675
18091 1   74.843769  1.845917e+01  1.675
18092 1   76.066750  1.918078e+01  1.675
18093 1   73.634227  1.631763e+01  1.675
18094 1   72.397806  1.701596e+01  1.675
18095 1   72.384367  1.843590e+01  1.675
18096 1   73.607348  1.915750e+01  1.675
18097 1   71.174825  1.629435e+01  1.675
18098 1   69.938404  1.699268e+01  1.675
18099 1   69.924965  1.841262e+01  1.675
18100 1   71.147946  1.913422e+01  1.675
18101 1   68.715423  1.627107e+01  1.675
18102 1   67.479002  1.696940e+01  1.675
18103 1   67.465563  1.838934e+01  1.675
18104 1   68.688544  1.911095e+01  1.675
18105 1   66.256021  1.624780e+01  1.675
18106 1   65.019600  1.694613e+01  1.675
18107 1   65.006161  1.836606e+01  1.675
18108 1   66.229142  1.908767e+01  1.675
18109 1   63.796619  1.622452e+01  1.675
18110 1   62.560198  1.692285e+01  1.675
18111 1   62.546759  1.834278e+01  1.675
18112 1   63.769740  1.906439e+01  1.675
18113 1   61.337217  1.620124e+01  1.675
18114 1   60.100796  1.689957e+01  1.675
18115 1   60.087357  1.831951e+01  1.675
18116 1   61.310338  1.904111e+01  1.675
18117 1   58.877815  1.617796e+01  1.675
18118 1   57.641394  1.687629e+01  1.675
18119 1   57.627955  1.829623e+01  1.675
18120 1   58.850936  1.901784e+01  1.675
18121 1   56.418413  1.615469e+01  1.675
18122 1   55.181992  1.685302e+01  1.675
18123 1   55.168553  1.827295e+01  1.675
18124 1   56.391534  1.899456e+01  1.675
18125 1   53.959011  1.613141e+01  1.675
18126 1   52.722590  1.682974e+01  1.675
18127 1   52.709151  1.824967e+01  1.675
18128 1   53.932132  1.897128e+01  1.675
18129 1   51.499609  1.610813e+01  1.675
18130 1   50.263188  1.680646e+01  1.675
18131 1   50.249749  1.822640e+01  1.675
18132 1   51.472730  1.894800e+01  1.675
18133 1   49.040207  1.608485e+01  1.675
18134 1   47.803786  1.678318e+01  1.675
18135 1   47.790347  1.820312e+01  1.675
18136 1   49.013328  1.892473e+01  1.675
18137 1   46.580805  1.606158e+01  1.675
18138 1   45.344384  1.675991e+01  1.675
18139 1   45.330945  1.817984e+01  1.675
18140 1   46.553926  1.890145e+01  1.675
18141 1   44.121403  1.603830e+01  1.675
18142 1   42.884982  1.673663e+01  1.675
18143 1   42.871543  1.815656e+01  1.675
18144 1   44.094524  1.887817e+01  1.675
18145 1   41.662001  1.601502e+01  1.675
18146 1   40.425580  1.671335e+01  1.675
18147 1   40.412141  1.813329e+01  1.675
18148 1   41.635122  1.885489e+01  1.675
18149 1   39.202599  1.599174e+01  1.675
18150 1   37.966178  1.669007e+01  1.675
18151 1   37.952739  1.811001e+01  1.675
18152 1   39.175720  1.883162e+01  1.675
18153 1   36.743197  1.596847e+01  1.675
18154 1   35.506776  1.666679e+01  1.675
18155 1   35.493337  1.808673e+01  1.675
18156 1   36.716318  1.880834e+01  1.675
18157 1   34.283795  1.594519e+01  1.675
18158 1   33.047374  1.664352e+01  1.675
18159 1   33.033935  1.806345e+01  1.675
18160 1   34.256916  1.878506e+01  1.675
18161 1   31.824393  1.592191e+01  1.675
18162 1   30.587972  1.662024e+01  1.675
18163 1   30.574533  1.804018e+01  1.675
18164 1   31.797514  1.876178e+01  1.675
18165 1   29.364991  1.589863e+01  1.675
18166 1   28.128570  1.659696e+01  1.675
18167 1   28.115131  1.801690e+01  1.675
18168 1   29.338112  1.873850e+01  1.675
18169 1   26.905589  1.587535e+01  1.675
18170 1   25.669168  1.657368e+01  1.675
18171 1   25.655729  1.799362e+01  1.675
18172 1   26.878710  1.871523e+01  1.675
18173 1   24.446187  1.585208e+01  1.675
18174 1   23.209766  1.655041e+01  1.675
18175 1   23.196327  1.797034e+01  1.675
18176 1   24.419308  1.869195e+01  1.675
18177 1   21.986785  1.582880e+01  1.675
18178 1   20.750364  1.652713e+01  1.675
18179 1   20.736925  1.794707e+01  1.675
18180 1   21.959906  1.866867e+01  1.675
18181 1   19.527383  1.580552e+01  1.675
18182 1   18.290962  1.650385e+01  1.675
18183 1   18.277523  1.792379e+01  1.675
18184 1   19.500504  1.864539e+01  1.675
18185 1   17.067981  1.578224e+01  1.675
18186 1   15.831560  1.648057e+01  1.675
18187 1   15.818121  1.790051e+01  1.675
18188 1   17.041102  1.862212e+01  1.675
18189 1   14.608579  1.575897e+01  1.675
18190 1   13.372158  1.645730e+01  1.675
18191 1   13.358719  1.787723e+01  1.675
18192 1   14.581700  1.859884e+01  1.675
18193 1   12.149177  1.573569e+01  1.675
18194 1   10.912756  1.643402e+01  1.675
18195 1   10.899317  1.785395e+01  1.675
18196 1   12.122298  1.857556e+01  1.675
18197 1    9.689775  1.571241e+01  1.675
18198 1    8.453354  1.641074e+01  1.675
18199 1    8.439915  1.783068e+01  1.675
18200 1    9.662896  1.855228e+01  1.675
18201 1    7.230373  1.568913e+01  1.675
18202 1    5.993952  1.638746e+01  1.675
18203 1    5.980513  1.780740e+01  1.675
18204 1    7.203494  1.852901e+01  1.675
18205 1    4.770971  1.566586e+01  1.675
18206 1    3.534550  1.636419e+01  1.675
18207 1    3.521111  1.778412e+01  1.675
18208 1    4.744092  1.850573e+01  1.675
18209 1    2.311569  1.564258e+01  1.675
18210 1    1.075148  1.634091e+01  1.675
18211 1    1.061709  1.776084e+01  1.675
18212 1    2.284690  1.848245e+01  1.675
18213 1   -0.147833  1.561930e+01  1.675
18214 1   -1.384254  1.631763e+01  1.675
18215 1   -1.397693  1.773757e+01  1.675
18216 1   -0.174712  1.845917e+01  1.675
18217 1   -2.607235  1.559602e+01  1.675
18218 1   -3.843656  1.629435e+01  1.675
18219 1   -3.857095  1.771429e+01  1.675
18220 1   -2.634114  1.843590e+01  1.675
18221 1   -5.066637  1.557275e+01  1.675
18222 1   -6.303058  1.627107e+01  1.675
18223 1   -6.316497  1.769101e+01  1.675
18224 1   -5.093516  1.841262e+01  1.675
18225 1   -7.526039  1.554947e+01  1.675
18226 1   -8.762460  1.624780e+01  1.675
18227 1   -8.775899  1.766773e+01  1.675
18228 1   -7.552918  1.838934e+01  1.675
18229 1   -9.985441  1.552619e+01  1.675
18230 1  -11.221862  1.622452e+01  1.675
18231 1  -11.235301  1.764446e+01  1.675
18232 1  -10.012320  1.836606e+01  1.675
18233 1  -12.444843  1.550291e+01  1.675
18234 1  -13.681264  1.620124e+01  1.675
18235 1  -13.694703  1.762118e+01  1.675
18236 1  -12.471722  1.834278e+01  1.675
18237 1  -14.904245  1.547963e+01  1.675
18238 1  -16.140666  1.617796e+01  1.675
18239 1  -16.154105  1.759790e+01  1.675
18240 1  -14.931124  1.831951e+01  1.675
18241 1  -17.363647  1.545636e+01  1.675
18242 1  -18.600068  1.615469e+01  1.675
18243 1  -18.613507  1.757462e+01  1.675
18244 1  -17.390526  1.829623e+01  1.675
18245 1  -19.823049  1.543308e+01  1.675
18246 1  -21.059470  1.613141e+01  1.675
18247 1  -21.072909  1.755135e+01  1.675
18248 1  -19.849928  1.827295e+01  1.675
18249 1  -22.282451  1.540980e+01  1.675
18250 1  -23.518871  1.610813e+01  1.675
18251 1  -23.532311  1.752807e+01  1.675
18252 1  -22.309330  1.824967e+01  1.675
18253 1  -24.741853  1.538652e+01  1.675
18254 1  -25.978273  1.608485e+01  1.675
18255 1  -25.991713  1.750479e+01  1.675
18256 1  -24.768732  1.822640e+01  1.675
18257 1  -27.201255  1.536325e+01  1.675
18258 1  -28.437675  1.606158e+01  1.675
18259 1  -28.451115  1.748151e+01  1.675
18260 1  -27.228134  1.820312e+01  1.675
18261 1  -29.660657  1.533997e+01  1.675
18262 1  -30.897077  1.603830e+01  1.675
18263 1  -30.910517  1.745823e+01  1.675
18264 1  -29.687536  1.817984e+01  1.675
18265 1  -32.120059  1.531669e+01  1.675
18266 1  -33.356479  1.601502e+01  1.675
18267 1  -33.369919  1.743496e+01  1.675
18268 1  -32.146937  1.815656e+01  1.675
18269 1  -34.579461  1.529341e+01  1.675
18270 1  -35.815881  1.599174e+01  1.675
18271 1  -35.829321  1.741168e+01  1.675
18272 1  -34.606339  1.813329e+01  1.675
18273 1  -37.038863  1.527014e+01  1.675
18274 1  -38.275283  1.596847e+01  1.675
18275 1  -38.288723  1.738840e+01  1.675
18276 1  -37.065741  1.811001e+01  1.675
18277 1  -39.498265  1.524686e+01  1.675
18278 1  -40.734685  1.594519e+01  1.675
18279 1  -40.748125  1.736512e+01  1.675
18280 1  -39.525143  1.808673e+01  1.675
18281 1  -41.957667  1.522358e+01  1.675
18282 1  -43.194087  1.592191e+01  1.675
18283 1  -43.207527  1.734185e+01  1.675
18284 1  -41.984545  1.806345e+01  1.675
18285 1  -44.417069  1.520030e+01  1.675
18286 1  -45.653489  1.589863e+01  1.675
18287 1  -45.666929  1.731857e+01  1.675
18288 1  -44.443947  1.804018e+01  1.675
18289 1  -46.876471  1.517703e+01  1.675
18290 1  -48.112891  1.587535e+01  1.675
18291 1  -48.126331  1.729529e+01  1.675
18292 1  -46.903349  1.801690e+01  1.675
18293 1  -49.335873  1.515375e+01  1.675
18294 1  -50.572293  1.585208e+01  1.675
18295 1  -50.585733  1.727201e+01  1.675
18296 1  -49.362751  1.799362e+01  1.675
18297 1  -51.795275  1.513047e+01  1.675
18298 1  -53.031695  1.582880e+01  1.675
18299 1  -53.045135  1.724874e+01  1.675
18300 1  -51.822153  1.797034e+01  1.675
18301 1  -54.254677  1.510719e+01  1.675
18302 1  -55.491097  1.580552e+01  1.675
18303 1  -55.504537  1.722546e+01  1.675
18304 1  -54.281555  1.794707e+01  1.675
18305 1  -56.714079  1.508391e+01  1.675
18306 1  -57.950499  1.578224e+01  1.675
18307 1  -57.963939  1.720218e+01  1.675
18308 1  -56.740957  1.792379e+01  1.675
18309 1  -59.173481  1.506064e+01  1.675
18310 1  -60.409901  1.575897e+01  1.675
18311 1  -60.423341  1.717890e+01  1.675
18312 1  -59.200359  1.790051e+01  1.675
18313 1  -61.632883  1.503736e+01  1.675
18314 1  -62.869303  1.573569e+01  1.675
18315 1  -62.882743  1.715563e+01  1.675
18316 1  -61.659761  1.787723e+01  1.675
18317 1  -64.092285  1.501408e+01  1.675
18318 1  -65.328705  1.571241e+01  1.675
18319 1  -65.342145  1.713235e+01  1.675
18320 1  -64.119163  1.785395e+01  1.675
18321 1  -66.551687  1.499080e+01  1.675
18322 1  -67.788107  1.568913e+01  1.675
18323 1  -67.801547  1.710907e+01  1.675
18324 1  -66.578565  1.783068e+01  1.675
18325 1  -69.011089  1.496753e+01  1.675
18326 1  -70.247509  1.566586e+01  1.675
18327 1  -70.260949  1.708579e+01  1.675
18328 1  -69.037967  1.780740e+01  1.675
18329 1  -71.470491  1.494425e+01  1.675
18330 1  -72.706911  1.564258e+01  1.675
18331 1  -72.720351  1.706251e+01  1.675
18332 1  -71.497369  1.778412e+01  1.675
18333 1  -73.929893  1.492097e+01  1.675
18334 1  -75.166313  1.561930e+01  1.675
18335 1  -75.179753  1.703924e+01  1.675
18336 1  -73.956771  1.776084e+01  1.675
18337 1  -76.389295  1.489769e+01  1.675
18338 1  -77.625715  1.559602e+01  1.675
18339 1  -77.639155  1.701596e+01  1.675
18340 1  -76.416173  1.773757e+01  1.675
18341 1  -78.848697  1.487442e+01  1.675
18342 1  -80.085117  1.557275e+01  1.675
18343 1  -80.098557  1.699268e+01  1.675
18344 1  -78.875575  1.771429e+01  1.675
18345 1  -81.308099  1.485114e+01  1.675
18346 1  -82.544519  1.554947e+01  1.675
18347 1  -82.557959  1.696940e+01  1.675
18348 1  -81.334977  1.769101e+01  1.675
18349 1  -83.767501  1.482786e+01  1.675
18350 1  -85.003921  1.552619e+01  1.675
18351 1  -85.017361  1.694613e+01  1.675
18352 1  -83.794379  1.766773e+01  1.675
18353 1  -86.226903  1.480458e+01  1.675
18354 1  -87.463323  1.550291e+01  1.675
18355 1  -87.476763  1.692285e+01  1.675
18356 1  -86.253781  1.764446e+01  1.675
18357 1  -88.686305  1.478131e+01  1.675
18358 1  -89.922725  1.547963e+01  1.675
18359 1  -89.936165  1.689957e+01  1.675
18360 1  -88.713183  1.762118e+01  1.675
18361 1  -91.145707  1.475803e+01  1.675
18362 1  -92.382127  1.545636e+01  1.675
18363 1  -92.395567  1.687629e+01  1.675
18364 1  -91.172585  1.759790e+01  1.675
18365 1  -93.605109  1.473475e+01  1.675
18366 1  -94.841529  1.543308e+01  1.675
18367 1  -94.854969  1.685302e+01  1.675
18368 1  -93.631987  1.757462e+01  1.675
18369 1  -96.064511  1.471147e+01  1.675
18370 1  -97.300931  1.540980e+01  1.675
18371 1  -97.314371  1.682974e+01  1.675
18372 1  -96.091389  1.755135e+01  1.675
18373 1  -98.523913  1.468819e+01  1.675
18374 1  -99.760333  1.538652e+01  1.675
18375 1  -99.773773  1.680646e+01  1.675
18376 1  -98.550791  1.752807e+01  1.675
18377 1 -100.983315  1.466492e+01  1.675
18378 1 -102.219735  1.536325e+01  1.675
18379 1 -102.233175  1.678318e+01  1.675
18380 1 -101.010193  1.750479e+01  1.675
18381 1 -103.442717  1.464164e+01  1.675
18382 1 -104.679137  1.533997e+01  1.675
18383 1 -104.692577  1.675991e+01  1.675
18384 1 -103.469595  1.748151e+01  1.675
18385 1 -105.902119  1.461836e+01  1.675
18386 1 -107.138539  1.531669e+01  1.675
18387 1 -107.151979  1.673663e+01  1.675
18388 1 -105.928997  1.745823e+01  1.675
18389 1 -108.361520  1.459508e+01  1.675
18390 1 -109.597941  1.529341e+01  1.675
18391 1 -109.611381  1.671335e+01  1.675
18392 1 -108.388399  1.743496e+01  1.675
18393 1 -110.820922  1.457181e+01  1.675
18394 1 -112.057343  1.527014e+01  1.675
18395 1 -112.070783  1.669007e+01  1.675
18396 1 -110.847801  1.741168e+01  1.675
18397 1  111.707920  2.164821e+01  1.675
18398 1  111.694481  2.306815e+01  1.675
18399 1  110.484939  2.092660e+01  1.675
18400 1  109.248518  2.162493e+01  1.675
18401 1  109.235079  2.304487e+01  1.675
18402 1  110.458060  2.376648e+01  1.675
18403 1  108.025537  2.090333e+01  1.675
18404 1  106.789116  2.160166e+01  1.675
18405 1  106.775677  2.302159e+01  1.675
18406 1  107.998658  2.374320e+01  1.675
18407 1  105.566135  2.088005e+01  1.675
18408 1  104.329714  2.157838e+01  1.675
18409 1  104.316275  2.299831e+01  1.675
18410 1  105.539256  2.371992e+01  1.675
18411 1  103.106733  2.085677e+01  1.675
18412 1  101.870312  2.155510e+01  1.675
18413 1  101.856873  2.297504e+01  1.675
18414 1  103.079854  2.369664e+01  1.675
18415 1  100.647331  2.083349e+01  1.675
18416 1   99.410910  2.153182e+01  1.675
18417 1   99.397471  2.295176e+01  1.675
18418 1  100.620452  2.367337e+01  1.675
18419 1   98.187929  2.081022e+01  1.675
18420 1   96.951508  2.150854e+01  1.675
18421 1   96.938069  2.292848e+01  1.675
18422 1   98.161050  2.365009e+01  1.675
18423 1   95.728527  2.078694e+01  1.675
18424 1   94.492106  2.148527e+01  1.675
18425 1   94.478667  2.290520e+01  1.675
18426 1   95.701648  2.362681e+01  1.675
18427 1   93.269125  2.076366e+01  1.675
18428 1   92.032704  2.146199e+01  1.675
18429 1   92.019265  2.288193e+01  1.675
18430 1   93.242246  2.360353e+01  1.675
18431 1   90.809723  2.074038e+01  1.675
18432 1   89.573302  2.143871e+01  1.675
18433 1   89.559863  2.285865e+01  1.675
18434 1   90.782844  2.358026e+01  1.675
18435 1   88.350321  2.071710e+01  1.675
18436 1   87.113900  2.141543e+01  1.675
18437 1   87.100461  2.283537e+01  1.675
18438 1   88.323442  2.355698e+01  1.675
18439 1   85.890919  2.069383e+01  1.675
18440 1   84.654498  2.139216e+01  1.675
18441 1   84.641059  2.281209e+01  1.675
18442 1   85.864040  2.353370e+01  1.675
18443 1   83.431517  2.067055e+01  1.675
18444 1   82.195096  2.136888e+01  1.675
18445 1   82.181657  2.278882e+01  1.675
18446 1   83.404638  2.351042e+01  1.675
18447 1   80.972115  2.064727e+01  1.675
18448 1   79.735694  2.134560e+01  1.675
18449 1   79.722255  2.276554e+01  1.675
18450 1   80.945236  2.348714e+01  1.675
18451 1   78.512713  2.062399e+01  1.675
18452 1   77.276292  2.132232e+01  1.675
18453 1   77.262853  2.274226e+01  1.675
18454 1   78.485834  2.346387e+01  1.675
18455 1   76.053311  2.060072e+01  1.675
18456 1   74.816890  2.129905e+01  1.675
18457 1   74.803451  2.271898e+01  1.675
18458 1   76.026432  2.344059e+01  1.675
18459 1   73.593909  2.057744e+01  1.675
18460 1   72.357488  2.127577e+01  1.675
18461 1   72.344049  2.269570e+01  1.675
18462 1   73.567030  2.341731e+01  1.675
18463 1   71.134507  2.055416e+01  1.675
18464 1   69.898086  2.125249e+01  1.675
18465 1   69.884647  2.267243e+01  1.675
18466 1   71.107628  2.339403e+01  1.675
18467 1   68.675105  2.053088e+01  1.675
18468 1   67.438684  2.122921e+01  1.675
18469 1   67.425245  2.264915e+01  1.675
18470 1   68.648226  2.337076e+01  1.675
18471 1   66.215703  2.050761e+01  1.675
18472 1   64.979282  2.120594e+01  1.675
18473 1   64.965843  2.262587e+01  1.675
18474 1   66.188824  2.334748e+01  1.675
18475 1   63.756301  2.048433e+01  1.675
18476 1   62.519880  2.118266e+01  1.675
18477 1   62.506441  2.260259e+01  1.675
18478 1   63.729422  2.332420e+01  1.675
18479 1   61.296899  2.046105e+01  1.675
18480 1   60.060478  2.115938e+01  1.675
18481 1   60.047039  2.257932e+01  1.675
18482 1   61.270020  2.330092e+01  1.675
18483 1   58.837497  2.043777e+01  1.675
18484 1   57.601076  2.113610e+01  1.675
18485 1   57.587637  2.255604e+01  1.675
18486 1   58.810618  2.327765e+01  1.675
18487 1   56.378095  2.041450e+01  1.675
18488 1   55.141674  2.111282e+01  1.675
18489 1   55.128235  2.253276e+01  1.675
18490 1   56.351216  2.325437e+01  1.675
18491 1   53.918693  2.039122e+01  1.675
18492 1   52.682272  2.108955e+01  1.675
18493 1   52.668833  2.250948e+01  1.675
18494 1   53.891814  2.323109e+01  1.675
18495 1   51.459291  2.036794e+01  1.675
18496 1   50.222870  2.106627e+01  1.675
18497 1   50.209431  2.248621e+01  1.675
18498 1   51.432412  2.320781e+01  1.675
18499 1   48.999889  2.034466e+01  1.675
18500 1   47.763468  2.104299e+01  1.675
18501 1   47.750029  2.246293e+01  1.675
18502 1   48.973010  2.318454e+01  1.675
18503 1   46.540487  2.032138e+01  1.675
18504 1   45.304066  2.101971e+01  1.675
18505 1   45.290627  2.243965e+01  1.675
18506 1   46.513608  2.316126e+01  1.675
18507 1   44.081085  2.029811e+01  1.675
18508 1   42.844664  2.099644e+01  1.675
18509 1   42.831225  2.241637e+01  1.675
18510 1   44.054206  2.313798e+01  1.675
18511 1   41.621683  2.027483e+01  1.675
18512 1   40.385262  2.097316e+01  1.675
18513 1   40.371823  2.239310e+01  1.675
18514 1   41.594804  2.311470e+01  1.675
18515 1   39.162281  2.025155e+01  1.675
18516 1   37.925860  2.094988e+01  1.675
18517 1   37.912421  2.236982e+01  1.675
18518 1   39.135402  2.309142e+01  1.675
18519 1   36.702879  2.022827e+01  1.675
18520 1   35.466458  2.092660e+01  1.675
18521 1   35.453019  2.234654e+01  1.675
18522 1   36.676000  2.306815e+01  1.675
18523 1   34.243477  2.020500e+01  1.675
18524 1   33.007056  2.090333e+01  1.675
18525 1   32.993617  2.232326e+01  1.675
18526 1   34.216598  2.304487e+01  1.675
18527 1   31.784075  2.018172e+01  1.675
18528 1   30.547654  2.088005e+01  1.675
18529 1   30.534215  2.229998e+01  1.675
18530 1   31.757196  2.302159e+01  1.675
18531 1   29.324673  2.015844e+01  1.675
18532 1   28.088252  2.085677e+01  1.675
18533 1   28.074813  2.227671e+01  1.675
18534 1   29.297794  2.299831e+01  1.675
18535 1   26.865271  2.013516e+01  1.675
18536 1   25.628850  2.083349e+01  1.675
18537 1   25.615411  2.225343e+01  1.675
18538 1   26.838392  2.297504e+01  1.675
18539 1   24.405869  2.011189e+01  1.675
18540 1   23.169448  2.081022e+01  1.675
18541 1   23.156009  2.223015e+01  1.675
18542 1   24.378990  2.295176e+01  1.675
18543 1   21.946467  2.008861e+01  1.675
18544 1   20.710046  2.078694e+01  1.675
18545 1   20.696607  2.220687e+01  1.675
18546 1   21.919588  2.292848e+01  1.675
18547 1   19.487065  2.006533e+01  1.675
18548 1   18.250644  2.076366e+01  1.675
18549 1   18.237205  2.218360e+01  1.675
18550 1   19.460186  2.290520e+01  1.675
18551 1   17.027663  2.004205e+01  1.675
18552 1   15.791242  2.074038e+01  1.675
18553 1   15.777803  2.216032e+01  1.675
18554 1   17.000784  2.288193e+01  1.675
18555 1   14.568261  2.001878e+01  1.675
18556 1   13.331840  2.071710e+01  1.675
18557 1   13.318401  2.213704e+01  1.675
18558 1   14.541382  2.285865e+01  1.675
18559 1   12.108859  1.999550e+01  1.675
18560 1   10.872438  2.069383e+01  1.675
18561 1   10.858999  2.211376e+01  1.675
18562 1   12.081980  2.283537e+01  1.675
18563 1    9.649457  1.997222e+01  1.675
18564 1    8.413036  2.067055e+01  1.675
18565 1    8.399597  2.209049e+01  1.675
18566 1    9.622578  2.281209e+01  1.675
18567 1    7.190055  1.994894e+01  1.675
18568 1    5.953634  2.064727e+01  1.675
18569 1    5.940195  2.206721e+01  1.675
18570 1    7.163176  2.278882e+01  1.675
18571 1    4.730653  1.992566e+01  1.675
18572 1    3.494232  2.062399e+01  1.675
18573 1    3.480793  2.204393e+01  1.675
18574 1    4.703774  2.276554e+01  1.675
18575 1    2.271251  1.990239e+01  1.675
18576 1    1.034830  2.060072e+01  1.675
18577 1    1.021391  2.202065e+01  1.675
18578 1    2.244372  2.274226e+01  1.675
18579 1   -0.188151  1.987911e+01  1.675
18580 1   -1.424572  2.057744e+01  1.675
18581 1   -1.438011  2.199738e+01  1.675
18582 1   -0.215030  2.271898e+01  1.675
18583 1   -2.647553  1.985583e+01  1.675
18584 1   -3.883974  2.055416e+01  1.675
18585 1   -3.897413  2.197410e+01  1.675
18586 1   -2.674432  2.269570e+01  1.675
18587 1   -5.106955  1.983255e+01  1.675
18588 1   -6.343376  2.053088e+01  1.675
18589 1   -6.356815  2.195082e+01  1.675
18590 1   -5.133834  2.267243e+01  1.675
18591 1   -7.566357  1.980928e+01  1.675
18592 1   -8.802778  2.050761e+01  1.675
18593 1   -8.816217  2.192754e+01  1.675
18594 1   -7.593236  2.264915e+01  1.675
18595 1  -10.025759  1.978600e+01  1.675
18596 1  -11.262180  2.048433e+01  1.675
18597 1  -11.275619  2.190426e+01  1.675
18598 1  -10.052638  2.262587e+01  1.675
18599 1  -12.485161  1.976272e+01  1.675
18600 1  -13.721582  2.046105e+01  1.675
18601 1  -13.735021  2.188099e+01  1.675
18602 1  -12.512040  2.260259e+01  1.675
18603 1  -14.944563  1.973944e+01  1.675
18604 1  -16.180984  2.043777e+01  1.675
18605 1  -16.194423  2.185771e+01  1.675
18606 1  -14.971442  2.257932e+01  1.675
18607 1  -17.403965  1.971617e+01  1.675
18608 1  -18.640386  2.041450e+01  1.675
18609 1  -18.653825  2.183443e+01  1.675
18610 1  -17.430844  2.255604e+01  1.675
18611 1  -19.863367  1.969289e+01  1.675
18612 1  -21.099788  2.039122e+01  1.675
18613 1  -21.113227  2.181115e+01  1.675
18614 1  -19.890246  2.253276e+01  1.675
18615 1  -22.322769  1.966961e+01  1.675
18616 1  -23.559190  2.036794e+01  1.675
18617 1  -23.572629  2.178788e+01  1.675
18618 1  -22.349648  2.250948e+01  1.675
18619 1  -24.782171  1.964633e+01  1.675
18620 1  -26.018592  2.034466e+01  1.675
18621 1  -26.032031  2.176460e+01  1.675
18622 1  -24.809050  2.248621e+01  1.675
18623 1  -27.241573  1.962306e+01  1.675
18624 1  -28.477994  2.032138e+01  1.675
18625 1  -28.491433  2.174132e+01  1.675
18626 1  -27.268452  2.246293e+01  1.675
18627 1  -29.700975  1.959978e+01  1.675
18628 1  -30.937396  2.029811e+01  1.675
18629 1  -30.950835  2.171804e+01  1.675
18630 1  -29.727854  2.243965e+01  1.675
18631 1  -32.160377  1.957650e+01  1.675
18632 1  -33.396798  2.027483e+01  1.675
18633 1  -33.410237  2.169477e+01  1.675
18634 1  -32.187256  2.241637e+01  1.675
18635 1  -34.619779  1.955322e+01  1.675
18636 1  -35.856200  2.025155e+01  1.675
18637 1  -35.869639  2.167149e+01  1.675
18638 1  -34.646658  2.239310e+01  1.675
18639 1  -37.079181  1.952994e+01  1.675
18640 1  -38.315602  2.022827e+01  1.675
18641 1  -38.329041  2.164821e+01  1.675
18642 1  -37.106060  2.236982e+01  1.675
18643 1  -39.538583  1.950667e+01  1.675
18644 1  -40.775003  2.020500e+01  1.675
18645 1  -40.788443  2.162493e+01  1.675
18646 1  -39.565462  2.234654e+01  1.675
18647 1  -41.997985  1.948339e+01  1.675
18648 1  -43.234405  2.018172e+01  1.675
18649 1  -43.247845  2.160166e+01  1.675
18650 1  -42.024864  2.232326e+01  1.675
18651 1  -44.457387  1.946011e+01  1.675
18652 1  -45.693807  2.015844e+01  1.675
18653 1  -45.707247  2.157838e+01  1.675
18654 1  -44.484266  2.229998e+01  1.675
18655 1  -46.916789  1.943683e+01  1.675
18656 1  -48.153209  2.013516e+01  1.675
18657 1  -48.166649  2.155510e+01  1.675
18658 1  -46.943668  2.227671e+01  1.675
18659 1  -49.376191  1.941356e+01  1.675
18660 1  -50.612611  2.011189e+01  1.675
18661 1  -50.626051  2.153182e+01  1.675
18662 1  -49.403069  2.225343e+01  1.675
18663 1  -51.835593  1.939028e+01  1.675
18664 1  -53.072013  2.008861e+01  1.675
18665 1  -53.085453  2.150854e+01  1.675
18666 1  -51.862471  2.223015e+01  1.675
18667 1  -54.294995  1.936700e+01  1.675
18668 1  -55.531415  2.006533e+01  1.675
18669 1  -55.544855  2.148527e+01  1.675
18670 1  -54.321873  2.220687e+01  1.675
18671 1  -56.754397  1.934372e+01  1.675
18672 1  -57.990817  2.004205e+01  1.675
18673 1  -58.004257  2.146199e+01  1.675
18674 1  -56.781275  2.218360e+01  1.675
18675 1  -59.213799  1.932045e+01  1.675
18676 1  -60.450219  2.001878e+01  1.675
18677 1  -60.463659  2.143871e+01  1.675
18678 1  -59.240677  2.216032e+01  1.675
18679 1  -61.673201  1.929717e+01  1.675
18680 1  -62.909621  1.999550e+01  1.675
18681 1  -62.923061  2.141543e+01  1.675
18682 1  -61.700079  2.213704e+01  1.675
18683 1  -64.132603  1.927389e+01  1.675
18684 1  -65.369023  1.997222e+01  1.675
18685 1  -65.382463  2.139216e+01  1.675
18686 1  -64.159481  2.211376e+01  1.675
18687 1  -66.592005  1.925061e+01  1.675
18688 1  -67.828425  1.994894e+01  1.675
18689 1  -67.841865  2.136888e+01  1.675
18690 1  -66.618883  2.209049e+01  1.675
18691 1  -69.051407  1.922734e+01  1.675
18692 1  -70.287827  1.992566e+01  1.675
18693 1  -70.301267  2.134560e+01  1.675
18694 1  -69.078285  2.206721e+01  1.675
18695 1  -71.510809  1.920406e+01  1.675
18696 1  -72.747229  1.990239e+01  1.675
18697 1  -72.760669  2.132232e+01  1.675
18698 1  -71.537687  2.204393e+01  1.675
18699 1  -73.970211  1.918078e+01  1.675
18700 1  -75.206631  1.987911e+01  1.675
18701 1  -75.220071  2.129905e+01  1.675
18702 1  -73.997089  2.202065e+01  1.675
18703 1  -76.429613  1.915750e+01  1.675
18704 1  -77.666033  1.985583e+01  1.675
18705 1  -77.679473  2.127577e+01  1.675
18706 1  -76.456491  2.199738e+01  1.675
18707 1  -78.889015  1.913422e+01  1.675
18708 1  -80.125435  1.983255e+01  1.675
18709 1  -80.138875  2.125249e+01  1.675
18710 1  -78.915893  2.197410e+01  1.675
18711 1  -81.348417  1.911095e+01  1.675
18712 1  -82.584837  1.980928e+01  1.675
18713 1  -82.598277  2.122921e+01  1.675
18714 1  -81.375295  2.195082e+01  1.675
18715 1  -83.807819  1.908767e+01  1.675
18716 1  -85.044239  1.978600e+01  1.675
18717 1  -85.057679  2.120594e+01  1.675
18718 1  -83.834697  2.192754e+01  1.675
18719 1  -86.267221  1.906439e+01  1.675
18720 1  -87.503641  1.976272e+01  1.675
18721 1  -87.517081  2.118266e+01  1.675
18722 1  -86.294099  2.190426e+01  1.675
18723 1  -88.726623  1.904111e+01  1.675
18724 1  -89.963043  1.973944e+01  1.675
18725 1  -89.976483  2.115938e+01  1.675
18726 1  -88.753501  2.188099e+01  1.675
18727 1  -91.186025  1.901784e+01  1.675
18728 1  -92.422445  1.971617e+01  1.675
18729 1  -92.435885  2.113610e+01  1.675
18730 1  -91.212903  2.185771e+01  1.675
18731 1  -93.645427  1.899456e+01  1.675
18732 1  -94.881847  1.969289e+01  1.675
18733 1  -94.895287  2.111282e+01  1.675
18734 1  -93.672305  2.183443e+01  1.675
18735 1  -96.104829  1.897128e+01  1.675
18736 1  -97.341249  1.966961e+01  1.675
18737 1  -97.354689  2.108955e+01  1.675
18738 1  -96.131707  2.181115e+01  1.675
18739 1  -98.564231  1.894800e+01  1.675
18740 1  -99.800651  1.964633e+01  1.675
18741 1  -99.814091  2.106627e+01  1.675
18742 1  -98.591109  2.178788e+01  1.675
18743 1 -101.023633  1.892473e+01  1.675
18744 1 -102.260053  1.962306e+01  1.675
18745 1 -102.273493  2.104299e+01  1.675
18746 1 -101.050511  2.176460e+01  1.675
18747 1 -103.483035  1.890145e+01  1.675
18748 1 -104.719455  1.959978e+01  1.675
18749 1 -104.732895  2.101971e+01  1.675
18750 1 -103.509913  2.174132e+01  1.675
18751 1 -105.942437  1.887817e+01  1.675
18752 1 -107.178857  1.957650e+01  1.675
18753 1 -107.192297  2.099644e+01  1.675
18754 1 -105.969315  2.171804e+01  1.675
18755 1 -108.401839  1.885489e+01  1.675
18756 1 -109.638259  1.955322e+01  1.675
18757 1 -109.651699  2.097316e+01  1.675
18758 1 -108.428717  2.169477e+01  1.675
18759 1 -110.861241  1.883162e+01  1.675
18760 1 -112.097661  1.952994e+01  1.675
18761 1 -112.111101  2.094988e+01  1.675
18762 1 -110.888119  2.167149e+01  1.675
18763 1  111.667602  2.590802e+01  1.675
18764 1  111.654163  2.732796e+01  1.675
18765 1  110.444621  2.518641e+01  1.675
18766 1  109.208200  2.588474e+01  1.675
18767 1  109.194761  2.730468e+01  1.675
18768 1  110.417742  2.802629e+01  1.675
18769 1  107.985219  2.516314e+01  1.675
18770 1  106.748798  2.586146e+01  1.675
18771 1  106.735359  2.728140e+01  1.675
18772 1  107.958340  2.800301e+01  1.675
18773 1  105.525817  2.513986e+01  1.675
18774 1  104.289396  2.583819e+01  1.675
18775 1  104.275957  2.725812e+01  1.675
18776 1  105.498938  2.797973e+01  1.675
18777 1  103.066415  2.511658e+01  1.675
18778 1  101.829994  2.581491e+01  1.675
18779 1  101.816555  2.723485e+01  1.675
18780 1  103.039536  2.795645e+01  1.675
18781 1  100.607013  2.509330e+01  1.675
18782 1   99.370592  2.579163e+01  1.675
18783 1   99.357153  2.721157e+01  1.675
18784 1  100.580134  2.793318e+01  1.675
18785 1   98.147611  2.507002e+01  1.675
18786 1   96.911190  2.576835e+01  1.675
18787 1   96.897751  2.718829e+01  1.675
18788 1   98.120732  2.790990e+01  1.675
18789 1   95.688209  2.504675e+01  1.675
18790 1   94.451788  2.574508e+01  1.675
18791 1   94.438349  2.716501e+01  1.675
18792 1   95.661330  2.788662e+01  1.675
18793 1   93.228807  2.502347e+01  1.675
18794 1   91.992386  2.572180e+01  1.675
18795 1   91.978947  2.714174e+01  1.675
18796 1   93.201928  2.786334e+01  1.675
18797 1   90.769405  2.500019e+01  1.675
18798 1   89.532984  2.569852e+01  1.675
18799 1   89.519545  2.711846e+01  1.675
18800 1   90.742526  2.784006e+01  1.675
18801 1   88.310003  2.497691e+01  1.675
18802 1   87.073582  2.567524e+01  1.675
18803 1   87.060143  2.709518e+01  1.675
18804 1   88.283124  2.781679e+01  1.675
18805 1   85.850601  2.495364e+01  1.675
18806 1   84.614180  2.565197e+01  1.675
18807 1   84.600741  2.707190e+01  1.675
18808 1   85.823722  2.779351e+01  1.675
18809 1   83.391199  2.493036e+01  1.675
18810 1   82.154778  2.562869e+01  1.675
18811 1   82.141339  2.704862e+01  1.675
18812 1   83.364320  2.777023e+01  1.675
18813 1   80.931797  2.490708e+01  1.675
18814 1   79.695376  2.560541e+01  1.675
18815 1   79.681937  2.702535e+01  1.675
18816 1   80.904918  2.774695e+01  1.675
18817 1   78.472395  2.488380e+01  1.675
18818 1   77.235974  2.558213e+01  1.675
18819 1   77.222535  2.700207e+01  1.675
18820 1   78.445516  2.772368e+01  1.675
18821 1   76.012993  2.486053e+01  1.675
18822 1   74.776572  2.555886e+01  1.675
18823 1   74.763133  2.697879e+01  1.675
18824 1   75.986114  2.770040e+01  1.675
18825 1   73.553591  2.483725e+01  1.675
18826 1   72.317170  2.553558e+01  1.675
18827 1   72.303731  2.695551e+01  1.675
18828 1   73.526712  2.767712e+01  1.675
18829 1   71.094189  2.481397e+01  1.675
18830 1   69.857768  2.551230e+01  1.675
18831 1   69.844329  2.693224e+01  1.675
18832 1   71.067310  2.765384e+01  1.675
18833 1   68.634787  2.479069e+01  1.675
18834 1   67.398366  2.548902e+01  1.675
18835 1   67.384927  2.690896e+01  1.675
18836 1   68.607908  2.763057e+01  1.675
18837 1   66.175385  2.476742e+01  1.675
18838 1   64.938964  2.546574e+01  1.675
18839 1   64.925525  2.688568e+01  1.675
18840 1   66.148506  2.760729e+01  1.675
18841 1   63.715983  2.474414e+01  1.675
18842 1   62.479562  2.544247e+01  1.675
18843 1   62.466123  2.686240e+01  1.675
18844 1   63.689104  2.758401e+01  1.675
18845 1   61.256581  2.472086e+01  1.675
18846 1   60.020160  2.541919e+01  1.675
18847 1   60.006721  2.683913e+01  1.675
18848 1   61.229702  2.756073e+01  1.675
18849 1   58.797179  2.469758e+01  1.675
18850 1   57.560758  2.539591e+01  1.675
18851 1   57.547319  2.681585e+01  1.675
18852 1   58.770300  2.753746e+01  1.675
18853 1   56.337777  2.467430e+01  1.675
18854 1   55.101356  2.537263e+01  1.675
18855 1   55.087917  2.679257e+01  1.675
18856 1   56.310898  2.751418e+01  1.675
18857 1   53.878375  2.465103e+01  1.675
18858 1   52.641954  2.534936e+01  1.675
18859 1   52.628515  2.676929e+01  1.675
18860 1   53.851496  2.749090e+01  1.675
18861 1   51.418973  2.462775e+01  1.675
18862 1   50.182552  2.532608e+01  1.675
18863 1   50.169113  2.674602e+01  1.675
18864 1   51.392094  2.746762e+01  1.675
18865 1   48.959571  2.460447e+01  1.675
18866 1   47.723150  2.530280e+01  1.675
18867 1   47.709711  2.672274e+01  1.675
18868 1   48.932692  2.744434e+01  1.675
18869 1   46.500169  2.458119e+01  1.675
18870 1   45.263748  2.527952e+01  1.675
18871 1   45.250309  2.669946e+01  1.675
18872 1   46.473290  2.742107e+01  1.675
18873 1   44.040767  2.455792e+01  1.675
18874 1   42.804346  2.525625e+01  1.675
18875 1   42.790907  2.667618e+01  1.675
18876 1   44.013888  2.739779e+01  1.675
18877 1   41.581365  2.453464e+01  1.675
18878 1   40.344944  2.523297e+01  1.675
18879 1   40.331505  2.665290e+01  1.675
18880 1   41.554486  2.737451e+01  1.675
18881 1   39.121963  2.451136e+01  1.675
18882 1   37.885542  2.520969e+01  1.675
18883 1   37.872103  2.662963e+01  1.675
18884 1   39.095084  2.735123e+01  1.675
18885 1   36.662561  2.448808e+01  1.675
18886 1   35.426140  2.518641e+01  1.675
18887 1   35.412701  2.660635e+01  1.675
18888 1   36.635682  2.732796e+01  1.675
18889 1   34.203159  2.446481e+01  1.675
18890 1   32.966738  2.516314e+01  1.675
18891 1   32.953299  2.658307e+01  1.675
18892 1   34.176280  2.730468e+01  1.675
18893 1   31.743757  2.444153e+01  1.675
18894 1   30.507336  2.513986e+01  1.675
18895 1   30.493897  2.655979e+01  1.675
18896 1   31.716878  2.728140e+01  1.675
18897 1   29.284355  2.441825e+01  1.675
18898 1   28.047934  2.511658e+01  1.675
18899 1   28.034495  2.653652e+01  1.675
18900 1   29.257476  2.725812e+01  1.675
18901 1   26.824953  2.439497e+01  1.675
18902 1   25.588532  2.509330e+01  1.675
18903 1   25.575093  2.651324e+01  1.675
18904 1   26.798074  2.723485e+01  1.675
18905 1   24.365551  2.437170e+01  1.675
18906 1   23.129130  2.507002e+01  1.675
18907 1   23.115691  2.648996e+01  1.675
18908 1   24.338672  2.721157e+01  1.675
18909 1   21.906149  2.434842e+01  1.675
18910 1   20.669728  2.504675e+01  1.675
18911 1   20.656289  2.646668e+01  1.675
18912 1   21.879270  2.718829e+01  1.675
18913 1   19.446747  2.432514e+01  1.675
18914 1   18.210326  2.502347e+01  1.675
18915 1   18.196887  2.644341e+01  1.675
18916 1   19.419868  2.716501e+01  1.675
18917 1   16.987345  2.430186e+01  1.675
18918 1   15.750924  2.500019e+01  1.675
18919 1   15.737485  2.642013e+01  1.675
18920 1   16.960466  2.714174e+01  1.675
18921 1   14.527943  2.427858e+01  1.675
18922 1   13.291522  2.497691e+01  1.675
18923 1   13.278083  2.639685e+01  1.675
18924 1   14.501064  2.711846e+01  1.675
18925 1   12.068541  2.425531e+01  1.675
18926 1   10.832120  2.495364e+01  1.675
18927 1   10.818681  2.637357e+01  1.675
18928 1   12.041662  2.709518e+01  1.675
18929 1    9.609139  2.423203e+01  1.675
18930 1    8.372718  2.493036e+01  1.675
18931 1    8.359279  2.635030e+01  1.675
18932 1    9.582260  2.707190e+01  1.675
18933 1    7.149737  2.420875e+01  1.675
18934 1    5.913316  2.490708e+01  1.675
18935 1    5.899877  2.632702e+01  1.675
18936 1    7.122858  2.704862e+01  1.675
18937 1    4.690335  2.418547e+01  1.675
18938 1    3.453914  2.488380e+01  1.675
18939 1    3.440475  2.630374e+01  1.675
18940 1    4.663456  2.702535e+01  1.675
18941 1    2.230933  2.416220e+01  1.675
18942 1    0.994512  2.486053e+01  1.675
18943 1    0.981073  2.628046e+01  1.675
18944 1    2.204054  2.700207e+01  1.675
18945 1   -0.228469  2.413892e+01  1.675
18946 1   -1.464890  2.483725e+01  1.675
18947 1   -1.478329  2.625718e+01  1.675
18948 1   -0.255348  2.697879e+01  1.675
18949 1   -2.687871  2.411564e+01  1.675
18950 1   -3.924292  2.481397e+01  1.675
18951 1   -3.937731  2.623391e+01  1.675
18952 1   -2.714750  2.695551e+01  1.675
18953 1   -5.147273  2.409236e+01  1.675
18954 1   -6.383694  2.479069e+01  1.675
18955 1   -6.397133  2.621063e+01  1.675
18956 1   -5.174152  2.693224e+01  1.675
18957 1   -7.606675  2.406909e+01  1.675
18958 1   -8.843096  2.476742e+01  1.675
18959 1   -8.856535  2.618735e+01  1.675
18960 1   -7.633554  2.690896e+01  1.675
18961 1  -10.066077  2.404581e+01  1.675
18962 1  -11.302498  2.474414e+01  1.675
18963 1  -11.315937  2.616407e+01  1.675
18964 1  -10.092956  2.688568e+01  1.675
18965 1  -12.525479  2.402253e+01  1.675
18966 1  -13.761900  2.472086e+01  1.675
18967 1  -13.775339  2.614080e+01  1.675
18968 1  -12.552358  2.686240e+01  1.675
18969 1  -14.984881  2.399925e+01  1.675
18970 1  -16.221302  2.469758e+01  1.675
18971 1  -16.234741  2.611752e+01  1.675
18972 1  -15.011760  2.683913e+01  1.675
18973 1  -17.444283  2.397598e+01  1.675
18974 1  -18.680704  2.467430e+01  1.675
18975 1  -18.694143  2.609424e+01  1.675
18976 1  -17.471162  2.681585e+01  1.675
18977 1  -19.903685  2.395270e+01  1.675
18978 1  -21.140106  2.465103e+01  1.675
18979 1  -21.153545  2.607096e+01  1.675
18980 1  -19.930564  2.679257e+01  1.675
18981 1  -22.363087  2.392942e+01  1.675
18982 1  -23.599508  2.462775e+01  1.675
18983 1  -23.612947  2.604769e+01  1.675
18984 1  -22.389966  2.676929e+01  1.675
18985 1  -24.822489  2.390614e+01  1.675
18986 1  -26.058910  2.460447e+01  1.675
18987 1  -26.072349  2.602441e+01  1.675
18988 1  -24.849368  2.674602e+01  1.675
18989 1  -27.281891  2.388286e+01  1.675
18990 1  -28.518312  2.458119e+01  1.675
18991 1  -28.531751  2.600113e+01  1.675
18992 1  -27.308770  2.672274e+01  1.675
18993 1  -29.741293  2.385959e+01  1.675
18994 1  -30.977714  2.455792e+01  1.675
18995 1  -30.991153  2.597785e+01  1.675
18996 1  -29.768172  2.669946e+01  1.675
18997 1  -32.200695  2.383631e+01  1.675
18998 1  -33.437116  2.453464e+01  1.675
18999 1  -33.450555  2.595458e+01  1.675
19000 1  -32.227574  2.667618e+01  1.675
19001 1  -34.660097  2.381303e+01  1.675
19002 1  -35.896518  2.451136e+01  1.675
19003 1  -35.909957  2.593130e+01  1.675
19004 1  -34.686976  2.665290e+01  1.675
19005 1  -37.119499  2.378975e+01  1.675
19006 1  -38.355920  2.448808e+01  1.675
19007 1  -38.369359  2.590802e+01  1.675
19008 1  -37.146378  2.662963e+01  1.675
19009 1  -39.578901  2.376648e+01  1.675
19010 1  -40.815322  2.446481e+01  1.675
19011 1  -40.828761  2.588474e+01  1.675
19012 1  -39.605780  2.660635e+01  1.675
19013 1  -42.038303  2.374320e+01  1.675
19014 1  -43.274724  2.444153e+01  1.675
19015 1  -43.288163  2.586146e+01  1.675
19016 1  -42.065182  2.658307e+01  1.675
19017 1  -44.497705  2.371992e+01  1.675
19018 1  -45.734126  2.441825e+01  1.675
19019 1  -45.747565  2.583819e+01  1.675
19020 1  -44.524584  2.655979e+01  1.675
19021 1  -46.957107  2.369664e+01  1.675
19022 1  -48.193528  2.439497e+01  1.675
19023 1  -48.206967  2.581491e+01  1.675
19024 1  -46.983986  2.653652e+01  1.675
19025 1  -49.416509  2.367337e+01  1.675
19026 1  -50.652930  2.437170e+01  1.675
19027 1  -50.666369  2.579163e+01  1.675
19028 1  -49.443388  2.651324e+01  1.675
19029 1  -51.875911  2.365009e+01  1.675
19030 1  -53.112332  2.434842e+01  1.675
19031 1  -53.125771  2.576835e+01  1.675
19032 1  -51.902790  2.648996e+01  1.675
19033 1  -54.335313  2.362681e+01  1.675
19034 1  -55.571734  2.432514e+01  1.675
19035 1  -55.585173  2.574508e+01  1.675
19036 1  -54.362192  2.646668e+01  1.675
19037 1  -56.794715  2.360353e+01  1.675
19038 1  -58.031135  2.430186e+01  1.675
19039 1  -58.044575  2.572180e+01  1.675
19040 1  -56.821594  2.644341e+01  1.675
19041 1  -59.254117  2.358026e+01  1.675
19042 1  -60.490537  2.427858e+01  1.675
19043 1  -60.503977  2.569852e+01  1.675
19044 1  -59.280996  2.642013e+01  1.675
19045 1  -61.713519  2.355698e+01  1.675
19046 1  -62.949939  2.425531e+01  1.675
19047 1  -62.963379  2.567524e+01  1.675
19048 1  -61.740398  2.639685e+01  1.675
19049 1  -64.172921  2.353370e+01  1.675
19050 1  -65.409341  2.423203e+01  1.675
19051 1  -65.422781  2.565197e+01  1.675
19052 1  -64.199800  2.637357e+01  1.675
19053 1  -66.632323  2.351042e+01  1.675
19054 1  -67.868743  2.420875e+01  1.675
19055 1  -67.882183  2.562869e+01  1.675
19056 1  -66.659201  2.635030e+01  1.675
19057 1  -69.091725  2.348714e+01  1.675
19058 1  -70.328145  2.418547e+01  1.675
19059 1  -70.341585  2.560541e+01  1.675
19060 1  -69.118603  2.632702e+01  1.675
19061 1  -71.551127  2.346387e+01  1.675
19062 1  -72.787547  2.416220e+01  1.675
19063 1  -72.800987  2.558213e+01  1.675
19064 1  -71.578005  2.630374e+01  1.675
19065 1  -74.010529  2.344059e+01  1.675
19066 1  -75.246949  2.413892e+01  1.675
19067 1  -75.260389  2.555886e+01  1.675
19068 1  -74.037407  2.628046e+01  1.675
19069 1  -76.469931  2.341731e+01  1.675
19070 1  -77.706351  2.411564e+01  1.675
19071 1  -77.719791  2.553558e+01  1.675
19072 1  -76.496809  2.625718e+01  1.675
19073 1  -78.929333  2.339403e+01  1.675
19074 1  -80.165753  2.409236e+01  1.675
19075 1  -80.179193  2.551230e+01  1.675
19076 1  -78.956211  2.623391e+01  1.675
19077 1  -81.388735  2.337076e+01  1.675
19078 1  -82.625155  2.406909e+01  1.675
19079 1  -82.638595  2.548902e+01  1.675
19080 1  -81.415613  2.621063e+01  1.675
19081 1  -83.848137  2.334748e+01  1.675
19082 1  -85.084557  2.404581e+01  1.675
19083 1  -85.097997  2.546574e+01  1.675
19084 1  -83.875015  2.618735e+01  1.675
19085 1  -86.307539  2.332420e+01  1.675
19086 1  -87.543959  2.402253e+01  1.675
19087 1  -87.557399  2.544247e+01  1.675
19088 1  -86.334417  2.616407e+01  1.675
19089 1  -88.766941  2.330092e+01  1.675
19090 1  -90.003361  2.399925e+01  1.675
19091 1  -90.016801  2.541919e+01  1.675
19092 1  -88.793819  2.614080e+01  1.675
19093 1  -91.226343  2.327765e+01  1.675
19094 1  -92.462763  2.397598e+01  1.675
19095 1  -92.476203  2.539591e+01  1.675
19096 1  -91.253221  2.611752e+01  1.675
19097 1  -93.685745  2.325437e+01  1.675
19098 1  -94.922165  2.395270e+01  1.675
19099 1  -94.935605  2.537263e+01  1.675
19100 1  -93.712623  2.609424e+01  1.675
19101 1  -96.145147  2.323109e+01  1.675
19102 1  -97.381567  2.392942e+01  1.675
19103 1  -97.395007  2.534936e+01  1.675
19104 1  -96.172025  2.607096e+01  1.675
19105 1  -98.604549  2.320781e+01  1.675
19106 1  -99.840969  2.390614e+01  1.675
19107 1  -99.854409  2.532608e+01  1.675
19108 1  -98.631427  2.604769e+01  1.675
19109 1 -101.063951  2.318454e+01  1.675
19110 1 -102.300371  2.388286e+01  1.675
19111 1 -102.313811  2.530280e+01  1.675
19112 1 -101.090829  2.602441e+01  1.675
19113 1 -103.523353  2.316126e+01  1.675
19114 1 -104.759773  2.385959e+01  1.675
19115 1 -104.773213  2.527952e+01  1.675
19116 1 -103.550231  2.600113e+01  1.675
19117 1 -105.982755  2.313798e+01  1.675
19118 1 -107.219175  2.383631e+01  1.675
19119 1 -107.232615  2.525625e+01  1.675
19120 1 -106.009633  2.597785e+01  1.675
19121 1 -108.442157  2.311470e+01  1.675
19122 1 -109.678577  2.381303e+01  1.675
19123 1 -109.692017  2.523297e+01  1.675
19124 1 -108.469035  2.595458e+01  1.675
19125 1 -110.901559  2.309142e+01  1.675
19126 1 -112.137979  2.378975e+01  1.675
19127 1 -112.151419  2.520969e+01  1.675
19128 1 -110.928437  2.593130e+01  1.675
19129 1  111.627284  3.016783e+01  1.675
19130 1  111.613844  3.158777e+01  1.675
19131 1  110.404302  2.944622e+01  1.675
19132 1  109.167882  3.014455e+01  1.675
19133 1  109.154442  3.156449e+01  1.675
19134 1  110.377424  3.228609e+01  1.675
19135 1  107.944900  2.942294e+01  1.675
19136 1  106.708480  3.012127e+01  1.675
19137 1  106.695040  3.154121e+01  1.675
19138 1  107.918022  3.226282e+01  1.675
19139 1  105.485498  2.939967e+01  1.675
19140 1  104.249078  3.009800e+01  1.675
19141 1  104.235638  3.151793e+01  1.675
19142 1  105.458620  3.223954e+01  1.675
19143 1  103.026097  2.937639e+01  1.675
19144 1  101.789676  3.007472e+01  1.675
19145 1  101.776236  3.149465e+01  1.675
19146 1  102.999218  3.221626e+01  1.675
19147 1  100.566695  2.935311e+01  1.675
19148 1   99.330274  3.005144e+01  1.675
19149 1   99.316834  3.147138e+01  1.675
19150 1  100.539816  3.219298e+01  1.675
19151 1   98.107293  2.932983e+01  1.675
19152 1   96.870872  3.002816e+01  1.675
19153 1   96.857432  3.144810e+01  1.675
19154 1   98.080414  3.216971e+01  1.675
19155 1   95.647891  2.930656e+01  1.675
19156 1   94.411470  3.000489e+01  1.675
19157 1   94.398031  3.142482e+01  1.675
19158 1   95.621012  3.214643e+01  1.675
19159 1   93.188489  2.928328e+01  1.675
19160 1   91.952068  2.998161e+01  1.675
19161 1   91.938629  3.140154e+01  1.675
19162 1   93.161610  3.212315e+01  1.675
19163 1   90.729087  2.926000e+01  1.675
19164 1   89.492666  2.995833e+01  1.675
19165 1   89.479227  3.137827e+01  1.675
19166 1   90.702208  3.209987e+01  1.675
19167 1   88.269685  2.923672e+01  1.675
19168 1   87.033264  2.993505e+01  1.675
19169 1   87.019825  3.135499e+01  1.675
19170 1   88.242806  3.207660e+01  1.675
19171 1   85.810283  2.921345e+01  1.675
19172 1   84.573862  2.991178e+01  1.675
19173 1   84.560423  3.133171e+01  1.675
19174 1   85.783404  3.205332e+01  1.675
19175 1   83.350881  2.919017e+01  1.675
19176 1   82.114460  2.988850e+01  1.675
19177 1   82.101021  3.130843e+01  1.675
19178 1   83.324002  3.203004e+01  1.675
19179 1   80.891479  2.916689e+01  1.675
19180 1   79.655058  2.986522e+01  1.675
19181 1   79.641619  3.128516e+01  1.675
19182 1   80.864600  3.200676e+01  1.675
19183 1   78.432077  2.914361e+01  1.675
19184 1   77.195656  2.984194e+01  1.675
19185 1   77.182217  3.126188e+01  1.675
19186 1   78.405198  3.198349e+01  1.675
19187 1   75.972675  2.912034e+01  1.675
19188 1   74.736254  2.981866e+01  1.675
19189 1   74.722815  3.123860e+01  1.675
19190 1   75.945796  3.196021e+01  1.675
19191 1   73.513273  2.909706e+01  1.675
19192 1   72.276852  2.979539e+01  1.675
19193 1   72.263413  3.121532e+01  1.675
19194 1   73.486394  3.193693e+01  1.675
19195 1   71.053871  2.907378e+01  1.675
19196 1   69.817450  2.977211e+01  1.675
19197 1   69.804011  3.119205e+01  1.675
19198 1   71.026992  3.191365e+01  1.675
19199 1   68.594469  2.905050e+01  1.675
19200 1   67.358048  2.974883e+01  1.675
19201 1   67.344609  3.116877e+01  1.675
19202 1   68.567590  3.189037e+01  1.675
19203 1   66.135067  2.902722e+01  1.675
19204 1   64.898646  2.972555e+01  1.675
19205 1   64.885207  3.114549e+01  1.675
19206 1   66.108188  3.186710e+01  1.675
19207 1   63.675665  2.900395e+01  1.675
19208 1   62.439244  2.970228e+01  1.675
19209 1   62.425805  3.112221e+01  1.675
19210 1   63.648786  3.184382e+01  1.675
19211 1   61.216263  2.898067e+01  1.675
19212 1   59.979842  2.967900e+01  1.675
19213 1   59.966403  3.109893e+01  1.675
19214 1   61.189384  3.182054e+01  1.675
19215 1   58.756861  2.895739e+01  1.675
19216 1   57.520440  2.965572e+01  1.675
19217 1   57.507001  3.107566e+01  1.675
19218 1   58.729982  3.179726e+01  1.675
19219 1   56.297459  2.893411e+01  1.675
19220 1   55.061038  2.963244e+01  1.675
19221 1   55.047599  3.105238e+01  1.675
19222 1   56.270580  3.177399e+01  1.675
19223 1   53.838057  2.891084e+01  1.675
19224 1   52.601636  2.960917e+01  1.675
19225 1   52.588197  3.102910e+01  1.675
19226 1   53.811178  3.175071e+01  1.675
19227 1   51.378655  2.888756e+01  1.675
19228 1   50.142234  2.958589e+01  1.675
19229 1   50.128795  3.100582e+01  1.675
19230 1   51.351776  3.172743e+01  1.675
19231 1   48.919253  2.886428e+01  1.675
19232 1   47.682832  2.956261e+01  1.675
19233 1   47.669393  3.098255e+01  1.675
19234 1   48.892374  3.170415e+01  1.675
19235 1   46.459851  2.884100e+01  1.675
19236 1   45.223430  2.953933e+01  1.675
19237 1   45.209991  3.095927e+01  1.675
19238 1   46.432972  3.168088e+01  1.675
19239 1   44.000449  2.881773e+01  1.675
19240 1   42.764028  2.951606e+01  1.675
19241 1   42.750589  3.093599e+01  1.675
19242 1   43.973570  3.165760e+01  1.675
19243 1   41.541047  2.879445e+01  1.675
19244 1   40.304626  2.949278e+01  1.675
19245 1   40.291187  3.091271e+01  1.675
19246 1   41.514168  3.163432e+01  1.675
19247 1   39.081645  2.877117e+01  1.675
19248 1   37.845224  2.946950e+01  1.675
19249 1   37.831785  3.088944e+01  1.675
19250 1   39.054766  3.161104e+01  1.675
19251 1   36.622243  2.874789e+01  1.675
19252 1   35.385822  2.944622e+01  1.675
19253 1   35.372383  3.086616e+01  1.675
19254 1   36.595364  3.158777e+01  1.675
19255 1   34.162841  2.872462e+01  1.675
19256 1   32.926420  2.942294e+01  1.675
19257 1   32.912981  3.084288e+01  1.675
19258 1   34.135962  3.156449e+01  1.675
19259 1   31.703439  2.870134e+01  1.675
19260 1   30.467018  2.939967e+01  1.675
19261 1   30.453579  3.081960e+01  1.675
19262 1   31.676560  3.154121e+01  1.675
19263 1   29.244037  2.867806e+01  1.675
19264 1   28.007616  2.937639e+01  1.675
19265 1   27.994177  3.079633e+01  1.675
19266 1   29.217158  3.151793e+01  1.675
19267 1   26.784635  2.865478e+01  1.675
19268 1   25.548214  2.935311e+01  1.675
19269 1   25.534775  3.077305e+01  1.675
19270 1   26.757756  3.149465e+01  1.675
19271 1   24.325233  2.863150e+01  1.675
19272 1   23.088812  2.932983e+01  1.675
19273 1   23.075373  3.074977e+01  1.675
19274 1   24.298354  3.147138e+01  1.675
19275 1   21.865831  2.860823e+01  1.675
19276 1   20.629410  2.930656e+01  1.675
19277 1   20.615971  3.072649e+01  1.675
19278 1   21.838952  3.144810e+01  1.675
19279 1   19.406429  2.858495e+01  1.675
19280 1   18.170008  2.928328e+01  1.675
19281 1   18.156569  3.070321e+01  1.675
19282 1   19.379550  3.142482e+01  1.675
19283 1   16.947027  2.856167e+01  1.675
19284 1   15.710606  2.926000e+01  1.675
19285 1   15.697167  3.067994e+01  1.675
19286 1   16.920148  3.140154e+01  1.675
19287 1   14.487625  2.853839e+01  1.675
19288 1   13.251204  2.923672e+01  1.675
19289 1   13.237765  3.065666e+01  1.675
19290 1   14.460746  3.137827e+01  1.675
19291 1   12.028223  2.851512e+01  1.675
19292 1   10.791802  2.921345e+01  1.675
19293 1   10.778363  3.063338e+01  1.675
19294 1   12.001344  3.135499e+01  1.675
19295 1    9.568821  2.849184e+01  1.675
19296 1    8.332400  2.919017e+01  1.675
19297 1    8.318961  3.061010e+01  1.675
19298 1    9.541942  3.133171e+01  1.675
19299 1    7.109419  2.846856e+01  1.675
19300 1    5.872998  2.916689e+01  1.675
19301 1    5.859559  3.058683e+01  1.675
19302 1    7.082540  3.130843e+01  1.675
19303 1    4.650017  2.844528e+01  1.675
19304 1    3.413596  2.914361e+01  1.675
19305 1    3.400157  3.056355e+01  1.675
19306 1    4.623138  3.128516e+01  1.675
19307 1    2.190615  2.842201e+01  1.675
19308 1    0.954194  2.912034e+01  1.675
19309 1    0.940755  3.054027e+01  1.675
19310 1    2.163736  3.126188e+01  1.675
19311 1   -0.268787  2.839873e+01  1.675
19312 1   -1.505208  2.909706e+01  1.675
19313 1   -1.518647  3.051699e+01  1.675
19314 1   -0.295666  3.123860e+01  1.675
19315 1   -2.728189  2.837545e+01  1.675
19316 1   -3.964610  2.907378e+01  1.675
19317 1   -3.978049  3.049372e+01  1.675
19318 1   -2.755068  3.121532e+01  1.675
19319 1   -5.187591  2.835217e+01  1.675
19320 1   -6.424012  2.905050e+01  1.675
19321 1   -6.437451  3.047044e+01  1.675
19322 1   -5.214470  3.119205e+01  1.675
19323 1   -7.646993  2.832890e+01  1.675
19324 1   -8.883414  2.902722e+01  1.675
19325 1   -8.896853  3.044716e+01  1.675
19326 1   -7.673872  3.116877e+01  1.675
19327 1  -10.106395  2.830562e+01  1.675
19328 1  -11.342816  2.900395e+01  1.675
19329 1  -11.356255  3.042388e+01  1.675
19330 1  -10.133274  3.114549e+01  1.675
19331 1  -12.565797  2.828234e+01  1.675
19332 1  -13.802218  2.898067e+01  1.675
19333 1  -13.815657  3.040061e+01  1.675
19334 1  -12.592676  3.112221e+01  1.675
19335 1  -15.025199  2.825906e+01  1.675
19336 1  -16.261620  2.895739e+01  1.675
19337 1  -16.275059  3.037733e+01  1.675
19338 1  -15.052078  3.109893e+01  1.675
19339 1  -17.484601  2.823578e+01  1.675
19340 1  -18.721022  2.893411e+01  1.675
19341 1  -18.734461  3.035405e+01  1.675
19342 1  -17.511480  3.107566e+01  1.675
19343 1  -19.944003  2.821251e+01  1.675
19344 1  -21.180424  2.891084e+01  1.675
19345 1  -21.193863  3.033077e+01  1.675
19346 1  -19.970882  3.105238e+01  1.675
19347 1  -22.403405  2.818923e+01  1.675
19348 1  -23.639826  2.888756e+01  1.675
19349 1  -23.653265  3.030749e+01  1.675
19350 1  -22.430284  3.102910e+01  1.675
19351 1  -24.862807  2.816595e+01  1.675
19352 1  -26.099228  2.886428e+01  1.675
19353 1  -26.112667  3.028422e+01  1.675
19354 1  -24.889686  3.100582e+01  1.675
19355 1  -27.322209  2.814267e+01  1.675
19356 1  -28.558630  2.884100e+01  1.675
19357 1  -28.572069  3.026094e+01  1.675
19358 1  -27.349088  3.098255e+01  1.675
19359 1  -29.781611  2.811940e+01  1.675
19360 1  -31.018032  2.881773e+01  1.675
19361 1  -31.031471  3.023766e+01  1.675
19362 1  -29.808490  3.095927e+01  1.675
19363 1  -32.241013  2.809612e+01  1.675
19364 1  -33.477434  2.879445e+01  1.675
19365 1  -33.490873  3.021438e+01  1.675
19366 1  -32.267892  3.093599e+01  1.675
19367 1  -34.700415  2.807284e+01  1.675
19368 1  -35.936836  2.877117e+01  1.675
19369 1  -35.950275  3.019111e+01  1.675
19370 1  -34.727294  3.091271e+01  1.675
19371 1  -37.159817  2.804956e+01  1.675
19372 1  -38.396238  2.874789e+01  1.675
19373 1  -38.409677  3.016783e+01  1.675
19374 1  -37.186696  3.088944e+01  1.675
19375 1  -39.619219  2.802629e+01  1.675
19376 1  -40.855640  2.872462e+01  1.675
19377 1  -40.869079  3.014455e+01  1.675
19378 1  -39.646098  3.086616e+01  1.675
19379 1  -42.078621  2.800301e+01  1.675
19380 1  -43.315042  2.870134e+01  1.675
19381 1  -43.328481  3.012127e+01  1.675
19382 1  -42.105500  3.084288e+01  1.675
19383 1  -44.538023  2.797973e+01  1.675
19384 1  -45.774444  2.867806e+01  1.675
19385 1  -45.787883  3.009800e+01  1.675
19386 1  -44.564902  3.081960e+01  1.675
19387 1  -46.997425  2.795645e+01  1.675
19388 1  -48.233846  2.865478e+01  1.675
19389 1  -48.247285  3.007472e+01  1.675
19390 1  -47.024304  3.079633e+01  1.675
19391 1  -49.456827  2.793318e+01  1.675
19392 1  -50.693248  2.863150e+01  1.675
19393 1  -50.706687  3.005144e+01  1.675
19394 1  -49.483706  3.077305e+01  1.675
19395 1  -51.916229  2.790990e+01  1.675
19396 1  -53.152650  2.860823e+01  1.675
19397 1  -53.166089  3.002816e+01  1.675
19398 1  -51.943108  3.074977e+01  1.675
19399 1  -54.375631  2.788662e+01  1.675
19400 1  -55.612052  2.858495e+01  1.675
19401 1  -55.625491  3.000489e+01  1.675
19402 1  -54.402510  3.072649e+01  1.675
19403 1  -56.835033  2.786334e+01  1.675
19404 1  -58.071454  2.856167e+01  1.675
19405 1  -58.084893  2.998161e+01  1.675
19406 1  -56.861912  3.070321e+01  1.675
19407 1  -59.294435  2.784006e+01  1.675
19408 1  -60.530856  2.853839e+01  1.675
19409 1  -60.544295  2.995833e+01  1.675
19410 1  -59.321314  3.067994e+01  1.675
19411 1  -61.753837  2.781679e+01  1.675
19412 1  -62.990258  2.851512e+01  1.675
19413 1  -63.003697  2.993505e+01  1.675
19414 1  -61.780716  3.065666e+01  1.675
19415 1  -64.213239  2.779351e+01  1.675
19416 1  -65.449660  2.849184e+01  1.675
19417 1  -65.463099  2.991178e+01  1.675
19418 1  -64.240118  3.063338e+01  1.675
19419 1  -66.672641  2.777023e+01  1.675
19420 1  -67.909062  2.846856e+01  1.675
19421 1  -67.922501  2.988850e+01  1.675
19422 1  -66.699520  3.061010e+01  1.675
19423 1  -69.132043  2.774695e+01  1.675
19424 1  -70.368464  2.844528e+01  1.675
19425 1  -70.381903  2.986522e+01  1.675
19426 1  -69.158922  3.058683e+01  1.675
19427 1  -71.591445  2.772368e+01  1.675
19428 1  -72.827866  2.842201e+01  1.675
19429 1  -72.841305  2.984194e+01  1.675
19430 1  -71.618324  3.056355e+01  1.675
19431 1  -74.050847  2.770040e+01  1.675
19432 1  -75.287267  2.839873e+01  1.675
19433 1  -75.300707  2.981866e+01  1.675
19434 1  -74.077726  3.054027e+01  1.675
19435 1  -76.510249  2.767712e+01  1.675
19436 1  -77.746669  2.837545e+01  1.675
19437 1  -77.760109  2.979539e+01  1.675
19438 1  -76.537128  3.051699e+01  1.675
19439 1  -78.969651  2.765384e+01  1.675
19440 1  -80.206071  2.835217e+01  1.675
19441 1  -80.219511  2.977211e+01  1.675
19442 1  -78.996530  3.049372e+01  1.675
19443 1  -81.429053  2.763057e+01  1.675
19444 1  -82.665473  2.832890e+01  1.675
19445 1  -82.678913  2.974883e+01  1.675
19446 1  -81.455932  3.047044e+01  1.675
19447 1  -83.888455  2.760729e+01  1.675
19448 1  -85.124875  2.830562e+01  1.675
19449 1  -85.138315  2.972555e+01  1.675
19450 1  -83.915333  3.044716e+01  1.675
19451 1  -86.347857  2.758401e+01  1.675
19452 1  -87.584277  2.828234e+01  1.675
19453 1  -87.597717  2.970228e+01  1.675
19454 1  -86.374735  3.042388e+01  1.675
19455 1  -88.807259  2.756073e+01  1.675
19456 1  -90.043679  2.825906e+01  1.675
19457 1  -90.057119  2.967900e+01  1.675
19458 1  -88.834137  3.040061e+01  1.675
19459 1  -91.266661  2.753746e+01  1.675
19460 1  -92.503081  2.823578e+01  1.675
19461 1  -92.516521  2.965572e+01  1.675
19462 1  -91.293539  3.037733e+01  1.675
19463 1  -93.726063  2.751418e+01  1.675
19464 1  -94.962483  2.821251e+01  1.675
19465 1  -94.975923  2.963244e+01  1.675
19466 1  -93.752941  3.035405e+01  1.675
19467 1  -96.185465  2.749090e+01  1.675
19468 1  -97.421885  2.818923e+01  1.675
19469 1  -97.435325  2.960917e+01  1.675
19470 1  -96.212343  3.033077e+01  1.675
19471 1  -98.644867  2.746762e+01  1.675
19472 1  -99.881287  2.816595e+01  1.675
19473 1  -99.894727  2.958589e+01  1.675
19474 1  -98.671745  3.030749e+01  1.675
19475 1 -101.104269  2.744434e+01  1.675
19476 1 -102.340689  2.814267e+01  1.675
19477 1 -102.354129  2.956261e+01  1.675
19478 1 -101.131147  3.028422e+01  1.675
19479 1 -103.563671  2.742107e+01  1.675
19480 1 -104.800091  2.811940e+01  1.675
19481 1 -104.813531  2.953933e+01  1.675
19482 1 -103.590549  3.026094e+01  1.675
19483 1 -106.023073  2.739779e+01  1.675
19484 1 -107.259493  2.809612e+01  1.675
19485 1 -107.272933  2.951606e+01  1.675
19486 1 -106.049951  3.023766e+01  1.675
19487 1 -108.482475  2.737451e+01  1.675
19488 1 -109.718895  2.807284e+01  1.675
19489 1 -109.732335  2.949278e+01  1.675
19490 1 -108.509353  3.021438e+01  1.675
19491 1 -110.941877  2.735123e+01  1.675
19492 1 -112.178297  2.804956e+01  1.675
19493 1 -112.191737  2.946950e+01  1.675
19494 1 -110.968755  3.019111e+01  1.675
19495 1  111.586966  3.442764e+01  1.675
19496 1  111.573526  3.584757e+01  1.675
19497 1  110.363984  3.370603e+01  1.675
19498 1  109.127564  3.440436e+01  1.675
19499 1  109.114124  3.582430e+01  1.675
19500 1  110.337106  3.654590e+01  1.675
19501 1  107.904582  3.368275e+01  1.675
19502 1  106.668162  3.438108e+01  1.675
19503 1  106.654722  3.580102e+01  1.675
19504 1  107.877704  3.652263e+01  1.675
19505 1  105.445180  3.365948e+01  1.675
19506 1  104.208760  3.435781e+01  1.675
19507 1  104.195320  3.577774e+01  1.675
19508 1  105.418302  3.649935e+01  1.675
19509 1  102.985778  3.363620e+01  1.675
19510 1  101.749358  3.433453e+01  1.675
19511 1  101.735918  3.575446e+01  1.675
19512 1  102.958900  3.647607e+01  1.675
19513 1  100.526376  3.361292e+01  1.675
19514 1   99.289956  3.431125e+01  1.675
19515 1   99.276516  3.573119e+01  1.675
19516 1  100.499498  3.645279e+01  1.675
19517 1   98.066974  3.358964e+01  1.675
19518 1   96.830554  3.428797e+01  1.675
19519 1   96.817114  3.570791e+01  1.675
19520 1   98.040096  3.642952e+01  1.675
19521 1   95.607572  3.356637e+01  1.675
19522 1   94.371152  3.426469e+01  1.675
19523 1   94.357712  3.568463e+01  1.675
19524 1   95.580694  3.640624e+01  1.675
19525 1   93.148170  3.354309e+01  1.675
19526 1   91.911750  3.424142e+01  1.675
19527 1   91.898310  3.566135e+01  1.675
19528 1   93.121292  3.638296e+01  1.675
19529 1   90.688768  3.351981e+01  1.675
19530 1   89.452348  3.421814e+01  1.675
19531 1   89.438908  3.563808e+01  1.675
19532 1   90.661890  3.635968e+01  1.675
19533 1   88.229366  3.349653e+01  1.675
19534 1   86.992946  3.419486e+01  1.675
19535 1   86.979506  3.561480e+01  1.675
19536 1   88.202488  3.633641e+01  1.675
19537 1   85.769965  3.347325e+01  1.675
19538 1   84.533544  3.417158e+01  1.675
19539 1   84.520104  3.559152e+01  1.675
19540 1   85.743086  3.631313e+01  1.675
19541 1   83.310563  3.344998e+01  1.675
19542 1   82.074142  3.414831e+01  1.675
19543 1   82.060702  3.556824e+01  1.675
19544 1   83.283684  3.628985e+01  1.675
19545 1   80.851161  3.342670e+01  1.675
19546 1   79.614740  3.412503e+01  1.675
19547 1   79.601300  3.554497e+01  1.675
19548 1   80.824282  3.626657e+01  1.675
19549 1   78.391759  3.340342e+01  1.675
19550 1   77.155338  3.410175e+01  1.675
19551 1   77.141899  3.552169e+01  1.675
19552 1   78.364880  3.624329e+01  1.675
19553 1   75.932357  3.338014e+01  1.675
19554 1   74.695936  3.407847e+01  1.675
19555 1   74.682497  3.549841e+01  1.675
19556 1   75.905478  3.622002e+01  1.675
19557 1   73.472955  3.335687e+01  1.675
19558 1   72.236534  3.405520e+01  1.675
19559 1   72.223095  3.547513e+01  1.675
19560 1   73.446076  3.619674e+01  1.675
19561 1   71.013553  3.333359e+01  1.675
19562 1   69.777132  3.403192e+01  1.675
19563 1   69.763693  3.545185e+01  1.675
19564 1   70.986674  3.617346e+01  1.675
19565 1   68.554151  3.331031e+01  1.675
19566 1   67.317730  3.400864e+01  1.675
19567 1   67.304291  3.542858e+01  1.675
19568 1   68.527272  3.615018e+01  1.675
19569 1   66.094749  3.328703e+01  1.675
19570 1   64.858328  3.398536e+01  1.675
19571 1   64.844889  3.540530e+01  1.675
19572 1   66.067870  3.612691e+01  1.675
19573 1   63.635347  3.326376e+01  1.675
19574 1   62.398926  3.396209e+01  1.675
19575 1   62.385487  3.538202e+01  1.675
19576 1   63.608468  3.610363e+01  1.675
19577 1   61.175945  3.324048e+01  1.675
19578 1   59.939524  3.393881e+01  1.675
19579 1   59.926085  3.535874e+01  1.675
19580 1   61.149066  3.608035e+01  1.675
19581 1   58.716543  3.321720e+01  1.675
19582 1   57.480122  3.391553e+01  1.675
19583 1   57.466683  3.533547e+01  1.675
19584 1   58.689664  3.605707e+01  1.675
19585 1   56.257141  3.319392e+01  1.675
19586 1   55.020720  3.389225e+01  1.675
19587 1   55.007281  3.531219e+01  1.675
19588 1   56.230262  3.603380e+01  1.675
19589 1   53.797739  3.317065e+01  1.675
19590 1   52.561318  3.386897e+01  1.675
19591 1   52.547879  3.528891e+01  1.675
19592 1   53.770860  3.601052e+01  1.675
19593 1   51.338337  3.314737e+01  1.675
19594 1   50.101916  3.384570e+01  1.675
19595 1   50.088477  3.526563e+01  1.675
19596 1   51.311458  3.598724e+01  1.675
19597 1   48.878935  3.312409e+01  1.675
19598 1   47.642514  3.382242e+01  1.675
19599 1   47.629075  3.524236e+01  1.675
19600 1   48.852056  3.596396e+01  1.675
19601 1   46.419533  3.310081e+01  1.675
19602 1   45.183112  3.379914e+01  1.675
19603 1   45.169673  3.521908e+01  1.675
19604 1   46.392654  3.594069e+01  1.675
19605 1   43.960131  3.307753e+01  1.675
19606 1   42.723710  3.377586e+01  1.675
19607 1   42.710271  3.519580e+01  1.675
19608 1   43.933252  3.591741e+01  1.675
19609 1   41.500729  3.305426e+01  1.675
19610 1   40.264308  3.375259e+01  1.675
19611 1   40.250869  3.517252e+01  1.675
19612 1   41.473850  3.589413e+01  1.675
19613 1   39.041327  3.303098e+01  1.675
19614 1   37.804906  3.372931e+01  1.675
19615 1   37.791467  3.514925e+01  1.675
19616 1   39.014448  3.587085e+01  1.675
19617 1   36.581925  3.300770e+01  1.675
19618 1   35.345504  3.370603e+01  1.675
19619 1   35.332065  3.512597e+01  1.675
19620 1   36.555046  3.584757e+01  1.675
19621 1   34.122523  3.298442e+01  1.675
19622 1   32.886102  3.368275e+01  1.675
19623 1   32.872663  3.510269e+01  1.675
19624 1   34.095644  3.582430e+01  1.675
19625 1   31.663121  3.296115e+01  1.675
19626 1   30.426700  3.365948e+01  1.675
19627 1   30.413261  3.507941e+01  1.675
19628 1   31.636242  3.580102e+01  1.675
19629 1   29.203719  3.293787e+01  1.675
19630 1   27.967298  3.363620e+01  1.675
19631 1   27.953859  3.505613e+01  1.675
19632 1   29.176840  3.577774e+01  1.675
19633 1   26.744317  3.291459e+01  1.675
19634 1   25.507896  3.361292e+01  1.675
19635 1   25.494457  3.503286e+01  1.675
19636 1   26.717438  3.575446e+01  1.675
19637 1   24.284915  3.289131e+01  1.675
19638 1   23.048494  3.358964e+01  1.675
19639 1   23.035055  3.500958e+01  1.675
19640 1   24.258036  3.573119e+01  1.675
19641 1   21.825513  3.286804e+01  1.675
19642 1   20.589092  3.356637e+01  1.675
19643 1   20.575653  3.498630e+01  1.675
19644 1   21.798634  3.570791e+01  1.675
19645 1   19.366111  3.284476e+01  1.675
19646 1   18.129690  3.354309e+01  1.675
19647 1   18.116251  3.496302e+01  1.675
19648 1   19.339232  3.568463e+01  1.675
19649 1   16.906709  3.282148e+01  1.675
19650 1   15.670288  3.351981e+01  1.675
19651 1   15.656849  3.493975e+01  1.675
19652 1   16.879830  3.566135e+01  1.675
19653 1   14.447307  3.279820e+01  1.675
19654 1   13.210886  3.349653e+01  1.675
19655 1   13.197447  3.491647e+01  1.675
19656 1   14.420428  3.563808e+01  1.675
19657 1   11.987905  3.277493e+01  1.675
19658 1   10.751484  3.347325e+01  1.675
19659 1   10.738045  3.489319e+01  1.675
19660 1   11.961026  3.561480e+01  1.675
19661 1    9.528503  3.275165e+01  1.675
19662 1    8.292082  3.344998e+01  1.675
19663 1    8.278643  3.486991e+01  1.675
19664 1    9.501624  3.559152e+01  1.675
19665 1    7.069101  3.272837e+01  1.675
19666 1    5.832680  3.342670e+01  1.675
19667 1    5.819241  3.484664e+01  1.675
19668 1    7.042222  3.556824e+01  1.675
19669 1    4.609699  3.270509e+01  1.675
19670 1    3.373278  3.340342e+01  1.675
19671 1    3.359839  3.482336e+01  1.675
19672 1    4.582820  3.554497e+01  1.675
19673 1    2.150297  3.268181e+01  1.675
19674 1    0.913876  3.338014e+01  1.675
19675 1    0.900437  3.480008e+01  1.675
19676 1    2.123418  3.552169e+01  1.675
19677 1   -0.309105  3.265854e+01  1.675
19678 1   -1.545526  3.335687e+01  1.675
19679 1   -1.558965  3.477680e+01  1.675
19680 1   -0.335984  3.549841e+01  1.675
19681 1   -2.768507  3.263526e+01  1.675
19682 1   -4.004928  3.333359e+01  1.675
19683 1   -4.018367  3.475353e+01  1.675
19684 1   -2.795386  3.547513e+01  1.675
19685 1   -5.227909  3.261198e+01  1.675
19686 1   -6.464330  3.331031e+01  1.675
19687 1   -6.477769  3.473025e+01  1.675
19688 1   -5.254788  3.545185e+01  1.675
19689 1   -7.687311  3.258870e+01  1.675
19690 1   -8.923732  3.328703e+01  1.675
19691 1   -8.937171  3.470697e+01  1.675
19692 1   -7.714190  3.542858e+01  1.675
19693 1  -10.146713  3.256543e+01  1.675
19694 1  -11.383134  3.326376e+01  1.675
19695 1  -11.396573  3.468369e+01  1.675
19696 1  -10.173592  3.540530e+01  1.675
19697 1  -12.606115  3.254215e+01  1.675
19698 1  -13.842536  3.324048e+01  1.675
19699 1  -13.855975  3.466041e+01  1.675
19700 1  -12.632994  3.538202e+01  1.675
19701 1  -15.065517  3.251887e+01  1.675
19702 1  -16.301938  3.321720e+01  1.675
19703 1  -16.315377  3.463714e+01  1.675
19704 1  -15.092396  3.535874e+01  1.675
19705 1  -17.524919  3.249559e+01  1.675
19706 1  -18.761340  3.319392e+01  1.675
19707 1  -18.774779  3.461386e+01  1.675
19708 1  -17.551798  3.533547e+01  1.675
19709 1  -19.984321  3.247232e+01  1.675
19710 1  -21.220742  3.317065e+01  1.675
19711 1  -21.234181  3.459058e+01  1.675
19712 1  -20.011200  3.531219e+01  1.675
19713 1  -22.443723  3.244904e+01  1.675
19714 1  -23.680144  3.314737e+01  1.675
19715 1  -23.693583  3.456730e+01  1.675
19716 1  -22.470602  3.528891e+01  1.675
19717 1  -24.903125  3.242576e+01  1.675
19718 1  -26.139546  3.312409e+01  1.675
19719 1  -26.152985  3.454403e+01  1.675
19720 1  -24.930004  3.526563e+01  1.675
19721 1  -27.362527  3.240248e+01  1.675
19722 1  -28.598948  3.310081e+01  1.675
19723 1  -28.612387  3.452075e+01  1.675
19724 1  -27.389406  3.524236e+01  1.675
19725 1  -29.821929  3.237921e+01  1.675
19726 1  -31.058350  3.307753e+01  1.675
19727 1  -31.071789  3.449747e+01  1.675
19728 1  -29.848808  3.521908e+01  1.675
19729 1  -32.281331  3.235593e+01  1.675
19730 1  -33.517752  3.305426e+01  1.675
19731 1  -33.531191  3.447419e+01  1.675
19732 1  -32.308210  3.519580e+01  1.675
19733 1  -34.740733  3.233265e+01  1.675
19734 1  -35.977154  3.303098e+01  1.675
19735 1  -35.990593  3.445092e+01  1.675
19736 1  -34.767612  3.517252e+01  1.675
19737 1  -37.200135  3.230937e+01  1.675
19738 1  -38.436556  3.300770e+01  1.675
19739 1  -38.449995  3.442764e+01  1.675
19740 1  -37.227014  3.514925e+01  1.675
19741 1  -39.659537  3.228609e+01  1.675
19742 1  -40.895958  3.298442e+01  1.675
19743 1  -40.909397  3.440436e+01  1.675
19744 1  -39.686416  3.512597e+01  1.675
19745 1  -42.118939  3.226282e+01  1.675
19746 1  -43.355360  3.296115e+01  1.675
19747 1  -43.368799  3.438108e+01  1.675
19748 1  -42.145818  3.510269e+01  1.675
19749 1  -44.578341  3.223954e+01  1.675
19750 1  -45.814762  3.293787e+01  1.675
19751 1  -45.828201  3.435781e+01  1.675
19752 1  -44.605220  3.507941e+01  1.675
19753 1  -47.037743  3.221626e+01  1.675
19754 1  -48.274164  3.291459e+01  1.675
19755 1  -48.287603  3.433453e+01  1.675
19756 1  -47.064622  3.505613e+01  1.675
19757 1  -49.497145  3.219298e+01  1.675
19758 1  -50.733566  3.289131e+01  1.675
19759 1  -50.747005  3.431125e+01  1.675
19760 1  -49.524024  3.503286e+01  1.675
19761 1  -51.956547  3.216971e+01  1.675
19762 1  -53.192968  3.286804e+01  1.675
19763 1  -53.206407  3.428797e+01  1.675
19764 1  -51.983426  3.500958e+01  1.675
19765 1  -54.415949  3.214643e+01  1.675
19766 1  -55.652370  3.284476e+01  1.675
19767 1  -55.665809  3.426469e+01  1.675
19768 1  -54.442828  3.498630e+01  1.675
19769 1  -56.875351  3.212315e+01  1.675
19770 1  -58.111772  3.282148e+01  1.675
19771 1  -58.125211  3.424142e+01  1.675
19772 1  -56.902230  3.496302e+01  1.675
19773 1  -59.334753  3.209987e+01  1.675
19774 1  -60.571174  3.279820e+01  1.675
19775 1  -60.584613  3.421814e+01  1.675
19776 1  -59.361632  3.493975e+01  1.675
19777 1  -61.794155  3.207660e+01  1.675
19778 1  -63.030576  3.277493e+01  1.675
19779 1  -63.044015  3.419486e+01  1.675
19780 1  -61.821034  3.491647e+01  1.675
19781 1  -64.253557  3.205332e+01  1.675
19782 1  -65.489978  3.275165e+01  1.675
19783 1  -65.503417  3.417158e+01  1.675
19784 1  -64.280436  3.489319e+01  1.675
19785 1  -66.712959  3.203004e+01  1.675
19786 1  -67.949380  3.272837e+01  1.675
19787 1  -67.962819  3.414831e+01  1.675
19788 1  -66.739838  3.486991e+01  1.675
19789 1  -69.172361  3.200676e+01  1.675
19790 1  -70.408782  3.270509e+01  1.675
19791 1  -70.422221  3.412503e+01  1.675
19792 1  -69.199240  3.484664e+01  1.675
19793 1  -71.631763  3.198349e+01  1.675
19794 1  -72.868184  3.268181e+01  1.675
19795 1  -72.881623  3.410175e+01  1.675
19796 1  -71.658642  3.482336e+01  1.675
19797 1  -74.091165  3.196021e+01  1.675
19798 1  -75.327586  3.265854e+01  1.675
19799 1  -75.341025  3.407847e+01  1.675
19800 1  -74.118044  3.480008e+01  1.675
19801 1  -76.550567  3.193693e+01  1.675
19802 1  -77.786988  3.263526e+01  1.675
19803 1  -77.800427  3.405520e+01  1.675
19804 1  -76.577446  3.477680e+01  1.675
19805 1  -79.009969  3.191365e+01  1.675
19806 1  -80.246390  3.261198e+01  1.675
19807 1  -80.259829  3.403192e+01  1.675
19808 1  -79.036848  3.475353e+01  1.675
19809 1  -81.469371  3.189037e+01  1.675
19810 1  -82.705792  3.258870e+01  1.675
19811 1  -82.719231  3.400864e+01  1.675
19812 1  -81.496250  3.473025e+01  1.675
19813 1  -83.928773  3.186710e+01  1.675
19814 1  -85.165194  3.256543e+01  1.675
19815 1  -85.178633  3.398536e+01  1.675
19816 1  -83.955652  3.470697e+01  1.675
19817 1  -86.388175  3.184382e+01  1.675
19818 1  -87.624596  3.254215e+01  1.675
19819 1  -87.638035  3.396209e+01  1.675
19820 1  -86.415054  3.468369e+01  1.675
19821 1  -88.847577  3.182054e+01  1.675
19822 1  -90.083998  3.251887e+01  1.675
19823 1  -90.097437  3.393881e+01  1.675
19824 1  -88.874456  3.466041e+01  1.675
19825 1  -91.306979  3.179726e+01  1.675
19826 1  -92.543399  3.249559e+01  1.675
19827 1  -92.556839  3.391553e+01  1.675
19828 1  -91.333858  3.463714e+01  1.675
19829 1  -93.766381  3.177399e+01  1.675
19830 1  -95.002801  3.247232e+01  1.675
19831 1  -95.016241  3.389225e+01  1.675
19832 1  -93.793260  3.461386e+01  1.675
19833 1  -96.225783  3.175071e+01  1.675
19834 1  -97.462203  3.244904e+01  1.675
19835 1  -97.475643  3.386897e+01  1.675
19836 1  -96.252662  3.459058e+01  1.675
19837 1  -98.685185  3.172743e+01  1.675
19838 1  -99.921605  3.242576e+01  1.675
19839 1  -99.935045  3.384570e+01  1.675
19840 1  -98.712064  3.456730e+01  1.675
19841 1 -101.144587  3.170415e+01  1.675
19842 1 -102.381007  3.240248e+01  1.675
19843 1 -102.394447  3.382242e+01  1.675
19844 1 -101.171465  3.454403e+01  1.675
19845 1 -103.603989  3.168088e+01  1.675
19846 1 -104.840409  3.237921e+01  1.675
19847 1 -104.853849  3.379914e+01  1.675
19848 1 -103.630867  3.452075e+01  1.675
19849 1 -106.063391  3.165760e+01  1.675
19850 1 -107.299811  3.235593e+01  1.675
19851 1 -107.313251  3.377586e+01  1.675
19852 1 -106.090269  3.449747e+01  1.675
19853 1 -108.522793  3.163432e+01  1.675
19854 1 -109.759213  3.233265e+01  1.675
19855 1 -109.772653  3.375259e+01  1.675
19856 1 -108.549671  3.447419e+01  1.675
19857 1 -110.982195  3.161104e+01  1.675
19858 1 -112.218615  3.230937e+01  1.675
19859 1 -112.232055  3.372931e+01  1.675
19860 1 -111.009073  3.445092e+01  1.675
19861 1  111.546648  3.868745e+01  1.675
19862 1  111.533208  4.010738e+01  1.675
19863 1  110.323666  3.796584e+01  1.675
19864 1  109.087246  3.866417e+01  1.675
19865 1  109.073806  4.008411e+01  1.675
19866 1  110.296788  4.080571e+01  1.675
19867 1  107.864264  3.794256e+01  1.675
19868 1  106.627844  3.864089e+01  1.675
19869 1  106.614404  4.006083e+01  1.675
19870 1  107.837386  4.078244e+01  1.675
19871 1  105.404862  3.791929e+01  1.675
19872 1  104.168442  3.861761e+01  1.675
19873 1  104.155002  4.003755e+01  1.675
19874 1  105.377984  4.075916e+01  1.675
19875 1  102.945460  3.789601e+01  1.675
19876 1  101.709040  3.859434e+01  1.675
19877 1  101.695600  4.001427e+01  1.675
19878 1  102.918582  4.073588e+01  1.675
19879 1  100.486058  3.787273e+01  1.675
19880 1   99.249638  3.857106e+01  1.675
19881 1   99.236198  3.999100e+01  1.675
19882 1  100.459180  4.071260e+01  1.675
19883 1   98.026656  3.784945e+01  1.675
19884 1   96.790236  3.854778e+01  1.675
19885 1   96.776796  3.996772e+01  1.675
19886 1   97.999778  4.068933e+01  1.675
19887 1   95.567254  3.782617e+01  1.675
19888 1   94.330834  3.852450e+01  1.675
19889 1   94.317394  3.994444e+01  1.675
19890 1   95.540376  4.066605e+01  1.675
19891 1   93.107852  3.780290e+01  1.675
19892 1   91.871432  3.850123e+01  1.675
19893 1   91.857992  3.992116e+01  1.675
19894 1   93.080974  4.064277e+01  1.675
19895 1   90.648450  3.777962e+01  1.675
19896 1   89.412030  3.847795e+01  1.675
19897 1   89.398590  3.989789e+01  1.675
19898 1   90.621572  4.061949e+01  1.675
19899 1   88.189048  3.775634e+01  1.675
19900 1   86.952628  3.845467e+01  1.675
19901 1   86.939188  3.987461e+01  1.675
19902 1   88.162170  4.059621e+01  1.675
19903 1   85.729646  3.773306e+01  1.675
19904 1   84.493226  3.843139e+01  1.675
19905 1   84.479786  3.985133e+01  1.675
19906 1   85.702768  4.057294e+01  1.675
19907 1   83.270244  3.770979e+01  1.675
19908 1   82.033824  3.840812e+01  1.675
19909 1   82.020384  3.982805e+01  1.675
19910 1   83.243366  4.054966e+01  1.675
19911 1   80.810842  3.768651e+01  1.675
19912 1   79.574422  3.838484e+01  1.675
19913 1   79.560982  3.980477e+01  1.675
19914 1   80.783964  4.052638e+01  1.675
19915 1   78.351440  3.766323e+01  1.675
19916 1   77.115020  3.836156e+01  1.675
19917 1   77.101580  3.978150e+01  1.675
19918 1   78.324562  4.050310e+01  1.675
19919 1   75.892038  3.763995e+01  1.675
19920 1   74.655618  3.833828e+01  1.675
19921 1   74.642178  3.975822e+01  1.675
19922 1   75.865160  4.047983e+01  1.675
19923 1   73.432636  3.761668e+01  1.675
19924 1   72.196216  3.831501e+01  1.675
19925 1   72.182776  3.973494e+01  1.675
19926 1   73.405758  4.045655e+01  1.675
19927 1   70.973234  3.759340e+01  1.675
19928 1   69.736814  3.829173e+01  1.675
19929 1   69.723374  3.971166e+01  1.675
19930 1   70.946356  4.043327e+01  1.675
19931 1   68.513833  3.757012e+01  1.675
19932 1   67.277412  3.826845e+01  1.675
19933 1   67.263972  3.968839e+01  1.675
19934 1   68.486954  4.040999e+01  1.675
19935 1   66.054431  3.754684e+01  1.675
19936 1   64.818010  3.824517e+01  1.675
19937 1   64.804570  3.966511e+01  1.675
19938 1   66.027552  4.038672e+01  1.675
19939 1   63.595029  3.752357e+01  1.675
19940 1   62.358608  3.822189e+01  1.675
19941 1   62.345168  3.964183e+01  1.675
19942 1   63.568150  4.036344e+01  1.675
19943 1   61.135627  3.750029e+01  1.675
19944 1   59.899206  3.819862e+01  1.675
19945 1   59.885767  3.961855e+01  1.675
19946 1   61.108748  4.034016e+01  1.675
19947 1   58.676225  3.747701e+01  1.675
19948 1   57.439804  3.817534e+01  1.675
19949 1   57.426365  3.959528e+01  1.675
19950 1   58.649346  4.031688e+01  1.675
19951 1   56.216823  3.745373e+01  1.675
19952 1   54.980402  3.815206e+01  1.675
19953 1   54.966963  3.957200e+01  1.675
19954 1   56.189944  4.029361e+01  1.675
19955 1   53.757421  3.743045e+01  1.675
19956 1   52.521000  3.812878e+01  1.675
19957 1   52.507561  3.954872e+01  1.675
19958 1   53.730542  4.027033e+01  1.675
19959 1   51.298019  3.740718e+01  1.675
19960 1   50.061598  3.810551e+01  1.675
19961 1   50.048159  3.952544e+01  1.675
19962 1   51.271140  4.024705e+01  1.675
19963 1   48.838617  3.738390e+01  1.675
19964 1   47.602196  3.808223e+01  1.675
19965 1   47.588757  3.950217e+01  1.675
19966 1   48.811738  4.022377e+01  1.675
19967 1   46.379215  3.736062e+01  1.675
19968 1   45.142794  3.805895e+01  1.675
19969 1   45.129355  3.947889e+01  1.675
19970 1   46.352336  4.020049e+01  1.675
19971 1   43.919813  3.733734e+01  1.675
19972 1   42.683392  3.803567e+01  1.675
19973 1   42.669953  3.945561e+01  1.675
19974 1   43.892934  4.017722e+01  1.675
19975 1   41.460411  3.731407e+01  1.675
19976 1   40.223990  3.801240e+01  1.675
19977 1   40.210551  3.943233e+01  1.675
19978 1   41.433532  4.015394e+01  1.675
19979 1   39.001009  3.729079e+01  1.675
19980 1   37.764588  3.798912e+01  1.675
19981 1   37.751149  3.940905e+01  1.675
19982 1   38.974130  4.013066e+01  1.675
19983 1   36.541607  3.726751e+01  1.675
19984 1   35.305186  3.796584e+01  1.675
19985 1   35.291747  3.938578e+01  1.675
19986 1   36.514728  4.010738e+01  1.675
19987 1   34.082205  3.724423e+01  1.675
19988 1   32.845784  3.794256e+01  1.675
19989 1   32.832345  3.936250e+01  1.675
19990 1   34.055326  4.008411e+01  1.675
19991 1   31.622803  3.722096e+01  1.675
19992 1   30.386382  3.791929e+01  1.675
19993 1   30.372943  3.933922e+01  1.675
19994 1   31.595924  4.006083e+01  1.675
19995 1   29.163401  3.719768e+01  1.675
19996 1   27.926980  3.789601e+01  1.675
19997 1   27.913541  3.931594e+01  1.675
19998 1   29.136522  4.003755e+01  1.675
19999 1   26.703999  3.717440e+01  1.675
20000 1   25.467578  3.787273e+01  1.675
20001 1   25.454139  3.929267e+01  1.675
20002 1   26.677120  4.001427e+01  1.675
20003 1   24.244597  3.715112e+01  1.675
20004 1   23.008176  3.784945e+01  1.675
20005 1   22.994737  3.926939e+01  1.675
20006 1   24.217718  3.999100e+01  1.675
20007 1   21.785195  3.712785e+01  1.675
20008 1   20.548774  3.782617e+01  1.675
20009 1   20.535335  3.924611e+01  1.675
20010 1   21.758316  3.996772e+01  1.675
20011 1   19.325793  3.710457e+01  1.675
20012 1   18.089372  3.780290e+01  1.675
20013 1   18.075933  3.922283e+01  1.675
20014 1   19.298914  3.994444e+01  1.675
20015 1   16.866391  3.708129e+01  1.675
20016 1   15.629970  3.777962e+01  1.675
20017 1   15.616531  3.919956e+01  1.675
20018 1   16.839512  3.992116e+01  1.675
20019 1   14.406989  3.705801e+01  1.675
20020 1   13.170568  3.775634e+01  1.675
20021 1   13.157129  3.917628e+01  1.675
20022 1   14.380110  3.989789e+01  1.675
20023 1   11.947587  3.703473e+01  1.675
20024 1   10.711166  3.773306e+01  1.675
20025 1   10.697727  3.915300e+01  1.675
20026 1   11.920708  3.987461e+01  1.675
20027 1    9.488185  3.701146e+01  1.675
20028 1    8.251764  3.770979e+01  1.675
20029 1    8.238325  3.912972e+01  1.675
20030 1    9.461306  3.985133e+01  1.675
20031 1    7.028783  3.698818e+01  1.675
20032 1    5.792362  3.768651e+01  1.675
20033 1    5.778923  3.910645e+01  1.675
20034 1    7.001904  3.982805e+01  1.675
20035 1    4.569381  3.696490e+01  1.675
20036 1    3.332960  3.766323e+01  1.675
20037 1    3.319521  3.908317e+01  1.675
20038 1    4.542502  3.980477e+01  1.675
20039 1    2.109979  3.694162e+01  1.675
20040 1    0.873558  3.763995e+01  1.675
20041 1    0.860119  3.905989e+01  1.675
20042 1    2.083100  3.978150e+01  1.675
20043 1   -0.349423  3.691835e+01  1.675
20044 1   -1.585844  3.761668e+01  1.675
20045 1   -1.599283  3.903661e+01  1.675
20046 1   -0.376302  3.975822e+01  1.675
20047 1   -2.808825  3.689507e+01  1.675
20048 1   -4.045246  3.759340e+01  1.675
20049 1   -4.058685  3.901333e+01  1.675
20050 1   -2.835704  3.973494e+01  1.675
20051 1   -5.268227  3.687179e+01  1.675
20052 1   -6.504648  3.757012e+01  1.675
20053 1   -6.518087  3.899006e+01  1.675
20054 1   -5.295106  3.971166e+01  1.675
20055 1   -7.727629  3.684851e+01  1.675
20056 1   -8.964050  3.754684e+01  1.675
20057 1   -8.977489  3.896678e+01  1.675
20058 1   -7.754508  3.968839e+01  1.675
20059 1  -10.187031  3.682524e+01  1.675
20060 1  -11.423452  3.752357e+01  1.675
20061 1  -11.436891  3.894350e+01  1.675
20062 1  -10.213910  3.966511e+01  1.675
20063 1  -12.646433  3.680196e+01  1.675
20064 1  -13.882854  3.750029e+01  1.675
20065 1  -13.896293  3.892022e+01  1.675
20066 1  -12.673312  3.964183e+01  1.675
20067 1  -15.105835  3.677868e+01  1.675
20068 1  -16.342256  3.747701e+01  1.675
20069 1  -16.355695  3.889695e+01  1.675
20070 1  -15.132714  3.961855e+01  1.675
20071 1  -17.565237  3.675540e+01  1.675
20072 1  -18.801658  3.745373e+01  1.675
20073 1  -18.815097  3.887367e+01  1.675
20074 1  -17.592116  3.959528e+01  1.675
20075 1  -20.024639  3.673213e+01  1.675
20076 1  -21.261060  3.743045e+01  1.675
20077 1  -21.274499  3.885039e+01  1.675
20078 1  -20.051518  3.957200e+01  1.675
20079 1  -22.484041  3.670885e+01  1.675
20080 1  -23.720462  3.740718e+01  1.675
20081 1  -23.733901  3.882711e+01  1.675
20082 1  -22.510920  3.954872e+01  1.675
20083 1  -24.943443  3.668557e+01  1.675
20084 1  -26.179864  3.738390e+01  1.675
20085 1  -26.193303  3.880384e+01  1.675
20086 1  -24.970322  3.952544e+01  1.675
20087 1  -27.402845  3.666229e+01  1.675
20088 1  -28.639266  3.736062e+01  1.675
20089 1  -28.652705  3.878056e+01  1.675
20090 1  -27.429724  3.950217e+01  1.675
20091 1  -29.862247  3.663901e+01  1.675
20092 1  -31.098668  3.733734e+01  1.675
20093 1  -31.112107  3.875728e+01  1.675
20094 1  -29.889126  3.947889e+01  1.675
20095 1  -32.321649  3.661574e+01  1.675
20096 1  -33.558070  3.731407e+01  1.675
20097 1  -33.571509  3.873400e+01  1.675
20098 1  -32.348528  3.945561e+01  1.675
20099 1  -34.781051  3.659246e+01  1.675
20100 1  -36.017472  3.729079e+01  1.675
20101 1  -36.030911  3.871073e+01  1.675
20102 1  -34.807930  3.943233e+01  1.675
20103 1  -37.240453  3.656918e+01  1.675
20104 1  -38.476874  3.726751e+01  1.675
20105 1  -38.490313  3.868745e+01  1.675
20106 1  -37.267332  3.940905e+01  1.675
20107 1  -39.699855  3.654590e+01  1.675
20108 1  -40.936276  3.724423e+01  1.675
20109 1  -40.949715  3.866417e+01  1.675
20110 1  -39.726734  3.938578e+01  1.675
20111 1  -42.159257  3.652263e+01  1.675
20112 1  -43.395678  3.722096e+01  1.675
20113 1  -43.409117  3.864089e+01  1.675
20114 1  -42.186136  3.936250e+01  1.675
20115 1  -44.618659  3.649935e+01  1.675
20116 1  -45.855080  3.719768e+01  1.675
20117 1  -45.868519  3.861761e+01  1.675
20118 1  -44.645538  3.933922e+01  1.675
20119 1  -47.078061  3.647607e+01  1.675
20120 1  -48.314482  3.717440e+01  1.675
20121 1  -48.327921  3.859434e+01  1.675
20122 1  -47.104940  3.931594e+01  1.675
20123 1  -49.537463  3.645279e+01  1.675
20124 1  -50.773884  3.715112e+01  1.675
20125 1  -50.787323  3.857106e+01  1.675
20126 1  -49.564342  3.929267e+01  1.675
20127 1  -51.996865  3.642952e+01  1.675
20128 1  -53.233286  3.712785e+01  1.675
20129 1  -53.246725  3.854778e+01  1.675
20130 1  -52.023744  3.926939e+01  1.675
20131 1  -54.456267  3.640624e+01  1.675
20132 1  -55.692688  3.710457e+01  1.675
20133 1  -55.706127  3.852450e+01  1.675
20134 1  -54.483146  3.924611e+01  1.675
20135 1  -56.915669  3.638296e+01  1.675
20136 1  -58.152090  3.708129e+01  1.675
20137 1  -58.165529  3.850123e+01  1.675
20138 1  -56.942548  3.922283e+01  1.675
20139 1  -59.375071  3.635968e+01  1.675
20140 1  -60.611492  3.705801e+01  1.675
20141 1  -60.624931  3.847795e+01  1.675
20142 1  -59.401950  3.919956e+01  1.675
20143 1  -61.834473  3.633641e+01  1.675
20144 1  -63.070894  3.703473e+01  1.675
20145 1  -63.084333  3.845467e+01  1.675
20146 1  -61.861352  3.917628e+01  1.675
20147 1  -64.293875  3.631313e+01  1.675
20148 1  -65.530296  3.701146e+01  1.675
20149 1  -65.543735  3.843139e+01  1.675
20150 1  -64.320754  3.915300e+01  1.675
20151 1  -66.753277  3.628985e+01  1.675
20152 1  -67.989698  3.698818e+01  1.675
20153 1  -68.003137  3.840812e+01  1.675
20154 1  -66.780156  3.912972e+01  1.675
20155 1  -69.212679  3.626657e+01  1.675
20156 1  -70.449100  3.696490e+01  1.675
20157 1  -70.462539  3.838484e+01  1.675
20158 1  -69.239558  3.910645e+01  1.675
20159 1  -71.672081  3.624329e+01  1.675
20160 1  -72.908502  3.694162e+01  1.675
20161 1  -72.921941  3.836156e+01  1.675
20162 1  -71.698960  3.908317e+01  1.675
20163 1  -74.131483  3.622002e+01  1.675
20164 1  -75.367904  3.691835e+01  1.675
20165 1  -75.381343  3.833828e+01  1.675
20166 1  -74.158362  3.905989e+01  1.675
20167 1  -76.590885  3.619674e+01  1.675
20168 1  -77.827306  3.689507e+01  1.675
20169 1  -77.840745  3.831501e+01  1.675
20170 1  -76.617764  3.903661e+01  1.675
20171 1  -79.050287  3.617346e+01  1.675
20172 1  -80.286708  3.687179e+01  1.675
20173 1  -80.300147  3.829173e+01  1.675
20174 1  -79.077166  3.901333e+01  1.675
20175 1  -81.509689  3.615018e+01  1.675
20176 1  -82.746110  3.684851e+01  1.675
20177 1  -82.759549  3.826845e+01  1.675
20178 1  -81.536568  3.899006e+01  1.675
20179 1  -83.969091  3.612691e+01  1.675
20180 1  -85.205512  3.682524e+01  1.675
20181 1  -85.218951  3.824517e+01  1.675
20182 1  -83.995970  3.896678e+01  1.675
20183 1  -86.428493  3.610363e+01  1.675
20184 1  -87.664914  3.680196e+01  1.675
20185 1  -87.678353  3.822189e+01  1.675
20186 1  -86.455372  3.894350e+01  1.675
20187 1  -88.887895  3.608035e+01  1.675
20188 1  -90.124316  3.677868e+01  1.675
20189 1  -90.137755  3.819862e+01  1.675
20190 1  -88.914774  3.892022e+01  1.675
20191 1  -91.347297  3.605707e+01  1.675
20192 1  -92.583718  3.675540e+01  1.675
20193 1  -92.597157  3.817534e+01  1.675
20194 1  -91.374176  3.889695e+01  1.675
20195 1  -93.806699  3.603380e+01  1.675
20196 1  -95.043120  3.673213e+01  1.675
20197 1  -95.056559  3.815206e+01  1.675
20198 1  -93.833578  3.887367e+01  1.675
20199 1  -96.266101  3.601052e+01  1.675
20200 1  -97.502522  3.670885e+01  1.675
20201 1  -97.515961  3.812878e+01  1.675
20202 1  -96.292980  3.885039e+01  1.675
20203 1  -98.725503  3.598724e+01  1.675
20204 1  -99.961924  3.668557e+01  1.675
20205 1  -99.975363  3.810551e+01  1.675
20206 1  -98.752382  3.882711e+01  1.675
20207 1 -101.184905  3.596396e+01  1.675
20208 1 -102.421326  3.666229e+01  1.675
20209 1 -102.434765  3.808223e+01  1.675
20210 1 -101.211784  3.880384e+01  1.675
20211 1 -103.644307  3.594069e+01  1.675
20212 1 -104.880728  3.663901e+01  1.675
20213 1 -104.894167  3.805895e+01  1.675
20214 1 -103.671186  3.878056e+01  1.675
20215 1 -106.103709  3.591741e+01  1.675
20216 1 -107.340130  3.661574e+01  1.675
20217 1 -107.353569  3.803567e+01  1.675
20218 1 -106.130588  3.875728e+01  1.675
20219 1 -108.563111  3.589413e+01  1.675
20220 1 -109.799531  3.659246e+01  1.675
20221 1 -109.812971  3.801240e+01  1.675
20222 1 -108.589990  3.873400e+01  1.675
20223 1 -111.022513  3.587085e+01  1.675
20224 1 -112.258933  3.656918e+01  1.675
20225 1 -112.272373  3.798912e+01  1.675
20226 1 -111.049392  3.871073e+01  1.675
20227 1  111.506330  4.294726e+01  1.675
20228 1  111.492890  4.436719e+01  1.675
20229 1  110.283348  4.222565e+01  1.675
20230 1  109.046928  4.292398e+01  1.675
20231 1  109.033488  4.434392e+01  1.675
20232 1  110.256470  4.506552e+01  1.675
20233 1  107.823946  4.220237e+01  1.675
20234 1  106.587526  4.290070e+01  1.675
20235 1  106.574086  4.432064e+01  1.675
20236 1  107.797068  4.504224e+01  1.675
20237 1  105.364544  4.217909e+01  1.675
20238 1  104.128124  4.287742e+01  1.675
20239 1  104.114684  4.429736e+01  1.675
20240 1  105.337666  4.501897e+01  1.675
20241 1  102.905142  4.215582e+01  1.675
20242 1  101.668722  4.285415e+01  1.675
20243 1  101.655282  4.427408e+01  1.675
20244 1  102.878264  4.499569e+01  1.675
20245 1  100.445740  4.213254e+01  1.675
20246 1   99.209320  4.283087e+01  1.675
20247 1   99.195880  4.425080e+01  1.675
20248 1  100.418862  4.497241e+01  1.675
20249 1   97.986338  4.210926e+01  1.675
20250 1   96.749918  4.280759e+01  1.675
20251 1   96.736478  4.422753e+01  1.675
20252 1   97.959460  4.494913e+01  1.675
20253 1   95.526936  4.208598e+01  1.675
20254 1   94.290516  4.278431e+01  1.675
20255 1   94.277076  4.420425e+01  1.675
20256 1   95.500058  4.492586e+01  1.675
20257 1   93.067534  4.206271e+01  1.675
20258 1   91.831114  4.276104e+01  1.675
20259 1   91.817674  4.418097e+01  1.675
20260 1   93.040656  4.490258e+01  1.675
20261 1   90.608132  4.203943e+01  1.675
20262 1   89.371712  4.273776e+01  1.675
20263 1   89.358272  4.415769e+01  1.675
20264 1   90.581254  4.487930e+01  1.675
20265 1   88.148730  4.201615e+01  1.675
20266 1   86.912310  4.271448e+01  1.675
20267 1   86.898870  4.413442e+01  1.675
20268 1   88.121852  4.485602e+01  1.675
20269 1   85.689328  4.199287e+01  1.675
20270 1   84.452908  4.269120e+01  1.675
20271 1   84.439468  4.411114e+01  1.675
20272 1   85.662450  4.483275e+01  1.675
20273 1   83.229926  4.196960e+01  1.675
20274 1   81.993506  4.266792e+01  1.675
20275 1   81.980066  4.408786e+01  1.675
20276 1   83.203048  4.480947e+01  1.675
20277 1   80.770524  4.194632e+01  1.675
20278 1   79.534104  4.264465e+01  1.675
20279 1   79.520664  4.406458e+01  1.675
20280 1   80.743646  4.478619e+01  1.675
20281 1   78.311122  4.192304e+01  1.675
20282 1   77.074702  4.262137e+01  1.675
20283 1   77.061262  4.404131e+01  1.675
20284 1   78.284244  4.476291e+01  1.675
20285 1   75.851720  4.189976e+01  1.675
20286 1   74.615300  4.259809e+01  1.675
20287 1   74.601860  4.401803e+01  1.675
20288 1   75.824842  4.473964e+01  1.675
20289 1   73.392318  4.187649e+01  1.675
20290 1   72.155898  4.257481e+01  1.675
20291 1   72.142458  4.399475e+01  1.675
20292 1   73.365440  4.471636e+01  1.675
20293 1   70.932916  4.185321e+01  1.675
20294 1   69.696496  4.255154e+01  1.675
20295 1   69.683056  4.397147e+01  1.675
20296 1   70.906038  4.469308e+01  1.675
20297 1   68.473514  4.182993e+01  1.675
20298 1   67.237094  4.252826e+01  1.675
20299 1   67.223654  4.394820e+01  1.675
20300 1   68.446636  4.466980e+01  1.675
20301 1   66.014112  4.180665e+01  1.675
20302 1   64.777692  4.250498e+01  1.675
20303 1   64.764252  4.392492e+01  1.675
20304 1   65.987234  4.464652e+01  1.675
20305 1   63.554710  4.178337e+01  1.675
20306 1   62.318290  4.248170e+01  1.675
20307 1   62.304850  4.390164e+01  1.675
20308 1   63.527832  4.462325e+01  1.675
20309 1   61.095308  4.176010e+01  1.675
20310 1   59.858888  4.245843e+01  1.675
20311 1   59.845448  4.387836e+01  1.675
20312 1   61.068430  4.459997e+01  1.675
20313 1   58.635906  4.173682e+01  1.675
20314 1   57.399486  4.243515e+01  1.675
20315 1   57.386046  4.385508e+01  1.675
20316 1   58.609028  4.457669e+01  1.675
20317 1   56.176504  4.171354e+01  1.675
20318 1   54.940084  4.241187e+01  1.675
20319 1   54.926644  4.383181e+01  1.675
20320 1   56.149626  4.455341e+01  1.675
20321 1   53.717102  4.169026e+01  1.675
20322 1   52.480682  4.238859e+01  1.675
20323 1   52.467242  4.380853e+01  1.675
20324 1   53.690224  4.453014e+01  1.675
20325 1   51.257701  4.166699e+01  1.675
20326 1   50.021280  4.236532e+01  1.675
20327 1   50.007840  4.378525e+01  1.675
20328 1   51.230822  4.450686e+01  1.675
20329 1   48.798299  4.164371e+01  1.675
20330 1   47.561878  4.234204e+01  1.675
20331 1   47.548438  4.376197e+01  1.675
20332 1   48.771420  4.448358e+01  1.675
20333 1   46.338897  4.162043e+01  1.675
20334 1   45.102476  4.231876e+01  1.675
20335 1   45.089036  4.373870e+01  1.675
20336 1   46.312018  4.446030e+01  1.675
20337 1   43.879495  4.159715e+01  1.675
20338 1   42.643074  4.229548e+01  1.675
20339 1   42.629635  4.371542e+01  1.675
20340 1   43.852616  4.443703e+01  1.675
20341 1   41.420093  4.157388e+01  1.675
20342 1   40.183672  4.227220e+01  1.675
20343 1   40.170233  4.369214e+01  1.675
20344 1   41.393214  4.441375e+01  1.675
20345 1   38.960691  4.155060e+01  1.675
20346 1   37.724270  4.224893e+01  1.675
20347 1   37.710831  4.366886e+01  1.675
20348 1   38.933812  4.439047e+01  1.675
20349 1   36.501289  4.152732e+01  1.675
20350 1   35.264868  4.222565e+01  1.675
20351 1   35.251429  4.364559e+01  1.675
20352 1   36.474410  4.436719e+01  1.675
20353 1   34.041887  4.150404e+01  1.675
20354 1   32.805466  4.220237e+01  1.675
20355 1   32.792027  4.362231e+01  1.675
20356 1   34.015008  4.434392e+01  1.675
20357 1   31.582485  4.148077e+01  1.675
20358 1   30.346064  4.217909e+01  1.675
20359 1   30.332625  4.359903e+01  1.675
20360 1   31.555606  4.432064e+01  1.675
20361 1   29.123083  4.145749e+01  1.675
20362 1   27.886662  4.215582e+01  1.675
20363 1   27.873223  4.357575e+01  1.675
20364 1   29.096204  4.429736e+01  1.675
20365 1   26.663681  4.143421e+01  1.675
20366 1   25.427260  4.213254e+01  1.675
20367 1   25.413821  4.355248e+01  1.675
20368 1   26.636802  4.427408e+01  1.675
20369 1   24.204279  4.141093e+01  1.675
20370 1   22.967858  4.210926e+01  1.675
20371 1   22.954419  4.352920e+01  1.675
20372 1   24.177400  4.425080e+01  1.675
20373 1   21.744877  4.138765e+01  1.675
20374 1   20.508456  4.208598e+01  1.675
20375 1   20.495017  4.350592e+01  1.675
20376 1   21.717998  4.422753e+01  1.675
20377 1   19.285475  4.136438e+01  1.675
20378 1   18.049054  4.206271e+01  1.675
20379 1   18.035615  4.348264e+01  1.675
20380 1   19.258596  4.420425e+01  1.675
20381 1   16.826073  4.134110e+01  1.675
20382 1   15.589652  4.203943e+01  1.675
20383 1   15.576213  4.345936e+01  1.675
20384 1   16.799194  4.418097e+01  1.675
20385 1   14.366671  4.131782e+01  1.675
20386 1   13.130250  4.201615e+01  1.675
20387 1   13.116811  4.343609e+01  1.675
20388 1   14.339792  4.415769e+01  1.675
20389 1   11.907269  4.129454e+01  1.675
20390 1   10.670848  4.199287e+01  1.675
20391 1   10.657409  4.341281e+01  1.675
20392 1   11.880390  4.413442e+01  1.675
20393 1    9.447867  4.127127e+01  1.675
20394 1    8.211446  4.196960e+01  1.675
20395 1    8.198007  4.338953e+01  1.675
20396 1    9.420988  4.411114e+01  1.675
20397 1    6.988465  4.124799e+01  1.675
20398 1    5.752044  4.194632e+01  1.675
20399 1    5.738605  4.336625e+01  1.675
20400 1    6.961586  4.408786e+01  1.675
20401 1    4.529063  4.122471e+01  1.675
20402 1    3.292642  4.192304e+01  1.675
20403 1    3.279203  4.334298e+01  1.675
20404 1    4.502184  4.406458e+01  1.675
20405 1    2.069661  4.120143e+01  1.675
20406 1    0.833240  4.189976e+01  1.675
20407 1    0.819801  4.331970e+01  1.675
20408 1    2.042782  4.404131e+01  1.675
20409 1   -0.389741  4.117816e+01  1.675
20410 1   -1.626162  4.187649e+01  1.675
20411 1   -1.639601  4.329642e+01  1.675
20412 1   -0.416620  4.401803e+01  1.675
20413 1   -2.849143  4.115488e+01  1.675
20414 1   -4.085564  4.185321e+01  1.675
20415 1   -4.099003  4.327314e+01  1.675
20416 1   -2.876022  4.399475e+01  1.675
20417 1   -5.308545  4.113160e+01  1.675
20418 1   -6.544966  4.182993e+01  1.675
20419 1   -6.558405  4.324987e+01  1.675
20420 1   -5.335424  4.397147e+01  1.675
20421 1   -7.767947  4.110832e+01  1.675
20422 1   -9.004368  4.180665e+01  1.675
20423 1   -9.017807  4.322659e+01  1.675
20424 1   -7.794826  4.394820e+01  1.675
20425 1  -10.227349  4.108505e+01  1.675
20426 1  -11.463770  4.178337e+01  1.675
20427 1  -11.477209  4.320331e+01  1.675
20428 1  -10.254228  4.392492e+01  1.675
20429 1  -12.686751  4.106177e+01  1.675
20430 1  -13.923172  4.176010e+01  1.675
20431 1  -13.936611  4.318003e+01  1.675
20432 1  -12.713630  4.390164e+01  1.675
20433 1  -15.146153  4.103849e+01  1.675
20434 1  -16.382574  4.173682e+01  1.675
20435 1  -16.396013  4.315676e+01  1.675
20436 1  -15.173032  4.387836e+01  1.675
20437 1  -17.605555  4.101521e+01  1.675
20438 1  -18.841976  4.171354e+01  1.675
20439 1  -18.855415  4.313348e+01  1.675
20440 1  -17.632434  4.385508e+01  1.675
20441 1  -20.064957  4.099193e+01  1.675
20442 1  -21.301378  4.169026e+01  1.675
20443 1  -21.314817  4.311020e+01  1.675
20444 1  -20.091836  4.383181e+01  1.675
20445 1  -22.524359  4.096866e+01  1.675
20446 1  -23.760780  4.166699e+01  1.675
20447 1  -23.774219  4.308692e+01  1.675
20448 1  -22.551238  4.380853e+01  1.675
20449 1  -24.983761  4.094538e+01  1.675
20450 1  -26.220182  4.164371e+01  1.675
20451 1  -26.233621  4.306364e+01  1.675
20452 1  -25.010640  4.378525e+01  1.675
20453 1  -27.443163  4.092210e+01  1.675
20454 1  -28.679584  4.162043e+01  1.675
20455 1  -28.693023  4.304037e+01  1.675
20456 1  -27.470042  4.376197e+01  1.675
20457 1  -29.902565  4.089882e+01  1.675
20458 1  -31.138986  4.159715e+01  1.675
20459 1  -31.152425  4.301709e+01  1.675
20460 1  -29.929444  4.373870e+01  1.675
20461 1  -32.361967  4.087555e+01  1.675
20462 1  -33.598388  4.157388e+01  1.675
20463 1  -33.611827  4.299381e+01  1.675
20464 1  -32.388846  4.371542e+01  1.675
20465 1  -34.821369  4.085227e+01  1.675
20466 1  -36.057790  4.155060e+01  1.675
20467 1  -36.071229  4.297053e+01  1.675
20468 1  -34.848248  4.369214e+01  1.675
20469 1  -37.280771  4.082899e+01  1.675
20470 1  -38.517192  4.152732e+01  1.675
20471 1  -38.530631  4.294726e+01  1.675
20472 1  -37.307650  4.366886e+01  1.675
20473 1  -39.740173  4.080571e+01  1.675
20474 1  -40.976594  4.150404e+01  1.675
20475 1  -40.990033  4.292398e+01  1.675
20476 1  -39.767052  4.364559e+01  1.675
20477 1  -42.199575  4.078244e+01  1.675
20478 1  -43.435996  4.148077e+01  1.675
20479 1  -43.449435  4.290070e+01  1.675
20480 1  -42.226454  4.362231e+01  1.675
20481 1  -44.658977  4.075916e+01  1.675
20482 1  -45.895398  4.145749e+01  1.675
20483 1  -45.908837  4.287742e+01  1.675
20484 1  -44.685856  4.359903e+01  1.675
20485 1  -47.118379  4.073588e+01  1.675
20486 1  -48.354800  4.143421e+01  1.675
20487 1  -48.368239  4.285415e+01  1.675
20488 1  -47.145258  4.357575e+01  1.675
20489 1  -49.577781  4.071260e+01  1.675
20490 1  -50.814202  4.141093e+01  1.675
20491 1  -50.827641  4.283087e+01  1.675
20492 1  -49.604660  4.355248e+01  1.675
20493 1  -52.037183  4.068933e+01  1.675
20494 1  -53.273604  4.138765e+01  1.675
20495 1  -53.287043  4.280759e+01  1.675
20496 1  -52.064062  4.352920e+01  1.675
20497 1  -54.496585  4.066605e+01  1.675
20498 1  -55.733006  4.136438e+01  1.675
20499 1  -55.746445  4.278431e+01  1.675
20500 1  -54.523464  4.350592e+01  1.675
20501 1  -56.955987  4.064277e+01  1.675
20502 1  -58.192408  4.134110e+01  1.675
20503 1  -58.205847  4.276104e+01  1.675
20504 1  -56.982866  4.348264e+01  1.675
20505 1  -59.415389  4.061949e+01  1.675
20506 1  -60.651810  4.131782e+01  1.675
20507 1  -60.665249  4.273776e+01  1.675
20508 1  -59.442268  4.345936e+01  1.675
20509 1  -61.874791  4.059621e+01  1.675
20510 1  -63.111212  4.129454e+01  1.675
20511 1  -63.124651  4.271448e+01  1.675
20512 1  -61.901670  4.343609e+01  1.675
20513 1  -64.334193  4.057294e+01  1.675
20514 1  -65.570614  4.127127e+01  1.675
20515 1  -65.584053  4.269120e+01  1.675
20516 1  -64.361072  4.341281e+01  1.675
20517 1  -66.793595  4.054966e+01  1.675
20518 1  -68.030016  4.124799e+01  1.675
20519 1  -68.043455  4.266792e+01  1.675
20520 1  -66.820474  4.338953e+01  1.675
20521 1  -69.252997  4.052638e+01  1.675
20522 1  -70.489418  4.122471e+01  1.675
20523 1  -70.502857  4.264465e+01  1.675
20524 1  -69.279876  4.336625e+01  1.675
20525 1  -71.712399  4.050310e+01  1.675
20526 1  -72.948820  4.120143e+01  1.675
20527 1  -72.962259  4.262137e+01  1.675
20528 1  -71.739278  4.334298e+01  1.675
20529 1  -74.171801  4.047983e+01  1.675
20530 1  -75.408222  4.117816e+01  1.675
20531 1  -75.421661  4.259809e+01  1.675
20532 1  -74.198680  4.331970e+01  1.675
20533 1  -76.631203  4.045655e+01  1.675
20534 1  -77.867624  4.115488e+01  1.675
20535 1  -77.881063  4.257481e+01  1.675
20536 1  -76.658082  4.329642e+01  1.675
20537 1  -79.090605  4.043327e+01  1.675
20538 1  -80.327026  4.113160e+01  1.675
20539 1  -80.340465  4.255154e+01  1.675
20540 1  -79.117484  4.327314e+01  1.675
20541 1  -81.550007  4.040999e+01  1.675
20542 1  -82.786428  4.110832e+01  1.675
20543 1  -82.799867  4.252826e+01  1.675
20544 1  -81.576886  4.324987e+01  1.675
20545 1  -84.009409  4.038672e+01  1.675
20546 1  -85.245830  4.108505e+01  1.675
20547 1  -85.259269  4.250498e+01  1.675
20548 1  -84.036288  4.322659e+01  1.675
20549 1  -86.468811  4.036344e+01  1.675
20550 1  -87.705232  4.106177e+01  1.675
20551 1  -87.718671  4.248170e+01  1.675
20552 1  -86.495690  4.320331e+01  1.675
20553 1  -88.928213  4.034016e+01  1.675
20554 1  -90.164634  4.103849e+01  1.675
20555 1  -90.178073  4.245843e+01  1.675
20556 1  -88.955092  4.318003e+01  1.675
20557 1  -91.387615  4.031688e+01  1.675
20558 1  -92.624036  4.101521e+01  1.675
20559 1  -92.637475  4.243515e+01  1.675
20560 1  -91.414494  4.315676e+01  1.675
20561 1  -93.847017  4.029361e+01  1.675
20562 1  -95.083438  4.099193e+01  1.675
20563 1  -95.096877  4.241187e+01  1.675
20564 1  -93.873896  4.313348e+01  1.675
20565 1  -96.306419  4.027033e+01  1.675
20566 1  -97.542840  4.096866e+01  1.675
20567 1  -97.556279  4.238859e+01  1.675
20568 1  -96.333298  4.311020e+01  1.675
20569 1  -98.765821  4.024705e+01  1.675
20570 1 -100.002242  4.094538e+01  1.675
20571 1 -100.015681  4.236532e+01  1.675
20572 1  -98.792700  4.308692e+01  1.675
20573 1 -101.225223  4.022377e+01  1.675
20574 1 -102.461644  4.092210e+01  1.675
20575 1 -102.475083  4.234204e+01  1.675
20576 1 -101.252102  4.306364e+01  1.675
20577 1 -103.684625  4.020049e+01  1.675
20578 1 -104.921046  4.089882e+01  1.675
20579 1 -104.934485  4.231876e+01  1.675
20580 1 -103.711504  4.304037e+01  1.675
20581 1 -106.144027  4.017722e+01  1.675
20582 1 -107.380448  4.087555e+01  1.675
20583 1 -107.393887  4.229548e+01  1.675
20584 1 -106.170906  4.301709e+01  1.675
20585 1 -108.603429  4.015394e+01  1.675
20586 1 -109.839850  4.085227e+01  1.675
20587 1 -109.853289  4.227220e+01  1.675
20588 1 -108.630308  4.299381e+01  1.675
20589 1 -111.062831  4.013066e+01  1.675
20590 1 -112.299252  4.082899e+01  1.675
20591 1 -112.312691  4.224893e+01  1.675
20592 1 -111.089710  4.297053e+01  1.675
20593 1  111.466012  4.720707e+01  1.675
20594 1  111.452572  4.862700e+01  1.675
20595 1  110.243030  4.648546e+01  1.675
20596 1  109.006610  4.718379e+01  1.675
20597 1  108.993170  4.860372e+01  1.675
20598 1  110.216152  4.932533e+01  1.675
20599 1  107.783628  4.646218e+01  1.675
20600 1  106.547208  4.716051e+01  1.675
20601 1  106.533768  4.858045e+01  1.675
20602 1  107.756750  4.930205e+01  1.675
20603 1  105.324226  4.643890e+01  1.675
20604 1  104.087806  4.713723e+01  1.675
20605 1  104.074366  4.855717e+01  1.675
20606 1  105.297348  4.927878e+01  1.675
20607 1  102.864824  4.641563e+01  1.675
20608 1  101.628404  4.711396e+01  1.675
20609 1  101.614964  4.853389e+01  1.675
20610 1  102.837946  4.925550e+01  1.675
20611 1  100.405422  4.639235e+01  1.675
20612 1   99.169002  4.709068e+01  1.675
20613 1   99.155562  4.851061e+01  1.675
20614 1  100.378544  4.923222e+01  1.675
20615 1   97.946020  4.636907e+01  1.675
20616 1   96.709600  4.706740e+01  1.675
20617 1   96.696160  4.848734e+01  1.675
20618 1   97.919142  4.920894e+01  1.675
20619 1   95.486618  4.634579e+01  1.675
20620 1   94.250198  4.704412e+01  1.675
20621 1   94.236758  4.846406e+01  1.675
20622 1   95.459740  4.918567e+01  1.675
20623 1   93.027216  4.632252e+01  1.675
20624 1   91.790796  4.702084e+01  1.675
20625 1   91.777356  4.844078e+01  1.675
20626 1   93.000338  4.916239e+01  1.675
20627 1   90.567814  4.629924e+01  1.675
20628 1   89.331394  4.699757e+01  1.675
20629 1   89.317954  4.841750e+01  1.675
20630 1   90.540936  4.913911e+01  1.675
20631 1   88.108412  4.627596e+01  1.675
20632 1   86.871992  4.697429e+01  1.675
20633 1   86.858552  4.839423e+01  1.675
20634 1   88.081534  4.911583e+01  1.675
20635 1   85.649010  4.625268e+01  1.675
20636 1   84.412590  4.695101e+01  1.675
20637 1   84.399150  4.837095e+01  1.675
20638 1   85.622132  4.909256e+01  1.675
20639 1   83.189608  4.622940e+01  1.675
20640 1   81.953188  4.692773e+01  1.675
20641 1   81.939748  4.834767e+01  1.675
20642 1   83.162730  4.906928e+01  1.675
20643 1   80.730206  4.620613e+01  1.675
20644 1   79.493786  4.690446e+01  1.675
20645 1   79.480346  4.832439e+01  1.675
20646 1   80.703328  4.904600e+01  1.675
20647 1   78.270804  4.618285e+01  1.675
20648 1   77.034384  4.688118e+01  1.675
20649 1   77.020944  4.830112e+01  1.675
20650 1   78.243926  4.902272e+01  1.675
20651 1   75.811402  4.615957e+01  1.675
20652 1   74.574982  4.685790e+01  1.675
20653 1   74.561542  4.827784e+01  1.675
20654 1   75.784524  4.899944e+01  1.675
20655 1   73.352000  4.613629e+01  1.675
20656 1   72.115580  4.683462e+01  1.675
20657 1   72.102140  4.825456e+01  1.675
20658 1   73.325122  4.897617e+01  1.675
20659 1   70.892598  4.611302e+01  1.675
20660 1   69.656178  4.681135e+01  1.675
20661 1   69.642738  4.823128e+01  1.675
20662 1   70.865720  4.895289e+01  1.675
20663 1   68.433196  4.608974e+01  1.675
20664 1   67.196776  4.678807e+01  1.675
20665 1   67.183336  4.820800e+01  1.675
20666 1   68.406318  4.892961e+01  1.675
20667 1   65.973794  4.606646e+01  1.675
20668 1   64.737374  4.676479e+01  1.675
20669 1   64.723934  4.818473e+01  1.675
20670 1   65.946916  4.890633e+01  1.675
20671 1   63.514392  4.604318e+01  1.675
20672 1   62.277972  4.674151e+01  1.675
20673 1   62.264532  4.816145e+01  1.675
20674 1   63.487514  4.888306e+01  1.675
20675 1   61.054990  4.601991e+01  1.675
20676 1   59.818570  4.671824e+01  1.675
20677 1   59.805130  4.813817e+01  1.675
20678 1   61.028112  4.885978e+01  1.675
20679 1   58.595588  4.599663e+01  1.675
20680 1   57.359168  4.669496e+01  1.675
20681 1   57.345728  4.811489e+01  1.675
20682 1   58.568710  4.883650e+01  1.675
20683 1   56.136186  4.597335e+01  1.675
20684 1   54.899766  4.667168e+01  1.675
20685 1   54.886326  4.809162e+01  1.675
20686 1   56.109308  4.881322e+01  1.675
20687 1   53.676784  4.595007e+01  1.675
20688 1   52.440364  4.664840e+01  1.675
20689 1   52.426924  4.806834e+01  1.675
20690 1   53.649906  4.878995e+01  1.675
20691 1   51.217382  4.592680e+01  1.675
20692 1   49.980962  4.662512e+01  1.675
20693 1   49.967522  4.804506e+01  1.675
20694 1   51.190504  4.876667e+01  1.675
20695 1   48.757980  4.590352e+01  1.675
20696 1   47.521560  4.660185e+01  1.675
20697 1   47.508120  4.802178e+01  1.675
20698 1   48.731102  4.874339e+01  1.675
20699 1   46.298578  4.588024e+01  1.675
20700 1   45.062158  4.657857e+01  1.675
20701 1   45.048718  4.799851e+01  1.675
20702 1   46.271700  4.872011e+01  1.675
20703 1   43.839176  4.585696e+01  1.675
20704 1   42.602756  4.655529e+01  1.675
20705 1   42.589316  4.797523e+01  1.675
20706 1   43.812298  4.869684e+01  1.675
20707 1   41.379774  4.583368e+01  1.675
20708 1   40.143354  4.653201e+01  1.675
20709 1   40.129914  4.795195e+01  1.675
20710 1   41.352896  4.867356e+01  1.675
20711 1   38.920372  4.581041e+01  1.675
20712 1   37.683952  4.650874e+01  1.675
20713 1   37.670512  4.792867e+01  1.675
20714 1   38.893494  4.865028e+01  1.675
20715 1   36.460970  4.578713e+01  1.675
20716 1   35.224550  4.648546e+01  1.675
20717 1   35.211110  4.790540e+01  1.675
20718 1   36.434092  4.862700e+01  1.675
20719 1   34.001569  4.576385e+01  1.675
20720 1   32.765148  4.646218e+01  1.675
20721 1   32.751708  4.788212e+01  1.675
20722 1   33.974690  4.860372e+01  1.675
20723 1   31.542167  4.574057e+01  1.675
20724 1   30.305746  4.643890e+01  1.675
20725 1   30.292306  4.785884e+01  1.675
20726 1   31.515288  4.858045e+01  1.675
20727 1   29.082765  4.571730e+01  1.675
20728 1   27.846344  4.641563e+01  1.675
20729 1   27.832904  4.783556e+01  1.675
20730 1   29.055886  4.855717e+01  1.675
20731 1   26.623363  4.569402e+01  1.675
20732 1   25.386942  4.639235e+01  1.675
20733 1   25.373503  4.781228e+01  1.675
20734 1   26.596484  4.853389e+01  1.675
20735 1   24.163961  4.567074e+01  1.675
20736 1   22.927540  4.636907e+01  1.675
20737 1   22.914101  4.778901e+01  1.675
20738 1   24.137082  4.851061e+01  1.675
20739 1   21.704559  4.564746e+01  1.675
20740 1   20.468138  4.634579e+01  1.675
20741 1   20.454699  4.776573e+01  1.675
20742 1   21.677680  4.848734e+01  1.675
20743 1   19.245157  4.562419e+01  1.675
20744 1   18.008736  4.632252e+01  1.675
20745 1   17.995297  4.774245e+01  1.675
20746 1   19.218278  4.846406e+01  1.675
20747 1   16.785755  4.560091e+01  1.675
20748 1   15.549334  4.629924e+01  1.675
20749 1   15.535895  4.771917e+01  1.675
20750 1   16.758876  4.844078e+01  1.675
20751 1   14.326353  4.557763e+01  1.675
20752 1   13.089932  4.627596e+01  1.675
20753 1   13.076493  4.769590e+01  1.675
20754 1   14.299474  4.841750e+01  1.675
20755 1   11.866951  4.555435e+01  1.675
20756 1   10.630530  4.625268e+01  1.675
20757 1   10.617091  4.767262e+01  1.675
20758 1   11.840072  4.839423e+01  1.675
20759 1    9.407549  4.553108e+01  1.675
20760 1    8.171128  4.622940e+01  1.675
20761 1    8.157689  4.764934e+01  1.675
20762 1    9.380670  4.837095e+01  1.675
20763 1    6.948147  4.550780e+01  1.675
20764 1    5.711726  4.620613e+01  1.675
20765 1    5.698287  4.762606e+01  1.675
20766 1    6.921268  4.834767e+01  1.675
20767 1    4.488745  4.548452e+01  1.675
20768 1    3.252324  4.618285e+01  1.675
20769 1    3.238885  4.760279e+01  1.675
20770 1    4.461866  4.832439e+01  1.675
20771 1    2.029343  4.546124e+01  1.675
20772 1    0.792922  4.615957e+01  1.675
20773 1    0.779483  4.757951e+01  1.675
20774 1    2.002464  4.830112e+01  1.675
20775 1   -0.430059  4.543796e+01  1.675
20776 1   -1.666480  4.613629e+01  1.675
20777 1   -1.679919  4.755623e+01  1.675
20778 1   -0.456938  4.827784e+01  1.675
20779 1   -2.889461  4.541469e+01  1.675
20780 1   -4.125882  4.611302e+01  1.675
20781 1   -4.139321  4.753295e+01  1.675
20782 1   -2.916340  4.825456e+01  1.675
20783 1   -5.348863  4.539141e+01  1.675
20784 1   -6.585284  4.608974e+01  1.675
20785 1   -6.598723  4.750968e+01  1.675
20786 1   -5.375742  4.823128e+01  1.675
20787 1   -7.808265  4.536813e+01  1.675
20788 1   -9.044686  4.606646e+01  1.675
20789 1   -9.058125  4.748640e+01  1.675
20790 1   -7.835144  4.820800e+01  1.675
20791 1  -10.267667  4.534485e+01  1.675
20792 1  -11.504088  4.604318e+01  1.675
20793 1  -11.517527  4.746312e+01  1.675
20794 1  -10.294546  4.818473e+01  1.675
20795 1  -12.727069  4.532158e+01  1.675
20796 1  -13.963490  4.601991e+01  1.675
20797 1  -13.976929  4.743984e+01  1.675
20798 1  -12.753948  4.816145e+01  1.675
20799 1  -15.186471  4.529830e+01  1.675
20800 1  -16.422892  4.599663e+01  1.675
20801 1  -16.436331  4.741656e+01  1.675
20802 1  -15.213350  4.813817e+01  1.675
20803 1  -17.645873  4.527502e+01  1.675
20804 1  -18.882294  4.597335e+01  1.675
20805 1  -18.895733  4.739329e+01  1.675
20806 1  -17.672752  4.811489e+01  1.675
20807 1  -20.105275  4.525174e+01  1.675
20808 1  -21.341696  4.595007e+01  1.675
20809 1  -21.355135  4.737001e+01  1.675
20810 1  -20.132154  4.809162e+01  1.675
20811 1  -22.564677  4.522847e+01  1.675
20812 1  -23.801098  4.592680e+01  1.675
20813 1  -23.814537  4.734673e+01  1.675
20814 1  -22.591556  4.806834e+01  1.675
20815 1  -25.024079  4.520519e+01  1.675
20816 1  -26.260500  4.590352e+01  1.675
20817 1  -26.273939  4.732345e+01  1.675
20818 1  -25.050958  4.804506e+01  1.675
20819 1  -27.483481  4.518191e+01  1.675
20820 1  -28.719902  4.588024e+01  1.675
20821 1  -28.733341  4.730018e+01  1.675
20822 1  -27.510360  4.802178e+01  1.675
20823 1  -29.942883  4.515863e+01  1.675
20824 1  -31.179304  4.585696e+01  1.675
20825 1  -31.192743  4.727690e+01  1.675
20826 1  -29.969762  4.799851e+01  1.675
20827 1  -32.402285  4.513536e+01  1.675
20828 1  -33.638706  4.583368e+01  1.675
20829 1  -33.652145  4.725362e+01  1.675
20830 1  -32.429164  4.797523e+01  1.675
20831 1  -34.861687  4.511208e+01  1.675
20832 1  -36.098108  4.581041e+01  1.675
20833 1  -36.111547  4.723034e+01  1.675
20834 1  -34.888566  4.795195e+01  1.675
20835 1  -37.321089  4.508880e+01  1.675
20836 1  -38.557510  4.578713e+01  1.675
20837 1  -38.570949  4.720707e+01  1.675
20838 1  -37.347968  4.792867e+01  1.675
20839 1  -39.780491  4.506552e+01  1.675
20840 1  -41.016912  4.576385e+01  1.675
20841 1  -41.030351  4.718379e+01  1.675
20842 1  -39.807370  4.790540e+01  1.675
20843 1  -42.239893  4.504224e+01  1.675
20844 1  -43.476314  4.574057e+01  1.675
20845 1  -43.489753  4.716051e+01  1.675
20846 1  -42.266772  4.788212e+01  1.675
20847 1  -44.699295  4.501897e+01  1.675
20848 1  -45.935716  4.571730e+01  1.675
20849 1  -45.949155  4.713723e+01  1.675
20850 1  -44.726174  4.785884e+01  1.675
20851 1  -47.158697  4.499569e+01  1.675
20852 1  -48.395118  4.569402e+01  1.675
20853 1  -48.408557  4.711396e+01  1.675
20854 1  -47.185576  4.783556e+01  1.675
20855 1  -49.618099  4.497241e+01  1.675
20856 1  -50.854520  4.567074e+01  1.675
20857 1  -50.867959  4.709068e+01  1.675
20858 1  -49.644978  4.781228e+01  1.675
20859 1  -52.077501  4.494913e+01  1.675
20860 1  -53.313922  4.564746e+01  1.675
20861 1  -53.327361  4.706740e+01  1.675
20862 1  -52.104380  4.778901e+01  1.675
20863 1  -54.536903  4.492586e+01  1.675
20864 1  -55.773324  4.562419e+01  1.675
20865 1  -55.786763  4.704412e+01  1.675
20866 1  -54.563782  4.776573e+01  1.675
20867 1  -56.996305  4.490258e+01  1.675
20868 1  -58.232726  4.560091e+01  1.675
20869 1  -58.246165  4.702084e+01  1.675
20870 1  -57.023184  4.774245e+01  1.675
20871 1  -59.455707  4.487930e+01  1.675
20872 1  -60.692128  4.557763e+01  1.675
20873 1  -60.705567  4.699757e+01  1.675
20874 1  -59.482586  4.771917e+01  1.675
20875 1  -61.915109  4.485602e+01  1.675
20876 1  -63.151530  4.555435e+01  1.675
20877 1  -63.164969  4.697429e+01  1.675
20878 1  -61.941988  4.769590e+01  1.675
20879 1  -64.374511  4.483275e+01  1.675
20880 1  -65.610932  4.553108e+01  1.675
20881 1  -65.624371  4.695101e+01  1.675
20882 1  -64.401390  4.767262e+01  1.675
20883 1  -66.833913  4.480947e+01  1.675
20884 1  -68.070334  4.550780e+01  1.675
20885 1  -68.083773  4.692773e+01  1.675
20886 1  -66.860792  4.764934e+01  1.675
20887 1  -69.293315  4.478619e+01  1.675
20888 1  -70.529736  4.548452e+01  1.675
20889 1  -70.543175  4.690446e+01  1.675
20890 1  -69.320194  4.762606e+01  1.675
20891 1  -71.752717  4.476291e+01  1.675
20892 1  -72.989138  4.546124e+01  1.675
20893 1  -73.002577  4.688118e+01  1.675
20894 1  -71.779596  4.760279e+01  1.675
20895 1  -74.212119  4.473964e+01  1.675
20896 1  -75.448540  4.543796e+01  1.675
20897 1  -75.461979  4.685790e+01  1.675
20898 1  -74.238998  4.757951e+01  1.675
20899 1  -76.671521  4.471636e+01  1.675
20900 1  -77.907942  4.541469e+01  1.675
20901 1  -77.921381  4.683462e+01  1.675
20902 1  -76.698400  4.755623e+01  1.675
20903 1  -79.130923  4.469308e+01  1.675
20904 1  -80.367344  4.539141e+01  1.675
20905 1  -80.380783  4.681135e+01  1.675
20906 1  -79.157802  4.753295e+01  1.675
20907 1  -81.590325  4.466980e+01  1.675
20908 1  -82.826746  4.536813e+01  1.675
20909 1  -82.840185  4.678807e+01  1.675
20910 1  -81.617204  4.750968e+01  1.675
20911 1  -84.049727  4.464652e+01  1.675
20912 1  -85.286148  4.534485e+01  1.675
20913 1  -85.299587  4.676479e+01  1.675
20914 1  -84.076606  4.748640e+01  1.675
20915 1  -86.509129  4.462325e+01  1.675
20916 1  -87.745550  4.532158e+01  1.675
20917 1  -87.758989  4.674151e+01  1.675
20918 1  -86.536008  4.746312e+01  1.675
20919 1  -88.968531  4.459997e+01  1.675
20920 1  -90.204952  4.529830e+01  1.675
20921 1  -90.218391  4.671824e+01  1.675
20922 1  -88.995410  4.743984e+01  1.675
20923 1  -91.427933  4.457669e+01  1.675
20924 1  -92.664354  4.527502e+01  1.675
20925 1  -92.677793  4.669496e+01  1.675
20926 1  -91.454812  4.741656e+01  1.675
20927 1  -93.887335  4.455341e+01  1.675
20928 1  -95.123756  4.525174e+01  1.675
20929 1  -95.137195  4.667168e+01  1.675
20930 1  -93.914214  4.739329e+01  1.675
20931 1  -96.346737  4.453014e+01  1.675
20932 1  -97.583158  4.522847e+01  1.675
20933 1  -97.596597  4.664840e+01  1.675
20934 1  -96.373616  4.737001e+01  1.675
20935 1  -98.806139  4.450686e+01  1.675
20936 1 -100.042560  4.520519e+01  1.675
20937 1 -100.055999  4.662512e+01  1.675
20938 1  -98.833018  4.734673e+01  1.675
20939 1 -101.265541  4.448358e+01  1.675
20940 1 -102.501962  4.518191e+01  1.675
20941 1 -102.515401  4.660185e+01  1.675
20942 1 -101.292420  4.732345e+01  1.675
20943 1 -103.724943  4.446030e+01  1.675
20944 1 -104.961364  4.515863e+01  1.675
20945 1 -104.974803  4.657857e+01  1.675
20946 1 -103.751822  4.730018e+01  1.675
20947 1 -106.184345  4.443703e+01  1.675
20948 1 -107.420766  4.513536e+01  1.675
20949 1 -107.434205  4.655529e+01  1.675
20950 1 -106.211224  4.727690e+01  1.675
20951 1 -108.643747  4.441375e+01  1.675
20952 1 -109.880168  4.511208e+01  1.675
20953 1 -109.893607  4.653201e+01  1.675
20954 1 -108.670626  4.725362e+01  1.675
20955 1 -111.103149  4.439047e+01  1.675
20956 1 -112.339570  4.508880e+01  1.675
20957 1 -112.353009  4.650874e+01  1.675
20958 1 -111.130028  4.723034e+01  1.675
20959 1  111.425693  5.146688e+01  1.675
20960 1  111.412254  5.288681e+01  1.675
20961 1  110.202712  5.074527e+01  1.675
20962 1  108.966291  5.144360e+01  1.675
20963 1  108.952852  5.286353e+01  1.675
20964 1  110.175833  5.358514e+01  1.675
20965 1  107.743310  5.072199e+01  1.675
20966 1  106.506889  5.142032e+01  1.675
20967 1  106.493450  5.284026e+01  1.675
20968 1  107.716431  5.356186e+01  1.675
20969 1  105.283908  5.069871e+01  1.675
20970 1  104.047487  5.139704e+01  1.675
20971 1  104.034048  5.281698e+01  1.675
20972 1  105.257029  5.353859e+01  1.675
20973 1  102.824506  5.067544e+01  1.675
20974 1  101.588086  5.137376e+01  1.675
20975 1  101.574646  5.279370e+01  1.675
20976 1  102.797627  5.351531e+01  1.675
20977 1  100.365104  5.065216e+01  1.675
20978 1   99.128684  5.135049e+01  1.675
20979 1   99.115244  5.277042e+01  1.675
20980 1  100.338225  5.349203e+01  1.675
20981 1   97.905702  5.062888e+01  1.675
20982 1   96.669282  5.132721e+01  1.675
20983 1   96.655842  5.274715e+01  1.675
20984 1   97.878823  5.346875e+01  1.675
20985 1   95.446300  5.060560e+01  1.675
20986 1   94.209880  5.130393e+01  1.675
20987 1   94.196440  5.272387e+01  1.675
20988 1   95.419421  5.344548e+01  1.675
20989 1   92.986898  5.058232e+01  1.675
20990 1   91.750478  5.128065e+01  1.675
20991 1   91.737038  5.270059e+01  1.675
20992 1   92.960020  5.342220e+01  1.675
20993 1   90.527496  5.055905e+01  1.675
20994 1   89.291076  5.125738e+01  1.675
20995 1   89.277636  5.267731e+01  1.675
20996 1   90.500618  5.339892e+01  1.675
20997 1   88.068094  5.053577e+01  1.675
20998 1   86.831674  5.123410e+01  1.675
20999 1   86.818234  5.265404e+01  1.675
21000 1   88.041216  5.337564e+01  1.675
21001 1   85.608692  5.051249e+01  1.675
21002 1   84.372272  5.121082e+01  1.675
21003 1   84.358832  5.263076e+01  1.675
21004 1   85.581814  5.335236e+01  1.675
21005 1   83.149290  5.048921e+01  1.675
21006 1   81.912870  5.118754e+01  1.675
21007 1   81.899430  5.260748e+01  1.675
21008 1   83.122412  5.332909e+01  1.675
21009 1   80.689888  5.046594e+01  1.675
21010 1   79.453468  5.116427e+01  1.675
21011 1   79.440028  5.258420e+01  1.675
21012 1   80.663010  5.330581e+01  1.675
21013 1   78.230486  5.044266e+01  1.675
21014 1   76.994066  5.114099e+01  1.675
21015 1   76.980626  5.256092e+01  1.675
21016 1   78.203608  5.328253e+01  1.675
21017 1   75.771084  5.041938e+01  1.675
21018 1   74.534664  5.111771e+01  1.675
21019 1   74.521224  5.253765e+01  1.675
21020 1   75.744206  5.325925e+01  1.675
21021 1   73.311682  5.039610e+01  1.675
21022 1   72.075262  5.109443e+01  1.675
21023 1   72.061822  5.251437e+01  1.675
21024 1   73.284804  5.323598e+01  1.675
21025 1   70.852280  5.037283e+01  1.675
21026 1   69.615860  5.107116e+01  1.675
21027 1   69.602420  5.249109e+01  1.675
21028 1   70.825402  5.321270e+01  1.675
21029 1   68.392878  5.034955e+01  1.675
21030 1   67.156458  5.104788e+01  1.675
21031 1   67.143018  5.246781e+01  1.675
21032 1   68.366000  5.318942e+01  1.675
21033 1   65.933476  5.032627e+01  1.675
21034 1   64.697056  5.102460e+01  1.675
21035 1   64.683616  5.244454e+01  1.675
21036 1   65.906598  5.316614e+01  1.675
21037 1   63.474074  5.030299e+01  1.675
21038 1   62.237654  5.100132e+01  1.675
21039 1   62.224214  5.242126e+01  1.675
21040 1   63.447196  5.314287e+01  1.675
21041 1   61.014672  5.027972e+01  1.675
21042 1   59.778252  5.097804e+01  1.675
21043 1   59.764812  5.239798e+01  1.675
21044 1   60.987794  5.311959e+01  1.675
21045 1   58.555270  5.025644e+01  1.675
21046 1   57.318850  5.095477e+01  1.675
21047 1   57.305410  5.237470e+01  1.675
21048 1   58.528392  5.309631e+01  1.675
21049 1   56.095868  5.023316e+01  1.675
21050 1   54.859448  5.093149e+01  1.675
21051 1   54.846008  5.235143e+01  1.675
21052 1   56.068990  5.307303e+01  1.675
21053 1   53.636466  5.020988e+01  1.675
21054 1   52.400046  5.090821e+01  1.675
21055 1   52.386606  5.232815e+01  1.675
21056 1   53.609588  5.304976e+01  1.675
21057 1   51.177064  5.018660e+01  1.675
21058 1   49.940644  5.088493e+01  1.675
21059 1   49.927204  5.230487e+01  1.675
21060 1   51.150186  5.302648e+01  1.675
21061 1   48.717662  5.016333e+01  1.675
21062 1   47.481242  5.086166e+01  1.675
21063 1   47.467802  5.228159e+01  1.675
21064 1   48.690784  5.300320e+01  1.675
21065 1   46.258260  5.014005e+01  1.675
21066 1   45.021840  5.083838e+01  1.675
21067 1   45.008400  5.225832e+01  1.675
21068 1   46.231382  5.297992e+01  1.675
21069 1   43.798858  5.011677e+01  1.675
21070 1   42.562438  5.081510e+01  1.675
21071 1   42.548998  5.223504e+01  1.675
21072 1   43.771980  5.295664e+01  1.675
21073 1   41.339456  5.009349e+01  1.675
21074 1   40.103036  5.079182e+01  1.675
21075 1   40.089596  5.221176e+01  1.675
21076 1   41.312578  5.293337e+01  1.675
21077 1   38.880054  5.007022e+01  1.675
21078 1   37.643634  5.076855e+01  1.675
21079 1   37.630194  5.218848e+01  1.675
21080 1   38.853176  5.291009e+01  1.675
21081 1   36.420652  5.004694e+01  1.675
21082 1   35.184232  5.074527e+01  1.675
21083 1   35.170792  5.216520e+01  1.675
21084 1   36.393774  5.288681e+01  1.675
21085 1   33.961250  5.002366e+01  1.675
21086 1   32.724830  5.072199e+01  1.675
21087 1   32.711390  5.214193e+01  1.675
21088 1   33.934372  5.286353e+01  1.675
21089 1   31.501848  5.000038e+01  1.675
21090 1   30.265428  5.069871e+01  1.675
21091 1   30.251988  5.211865e+01  1.675
21092 1   31.474970  5.284026e+01  1.675
21093 1   29.042446  4.997711e+01  1.675
21094 1   27.806026  5.067544e+01  1.675
21095 1   27.792586  5.209537e+01  1.675
21096 1   29.015568  5.281698e+01  1.675
21097 1   26.583044  4.995383e+01  1.675
21098 1   25.346624  5.065216e+01  1.675
21099 1   25.333184  5.207209e+01  1.675
21100 1   26.556166  5.279370e+01  1.675
21101 1   24.123642  4.993055e+01  1.675
21102 1   22.887222  5.062888e+01  1.675
21103 1   22.873782  5.204882e+01  1.675
21104 1   24.096764  5.277042e+01  1.675
21105 1   21.664240  4.990727e+01  1.675
21106 1   20.427820  5.060560e+01  1.675
21107 1   20.414380  5.202554e+01  1.675
21108 1   21.637362  5.274715e+01  1.675
21109 1   19.204838  4.988400e+01  1.675
21110 1   17.968418  5.058232e+01  1.675
21111 1   17.954978  5.200226e+01  1.675
21112 1   19.177960  5.272387e+01  1.675
21113 1   16.745437  4.986072e+01  1.675
21114 1   15.509016  5.055905e+01  1.675
21115 1   15.495576  5.197898e+01  1.675
21116 1   16.718558  5.270059e+01  1.675
21117 1   14.286035  4.983744e+01  1.675
21118 1   13.049614  5.053577e+01  1.675
21119 1   13.036174  5.195571e+01  1.675
21120 1   14.259156  5.267731e+01  1.675
21121 1   11.826633  4.981416e+01  1.675
21122 1   10.590212  5.051249e+01  1.675
21123 1   10.576772  5.193243e+01  1.675
21124 1   11.799754  5.265404e+01  1.675
21125 1    9.367231  4.979088e+01  1.675
21126 1    8.130810  5.048921e+01  1.675
21127 1    8.117371  5.190915e+01  1.675
21128 1    9.340352  5.263076e+01  1.675
21129 1    6.907829  4.976761e+01  1.675
21130 1    5.671408  5.046594e+01  1.675
21131 1    5.657969  5.188587e+01  1.675
21132 1    6.880950  5.260748e+01  1.675
21133 1    4.448427  4.974433e+01  1.675
21134 1    3.212006  5.044266e+01  1.675
21135 1    3.198567  5.186260e+01  1.675
21136 1    4.421548  5.258420e+01  1.675
21137 1    1.989025  4.972105e+01  1.675
21138 1    0.752604  5.041938e+01  1.675
21139 1    0.739165  5.183932e+01  1.675
21140 1    1.962146  5.256092e+01  1.675
21141 1   -0.470377  4.969777e+01  1.675
21142 1   -1.706798  5.039610e+01  1.675
21143 1   -1.720237  5.181604e+01  1.675
21144 1   -0.497256  5.253765e+01  1.675
21145 1   -2.929779  4.967450e+01  1.675
21146 1   -4.166200  5.037283e+01  1.675
21147 1   -4.179639  5.179276e+01  1.675
21148 1   -2.956658  5.251437e+01  1.675
21149 1   -5.389181  4.965122e+01  1.675
21150 1   -6.625602  5.034955e+01  1.675
21151 1   -6.639041  5.176948e+01  1.675
21152 1   -5.416060  5.249109e+01  1.675
21153 1   -7.848583  4.962794e+01  1.675
21154 1   -9.085004  5.032627e+01  1.675
21155 1   -9.098443  5.174621e+01  1.675
21156 1   -7.875462  5.246781e+01  1.675
21157 1  -10.307985  4.960466e+01  1.675
21158 1  -11.544406  5.030299e+01  1.675
21159 1  -11.557845  5.172293e+01  1.675
21160 1  -10.334864  5.244454e+01  1.675
21161 1  -12.767387  4.958139e+01  1.675
21162 1  -14.003808  5.027972e+01  1.675
21163 1  -14.017247  5.169965e+01  1.675
21164 1  -12.794266  5.242126e+01  1.675
21165 1  -15.226789  4.955811e+01  1.675
21166 1  -16.463210  5.025644e+01  1.675
21167 1  -16.476649  5.167637e+01  1.675
21168 1  -15.253668  5.239798e+01  1.675
21169 1  -17.686191  4.953483e+01  1.675
21170 1  -18.922612  5.023316e+01  1.675
21171 1  -18.936051  5.165310e+01  1.675
21172 1  -17.713070  5.237470e+01  1.675
21173 1  -20.145593  4.951155e+01  1.675
21174 1  -21.382014  5.020988e+01  1.675
21175 1  -21.395453  5.162982e+01  1.675
21176 1  -20.172472  5.235143e+01  1.675
21177 1  -22.604995  4.948828e+01  1.675
21178 1  -23.841416  5.018660e+01  1.675
21179 1  -23.854855  5.160654e+01  1.675
21180 1  -22.631874  5.232815e+01  1.675
21181 1  -25.064397  4.946500e+01  1.675
21182 1  -26.300818  5.016333e+01  1.675
21183 1  -26.314257  5.158326e+01  1.675
21184 1  -25.091276  5.230487e+01  1.675
21185 1  -27.523799  4.944172e+01  1.675
21186 1  -28.760220  5.014005e+01  1.675
21187 1  -28.773659  5.155999e+01  1.675
21188 1  -27.550678  5.228159e+01  1.675
21189 1  -29.983201  4.941844e+01  1.675
21190 1  -31.219622  5.011677e+01  1.675
21191 1  -31.233061  5.153671e+01  1.675
21192 1  -30.010080  5.225832e+01  1.675
21193 1  -32.442603  4.939516e+01  1.675
21194 1  -33.679024  5.009349e+01  1.675
21195 1  -33.692463  5.151343e+01  1.675
21196 1  -32.469482  5.223504e+01  1.675
21197 1  -34.902005  4.937189e+01  1.675
21198 1  -36.138426  5.007022e+01  1.675
21199 1  -36.151865  5.149015e+01  1.675
21200 1  -34.928884  5.221176e+01  1.675
21201 1  -37.361407  4.934861e+01  1.675
21202 1  -38.597828  5.004694e+01  1.675
21203 1  -38.611267  5.146688e+01  1.675
21204 1  -37.388286  5.218848e+01  1.675
21205 1  -39.820809  4.932533e+01  1.675
21206 1  -41.057230  5.002366e+01  1.675
21207 1  -41.070669  5.144360e+01  1.675
21208 1  -39.847688  5.216520e+01  1.675
21209 1  -42.280211  4.930205e+01  1.675
21210 1  -43.516632  5.000038e+01  1.675
21211 1  -43.530071  5.142032e+01  1.675
21212 1  -42.307090  5.214193e+01  1.675
21213 1  -44.739613  4.927878e+01  1.675
21214 1  -45.976034  4.997711e+01  1.675
21215 1  -45.989473  5.139704e+01  1.675
21216 1  -44.766492  5.211865e+01  1.675
21217 1  -47.199015  4.925550e+01  1.675
21218 1  -48.435436  4.995383e+01  1.675
21219 1  -48.448875  5.137376e+01  1.675
21220 1  -47.225894  5.209537e+01  1.675
21221 1  -49.658417  4.923222e+01  1.675
21222 1  -50.894838  4.993055e+01  1.675
21223 1  -50.908277  5.135049e+01  1.675
21224 1  -49.685296  5.207209e+01  1.675
21225 1  -52.117819  4.920894e+01  1.675
21226 1  -53.354240  4.990727e+01  1.675
21227 1  -53.367679  5.132721e+01  1.675
21228 1  -52.144698  5.204882e+01  1.675
21229 1  -54.577221  4.918567e+01  1.675
21230 1  -55.813642  4.988400e+01  1.675
21231 1  -55.827081  5.130393e+01  1.675
21232 1  -54.604100  5.202554e+01  1.675
21233 1  -57.036623  4.916239e+01  1.675
21234 1  -58.273044  4.986072e+01  1.675
21235 1  -58.286483  5.128065e+01  1.675
21236 1  -57.063502  5.200226e+01  1.675
21237 1  -59.496025  4.913911e+01  1.675
21238 1  -60.732446  4.983744e+01  1.675
21239 1  -60.745885  5.125738e+01  1.675
21240 1  -59.522904  5.197898e+01  1.675
21241 1  -61.955427  4.911583e+01  1.675
21242 1  -63.191848  4.981416e+01  1.675
21243 1  -63.205287  5.123410e+01  1.675
21244 1  -61.982306  5.195571e+01  1.675
21245 1  -64.414829  4.909256e+01  1.675
21246 1  -65.651250  4.979088e+01  1.675
21247 1  -65.664689  5.121082e+01  1.675
21248 1  -64.441708  5.193243e+01  1.675
21249 1  -66.874231  4.906928e+01  1.675
21250 1  -68.110652  4.976761e+01  1.675
21251 1  -68.124091  5.118754e+01  1.675
21252 1  -66.901110  5.190915e+01  1.675
21253 1  -69.333633  4.904600e+01  1.675
21254 1  -70.570054  4.974433e+01  1.675
21255 1  -70.583493  5.116427e+01  1.675
21256 1  -69.360512  5.188587e+01  1.675
21257 1  -71.793035  4.902272e+01  1.675
21258 1  -73.029456  4.972105e+01  1.675
21259 1  -73.042895  5.114099e+01  1.675
21260 1  -71.819914  5.186260e+01  1.675
21261 1  -74.252437  4.899944e+01  1.675
21262 1  -75.488858  4.969777e+01  1.675
21263 1  -75.502297  5.111771e+01  1.675
21264 1  -74.279316  5.183932e+01  1.675
21265 1  -76.711839  4.897617e+01  1.675
21266 1  -77.948260  4.967450e+01  1.675
21267 1  -77.961699  5.109443e+01  1.675
21268 1  -76.738718  5.181604e+01  1.675
21269 1  -79.171241  4.895289e+01  1.675
21270 1  -80.407662  4.965122e+01  1.675
21271 1  -80.421101  5.107116e+01  1.675
21272 1  -79.198120  5.179276e+01  1.675
21273 1  -81.630643  4.892961e+01  1.675
21274 1  -82.867064  4.962794e+01  1.675
21275 1  -82.880503  5.104788e+01  1.675
21276 1  -81.657522  5.176948e+01  1.675
21277 1  -84.090045  4.890633e+01  1.675
21278 1  -85.326466  4.960466e+01  1.675
21279 1  -85.339905  5.102460e+01  1.675
21280 1  -84.116924  5.174621e+01  1.675
21281 1  -86.549447  4.888306e+01  1.675
21282 1  -87.785868  4.958139e+01  1.675
21283 1  -87.799307  5.100132e+01  1.675
21284 1  -86.576326  5.172293e+01  1.675
21285 1  -89.008849  4.885978e+01  1.675
21286 1  -90.245270  4.955811e+01  1.675
21287 1  -90.258709  5.097804e+01  1.675
21288 1  -89.035728  5.169965e+01  1.675
21289 1  -91.468251  4.883650e+01  1.675
21290 1  -92.704672  4.953483e+01  1.675
21291 1  -92.718111  5.095477e+01  1.675
21292 1  -91.495130  5.167637e+01  1.675
21293 1  -93.927653  4.881322e+01  1.675
21294 1  -95.164074  4.951155e+01  1.675
21295 1  -95.177513  5.093149e+01  1.675
21296 1  -93.954532  5.165310e+01  1.675
21297 1  -96.387055  4.878995e+01  1.675
21298 1  -97.623476  4.948828e+01  1.675
21299 1  -97.636915  5.090821e+01  1.675
21300 1  -96.413934  5.162982e+01  1.675
21301 1  -98.846457  4.876667e+01  1.675
21302 1 -100.082878  4.946500e+01  1.675
21303 1 -100.096317  5.088493e+01  1.675
21304 1  -98.873336  5.160654e+01  1.675
21305 1 -101.305859  4.874339e+01  1.675
21306 1 -102.542280  4.944172e+01  1.675
21307 1 -102.555719  5.086166e+01  1.675
21308 1 -101.332738  5.158326e+01  1.675
21309 1 -103.765261  4.872011e+01  1.675
21310 1 -105.001682  4.941844e+01  1.675
21311 1 -105.015121  5.083838e+01  1.675
21312 1 -103.792140  5.155999e+01  1.675
21313 1 -106.224663  4.869684e+01  1.675
21314 1 -107.461084  4.939516e+01  1.675
21315 1 -107.474523  5.081510e+01  1.675
21316 1 -106.251542  5.153671e+01  1.675
21317 1 -108.684065  4.867356e+01  1.675
21318 1 -109.920486  4.937189e+01  1.675
21319 1 -109.933925  5.079182e+01  1.675
21320 1 -108.710944  5.151343e+01  1.675
21321 1 -111.143467  4.865028e+01  1.675
21322 1 -112.379888  4.934861e+01  1.675
21323 1 -112.393327  5.076855e+01  1.675
21324 1 -111.170346  5.149015e+01  1.675
21325 1  111.385375  5.572668e+01  1.675
21326 1  111.371936  5.714662e+01  1.675
21327 1  110.162394  5.500508e+01  1.675
21328 1  108.925973  5.570341e+01  1.675
21329 1  108.912534  5.712334e+01  1.675
21330 1  110.135515  5.784495e+01  1.675
21331 1  107.702992  5.498180e+01  1.675
21332 1  106.466571  5.568013e+01  1.675
21333 1  106.453132  5.710007e+01  1.675
21334 1  107.676113  5.782167e+01  1.675
21335 1  105.243590  5.495852e+01  1.675
21336 1  104.007169  5.565685e+01  1.675
21337 1  103.993730  5.707679e+01  1.675
21338 1  105.216711  5.779839e+01  1.675
21339 1  102.784188  5.493524e+01  1.675
21340 1  101.547767  5.563357e+01  1.675
21341 1  101.534328  5.705351e+01  1.675
21342 1  102.757309  5.777512e+01  1.675
21343 1  100.324786  5.491197e+01  1.675
21344 1   99.088365  5.561030e+01  1.675
21345 1   99.074926  5.703023e+01  1.675
21346 1  100.297907  5.775184e+01  1.675
21347 1   97.865384  5.488869e+01  1.675
21348 1   96.628963  5.558702e+01  1.675
21349 1   96.615524  5.700695e+01  1.675
21350 1   97.838505  5.772856e+01  1.675
21351 1   95.405982  5.486541e+01  1.675
21352 1   94.169561  5.556374e+01  1.675
21353 1   94.156122  5.698368e+01  1.675
21354 1   95.379103  5.770528e+01  1.675
21355 1   92.946580  5.484213e+01  1.675
21356 1   91.710159  5.554046e+01  1.675
21357 1   91.696720  5.696040e+01  1.675
21358 1   92.919701  5.768201e+01  1.675
21359 1   90.487178  5.481886e+01  1.675
21360 1   89.250757  5.551719e+01  1.675
21361 1   89.237318  5.693712e+01  1.675
21362 1   90.460299  5.765873e+01  1.675
21363 1   88.027776  5.479558e+01  1.675
21364 1   86.791355  5.549391e+01  1.675
21365 1   86.777916  5.691384e+01  1.675
21366 1   88.000897  5.763545e+01  1.675
21367 1   85.568374  5.477230e+01  1.675
21368 1   84.331954  5.547063e+01  1.675
21369 1   84.318514  5.689057e+01  1.675
21370 1   85.541495  5.761217e+01  1.675
21371 1   83.108972  5.474902e+01  1.675
21372 1   81.872552  5.544735e+01  1.675
21373 1   81.859112  5.686729e+01  1.675
21374 1   83.082093  5.758890e+01  1.675
21375 1   80.649570  5.472575e+01  1.675
21376 1   79.413150  5.542407e+01  1.675
21377 1   79.399710  5.684401e+01  1.675
21378 1   80.622691  5.756562e+01  1.675
21379 1   78.190168  5.470247e+01  1.675
21380 1   76.953748  5.540080e+01  1.675
21381 1   76.940308  5.682073e+01  1.675
21382 1   78.163289  5.754234e+01  1.675
21383 1   75.730766  5.467919e+01  1.675
21384 1   74.494346  5.537752e+01  1.675
21385 1   74.480906  5.679746e+01  1.675
21386 1   75.703888  5.751906e+01  1.675
21387 1   73.271364  5.465591e+01  1.675
21388 1   72.034944  5.535424e+01  1.675
21389 1   72.021504  5.677418e+01  1.675
21390 1   73.244486  5.749579e+01  1.675
21391 1   70.811962  5.463263e+01  1.675
21392 1   69.575542  5.533096e+01  1.675
21393 1   69.562102  5.675090e+01  1.675
21394 1   70.785084  5.747251e+01  1.675
21395 1   68.352560  5.460936e+01  1.675
21396 1   67.116140  5.530769e+01  1.675
21397 1   67.102700  5.672762e+01  1.675
21398 1   68.325682  5.744923e+01  1.675
21399 1   65.893158  5.458608e+01  1.675
21400 1   64.656738  5.528441e+01  1.675
21401 1   64.643298  5.670435e+01  1.675
21402 1   65.866280  5.742595e+01  1.675
21403 1   63.433756  5.456280e+01  1.675
21404 1   62.197336  5.526113e+01  1.675
21405 1   62.183896  5.668107e+01  1.675
21406 1   63.406878  5.740267e+01  1.675
21407 1   60.974354  5.453952e+01  1.675
21408 1   59.737934  5.523785e+01  1.675
21409 1   59.724494  5.665779e+01  1.675
21410 1   60.947476  5.737940e+01  1.675
21411 1   58.514952  5.451625e+01  1.675
21412 1   57.278532  5.521458e+01  1.675
21413 1   57.265092  5.663451e+01  1.675
21414 1   58.488074  5.735612e+01  1.675
21415 1   56.055550  5.449297e+01  1.675
21416 1   54.819130  5.519130e+01  1.675
21417 1   54.805690  5.661123e+01  1.675
21418 1   56.028672  5.733284e+01  1.675
21419 1   53.596148  5.446969e+01  1.675
21420 1   52.359728  5.516802e+01  1.675
21421 1   52.346288  5.658796e+01  1.675
21422 1   53.569270  5.730956e+01  1.675
21423 1   51.136746  5.444641e+01  1.675
21424 1   49.900326  5.514474e+01  1.675
21425 1   49.886886  5.656468e+01  1.675
21426 1   51.109868  5.728629e+01  1.675
21427 1   48.677344  5.442314e+01  1.675
21428 1   47.440924  5.512147e+01  1.675
21429 1   47.427484  5.654140e+01  1.675
21430 1   48.650466  5.726301e+01  1.675
21431 1   46.217942  5.439986e+01  1.675
21432 1   44.981522  5.509819e+01  1.675
21433 1   44.968082  5.651812e+01  1.675
21434 1   46.191064  5.723973e+01  1.675
21435 1   43.758540  5.437658e+01  1.675
21436 1   42.522120  5.507491e+01  1.675
21437 1   42.508680  5.649485e+01  1.675
21438 1   43.731662  5.721645e+01  1.675
21439 1   41.299138  5.435330e+01  1.675
21440 1   40.062718  5.505163e+01  1.675
21441 1   40.049278  5.647157e+01  1.675
21442 1   41.272260  5.719318e+01  1.675
21443 1   38.839736  5.433003e+01  1.675
21444 1   37.603316  5.502835e+01  1.675
21445 1   37.589876  5.644829e+01  1.675
21446 1   38.812858  5.716990e+01  1.675
21447 1   36.380334  5.430675e+01  1.675
21448 1   35.143914  5.500508e+01  1.675
21449 1   35.130474  5.642501e+01  1.675
21450 1   36.353456  5.714662e+01  1.675
21451 1   33.920932  5.428347e+01  1.675
21452 1   32.684512  5.498180e+01  1.675
21453 1   32.671072  5.640174e+01  1.675
21454 1   33.894054  5.712334e+01  1.675
21455 1   31.461530  5.426019e+01  1.675
21456 1   30.225110  5.495852e+01  1.675
21457 1   30.211670  5.637846e+01  1.675
21458 1   31.434652  5.710007e+01  1.675
21459 1   29.002128  5.423692e+01  1.675
21460 1   27.765708  5.493524e+01  1.675
21461 1   27.752268  5.635518e+01  1.675
21462 1   28.975250  5.707679e+01  1.675
21463 1   26.542726  5.421364e+01  1.675
21464 1   25.306306  5.491197e+01  1.675
21465 1   25.292866  5.633190e+01  1.675
21466 1   26.515848  5.705351e+01  1.675
21467 1   24.083324  5.419036e+01  1.675
21468 1   22.846904  5.488869e+01  1.675
21469 1   22.833464  5.630863e+01  1.675
21470 1   24.056446  5.703023e+01  1.675
21471 1   21.623922  5.416708e+01  1.675
21472 1   20.387502  5.486541e+01  1.675
21473 1   20.374062  5.628535e+01  1.675
21474 1   21.597044  5.700695e+01  1.675
21475 1   19.164520  5.414380e+01  1.675
21476 1   17.928100  5.484213e+01  1.675
21477 1   17.914660  5.626207e+01  1.675
21478 1   19.137642  5.698368e+01  1.675
21479 1   16.705118  5.412053e+01  1.675
21480 1   15.468698  5.481886e+01  1.675
21481 1   15.455258  5.623879e+01  1.675
21482 1   16.678240  5.696040e+01  1.675
21483 1   14.245716  5.409725e+01  1.675
21484 1   13.009296  5.479558e+01  1.675
21485 1   12.995856  5.621551e+01  1.675
21486 1   14.218838  5.693712e+01  1.675
21487 1   11.786314  5.407397e+01  1.675
21488 1   10.549894  5.477230e+01  1.675
21489 1   10.536454  5.619224e+01  1.675
21490 1   11.759436  5.691384e+01  1.675
21491 1    9.326912  5.405069e+01  1.675
21492 1    8.090492  5.474902e+01  1.675
21493 1    8.077052  5.616896e+01  1.675
21494 1    9.300034  5.689057e+01  1.675
21495 1    6.867510  5.402742e+01  1.675
21496 1    5.631090  5.472575e+01  1.675
21497 1    5.617650  5.614568e+01  1.675
21498 1    6.840632  5.686729e+01  1.675
21499 1    4.408108  5.400414e+01  1.675
21500 1    3.171688  5.470247e+01  1.675
21501 1    3.158248  5.612240e+01  1.675
21502 1    4.381230  5.684401e+01  1.675
21503 1    1.948706  5.398086e+01  1.675
21504 1    0.712286  5.467919e+01  1.675
21505 1    0.698846  5.609913e+01  1.675
21506 1    1.921828  5.682073e+01  1.675
21507 1   -0.510695  5.395758e+01  1.675
21508 1   -1.747116  5.465591e+01  1.675
21509 1   -1.760556  5.607585e+01  1.675
21510 1   -0.537574  5.679746e+01  1.675
21511 1   -2.970097  5.393431e+01  1.675
21512 1   -4.206518  5.463263e+01  1.675
21513 1   -4.219958  5.605257e+01  1.675
21514 1   -2.996976  5.677418e+01  1.675
21515 1   -5.429499  5.391103e+01  1.675
21516 1   -6.665920  5.460936e+01  1.675
21517 1   -6.679360  5.602929e+01  1.675
21518 1   -5.456378  5.675090e+01  1.675
21519 1   -7.888901  5.388775e+01  1.675
21520 1   -9.125322  5.458608e+01  1.675
21521 1   -9.138761  5.600602e+01  1.675
21522 1   -7.915780  5.672762e+01  1.675
21523 1  -10.348303  5.386447e+01  1.675
21524 1  -11.584724  5.456280e+01  1.675
21525 1  -11.598163  5.598274e+01  1.675
21526 1  -10.375182  5.670435e+01  1.675
21527 1  -12.807705  5.384120e+01  1.675
21528 1  -14.044126  5.453952e+01  1.675
21529 1  -14.057565  5.595946e+01  1.675
21530 1  -12.834584  5.668107e+01  1.675
21531 1  -15.267107  5.381792e+01  1.675
21532 1  -16.503528  5.451625e+01  1.675
21533 1  -16.516967  5.593618e+01  1.675
21534 1  -15.293986  5.665779e+01  1.675
21535 1  -17.726509  5.379464e+01  1.675
21536 1  -18.962930  5.449297e+01  1.675
21537 1  -18.976369  5.591291e+01  1.675
21538 1  -17.753388  5.663451e+01  1.675
21539 1  -20.185911  5.377136e+01  1.675
21540 1  -21.422332  5.446969e+01  1.675
21541 1  -21.435771  5.588963e+01  1.675
21542 1  -20.212790  5.661123e+01  1.675
21543 1  -22.645313  5.374808e+01  1.675
21544 1  -23.881734  5.444641e+01  1.675
21545 1  -23.895173  5.586635e+01  1.675
21546 1  -22.672192  5.658796e+01  1.675
21547 1  -25.104715  5.372481e+01  1.675
21548 1  -26.341136  5.442314e+01  1.675
21549 1  -26.354575  5.584307e+01  1.675
21550 1  -25.131594  5.656468e+01  1.675
21551 1  -27.564117  5.370153e+01  1.675
21552 1  -28.800538  5.439986e+01  1.675
21553 1  -28.813977  5.581979e+01  1.675
21554 1  -27.590996  5.654140e+01  1.675
21555 1  -30.023519  5.367825e+01  1.675
21556 1  -31.259940  5.437658e+01  1.675
21557 1  -31.273379  5.579652e+01  1.675
21558 1  -30.050398  5.651812e+01  1.675
21559 1  -32.482921  5.365497e+01  1.675
21560 1  -33.719342  5.435330e+01  1.675
21561 1  -33.732781  5.577324e+01  1.675
21562 1  -32.509800  5.649485e+01  1.675
21563 1  -34.942323  5.363170e+01  1.675
21564 1  -36.178744  5.433003e+01  1.675
21565 1  -36.192183  5.574996e+01  1.675
21566 1  -34.969202  5.647157e+01  1.675
21567 1  -37.401725  5.360842e+01  1.675
21568 1  -38.638146  5.430675e+01  1.675
21569 1  -38.651585  5.572668e+01  1.675
21570 1  -37.428604  5.644829e+01  1.675
21571 1  -39.861127  5.358514e+01  1.675
21572 1  -41.097548  5.428347e+01  1.675
21573 1  -41.110987  5.570341e+01  1.675
21574 1  -39.888006  5.642501e+01  1.675
21575 1  -42.320529  5.356186e+01  1.675
21576 1  -43.556950  5.426019e+01  1.675
21577 1  -43.570389  5.568013e+01  1.675
21578 1  -42.347408  5.640174e+01  1.675
21579 1  -44.779931  5.353859e+01  1.675
21580 1  -46.016352  5.423692e+01  1.675
21581 1  -46.029791  5.565685e+01  1.675
21582 1  -44.806810  5.637846e+01  1.675
21583 1  -47.239333  5.351531e+01  1.675
21584 1  -48.475754  5.421364e+01  1.675
21585 1  -48.489193  5.563357e+01  1.675
21586 1  -47.266212  5.635518e+01  1.675
21587 1  -49.698735  5.349203e+01  1.675
21588 1  -50.935156  5.419036e+01  1.675
21589 1  -50.948595  5.561030e+01  1.675
21590 1  -49.725614  5.633190e+01  1.675
21591 1  -52.158137  5.346875e+01  1.675
21592 1  -53.394558  5.416708e+01  1.675
21593 1  -53.407997  5.558702e+01  1.675
21594 1  -52.185016  5.630863e+01  1.675
21595 1  -54.617539  5.344548e+01  1.675
21596 1  -55.853960  5.414380e+01  1.675
21597 1  -55.867399  5.556374e+01  1.675
21598 1  -54.644418  5.628535e+01  1.675
21599 1  -57.076941  5.342220e+01  1.675
21600 1  -58.313362  5.412053e+01  1.675
21601 1  -58.326801  5.554046e+01  1.675
21602 1  -57.103820  5.626207e+01  1.675
21603 1  -59.536343  5.339892e+01  1.675
21604 1  -60.772764  5.409725e+01  1.675
21605 1  -60.786203  5.551719e+01  1.675
21606 1  -59.563222  5.623879e+01  1.675
21607 1  -61.995745  5.337564e+01  1.675
21608 1  -63.232166  5.407397e+01  1.675
21609 1  -63.245605  5.549391e+01  1.675
21610 1  -62.022624  5.621551e+01  1.675
21611 1  -64.455147  5.335236e+01  1.675
21612 1  -65.691568  5.405069e+01  1.675
21613 1  -65.705007  5.547063e+01  1.675
21614 1  -64.482026  5.619224e+01  1.675
21615 1  -66.914549  5.332909e+01  1.675
21616 1  -68.150970  5.402742e+01  1.675
21617 1  -68.164409  5.544735e+01  1.675
21618 1  -66.941428  5.616896e+01  1.675
21619 1  -69.373951  5.330581e+01  1.675
21620 1  -70.610372  5.400414e+01  1.675
21621 1  -70.623811  5.542407e+01  1.675
21622 1  -69.400830  5.614568e+01  1.675
21623 1  -71.833353  5.328253e+01  1.675
21624 1  -73.069774  5.398086e+01  1.675
21625 1  -73.083213  5.540080e+01  1.675
21626 1  -71.860232  5.612240e+01  1.675
21627 1  -74.292755  5.325925e+01  1.675
21628 1  -75.529176  5.395758e+01  1.675
21629 1  -75.542615  5.537752e+01  1.675
21630 1  -74.319634  5.609913e+01  1.675
21631 1  -76.752157  5.323598e+01  1.675
21632 1  -77.988578  5.393431e+01  1.675
21633 1  -78.002017  5.535424e+01  1.675
21634 1  -76.779036  5.607585e+01  1.675
21635 1  -79.211559  5.321270e+01  1.675
21636 1  -80.447980  5.391103e+01  1.675
21637 1  -80.461419  5.533096e+01  1.675
21638 1  -79.238438  5.605257e+01  1.675
21639 1  -81.670961  5.318942e+01  1.675
21640 1  -82.907382  5.388775e+01  1.675
21641 1  -82.920821  5.530769e+01  1.675
21642 1  -81.697840  5.602929e+01  1.675
21643 1  -84.130363  5.316614e+01  1.675
21644 1  -85.366784  5.386447e+01  1.675
21645 1  -85.380223  5.528441e+01  1.675
21646 1  -84.157242  5.600602e+01  1.675
21647 1  -86.589765  5.314287e+01  1.675
21648 1  -87.826186  5.384120e+01  1.675
21649 1  -87.839625  5.526113e+01  1.675
21650 1  -86.616644  5.598274e+01  1.675
21651 1  -89.049167  5.311959e+01  1.675
21652 1  -90.285588  5.381792e+01  1.675
21653 1  -90.299027  5.523785e+01  1.675
21654 1  -89.076046  5.595946e+01  1.675
21655 1  -91.508569  5.309631e+01  1.675
21656 1  -92.744990  5.379464e+01  1.675
21657 1  -92.758429  5.521458e+01  1.675
21658 1  -91.535448  5.593618e+01  1.675
21659 1  -93.967971  5.307303e+01  1.675
21660 1  -95.204392  5.377136e+01  1.675
21661 1  -95.217831  5.519130e+01  1.675
21662 1  -93.994850  5.591291e+01  1.675
21663 1  -96.427373  5.304976e+01  1.675
21664 1  -97.663794  5.374808e+01  1.675
21665 1  -97.677233  5.516802e+01  1.675
21666 1  -96.454252  5.588963e+01  1.675
21667 1  -98.886775  5.302648e+01  1.675
21668 1 -100.123196  5.372481e+01  1.675
21669 1 -100.136635  5.514474e+01  1.675
21670 1  -98.913654  5.586635e+01  1.675
21671 1 -101.346177  5.300320e+01  1.675
21672 1 -102.582598  5.370153e+01  1.675
21673 1 -102.596037  5.512147e+01  1.675
21674 1 -101.373056  5.584307e+01  1.675
21675 1 -103.805579  5.297992e+01  1.675
21676 1 -105.042000  5.367825e+01  1.675
21677 1 -105.055439  5.509819e+01  1.675
21678 1 -103.832458  5.581979e+01  1.675
21679 1 -106.264981  5.295664e+01  1.675
21680 1 -107.501402  5.365497e+01  1.675
21681 1 -107.514841  5.507491e+01  1.675
21682 1 -106.291860  5.579652e+01  1.675
21683 1 -108.724383  5.293337e+01  1.675
21684 1 -109.960804  5.363170e+01  1.675
21685 1 -109.974243  5.505163e+01  1.675
21686 1 -108.751262  5.577324e+01  1.675
21687 1 -111.183785  5.291009e+01  1.675
21688 1 -112.420206  5.360842e+01  1.675
21689 1 -112.433645  5.502835e+01  1.675
21690 1 -111.210664  5.574996e+01  1.675
21691 1  111.345057  5.998649e+01  1.675
21692 1  111.331618  6.140643e+01  1.675
21693 1  110.122076  5.926489e+01  1.675
21694 1  108.885655  5.996322e+01  1.675
21695 1  108.872216  6.138315e+01  1.675
21696 1  110.095197  6.210476e+01  1.675
21697 1  107.662674  5.924161e+01  1.675
21698 1  106.426253  5.993994e+01  1.675
21699 1  106.412814  6.135987e+01  1.675
21700 1  107.635795  6.208148e+01  1.675
21701 1  105.203272  5.921833e+01  1.675
21702 1  103.966851  5.991666e+01  1.675
21703 1  103.953412  6.133660e+01  1.675
21704 1  105.176393  6.205820e+01  1.675
21705 1  102.743870  5.919505e+01  1.675
21706 1  101.507449  5.989338e+01  1.675
21707 1  101.494010  6.131332e+01  1.675
21708 1  102.716991  6.203493e+01  1.675
21709 1  100.284468  5.917178e+01  1.675
21710 1   99.048047  5.987011e+01  1.675
21711 1   99.034608  6.129004e+01  1.675
21712 1  100.257589  6.201165e+01  1.675
21713 1   97.825066  5.914850e+01  1.675
21714 1   96.588645  5.984683e+01  1.675
21715 1   96.575206  6.126676e+01  1.675
21716 1   97.798187  6.198837e+01  1.675
21717 1   95.365664  5.912522e+01  1.675
21718 1   94.129243  5.982355e+01  1.675
21719 1   94.115804  6.124349e+01  1.675
21720 1   95.338785  6.196509e+01  1.675
21721 1   92.906262  5.910194e+01  1.675
21722 1   91.669841  5.980027e+01  1.675
21723 1   91.656402  6.122021e+01  1.675
21724 1   92.879383  6.194182e+01  1.675
21725 1   90.446860  5.907867e+01  1.675
21726 1   89.210439  5.977699e+01  1.675
21727 1   89.197000  6.119693e+01  1.675
21728 1   90.419981  6.191854e+01  1.675
21729 1   87.987458  5.905539e+01  1.675
21730 1   86.751037  5.975372e+01  1.675
21731 1   86.737598  6.117365e+01  1.675
21732 1   87.960579  6.189526e+01  1.675
21733 1   85.528056  5.903211e+01  1.675
21734 1   84.291635  5.973044e+01  1.675
21735 1   84.278196  6.115038e+01  1.675
21736 1   85.501177  6.187198e+01  1.675
21737 1   83.068654  5.900883e+01  1.675
21738 1   81.832233  5.970716e+01  1.675
21739 1   81.818794  6.112710e+01  1.675
21740 1   83.041775  6.184871e+01  1.675
21741 1   80.609252  5.898555e+01  1.675
21742 1   79.372831  5.968388e+01  1.675
21743 1   79.359392  6.110382e+01  1.675
21744 1   80.582373  6.182543e+01  1.675
21745 1   78.149850  5.896228e+01  1.675
21746 1   76.913429  5.966061e+01  1.675
21747 1   76.899990  6.108054e+01  1.675
21748 1   78.122971  6.180215e+01  1.675
21749 1   75.690448  5.893900e+01  1.675
21750 1   74.454027  5.963733e+01  1.675
21751 1   74.440588  6.105727e+01  1.675
21752 1   75.663569  6.177887e+01  1.675
21753 1   73.231046  5.891572e+01  1.675
21754 1   71.994625  5.961405e+01  1.675
21755 1   71.981186  6.103399e+01  1.675
21756 1   73.204167  6.175559e+01  1.675
21757 1   70.771644  5.889244e+01  1.675
21758 1   69.535223  5.959077e+01  1.675
21759 1   69.521784  6.101071e+01  1.675
21760 1   70.744765  6.173232e+01  1.675
21761 1   68.312242  5.886917e+01  1.675
21762 1   67.075822  5.956750e+01  1.675
21763 1   67.062382  6.098743e+01  1.675
21764 1   68.285363  6.170904e+01  1.675
21765 1   65.852840  5.884589e+01  1.675
21766 1   64.616420  5.954422e+01  1.675
21767 1   64.602980  6.096415e+01  1.675
21768 1   65.825961  6.168576e+01  1.675
21769 1   63.393438  5.882261e+01  1.675
21770 1   62.157018  5.952094e+01  1.675
21771 1   62.143578  6.094088e+01  1.675
21772 1   63.366559  6.166248e+01  1.675
21773 1   60.934036  5.879933e+01  1.675
21774 1   59.697616  5.949766e+01  1.675
21775 1   59.684176  6.091760e+01  1.675
21776 1   60.907157  6.163921e+01  1.675
21777 1   58.474634  5.877606e+01  1.675
21778 1   57.238214  5.947439e+01  1.675
21779 1   57.224774  6.089432e+01  1.675
21780 1   58.447756  6.161593e+01  1.675
21781 1   56.015232  5.875278e+01  1.675
21782 1   54.778812  5.945111e+01  1.675
21783 1   54.765372  6.087104e+01  1.675
21784 1   55.988354  6.159265e+01  1.675
21785 1   53.555830  5.872950e+01  1.675
21786 1   52.319410  5.942783e+01  1.675
21787 1   52.305970  6.084777e+01  1.675
21788 1   53.528952  6.156937e+01  1.675
21789 1   51.096428  5.870622e+01  1.675
21790 1   49.860008  5.940455e+01  1.675
21791 1   49.846568  6.082449e+01  1.675
21792 1   51.069550  6.154610e+01  1.675
21793 1   48.637026  5.868295e+01  1.675
21794 1   47.400606  5.938127e+01  1.675
21795 1   47.387166  6.080121e+01  1.675
21796 1   48.610148  6.152282e+01  1.675
21797 1   46.177624  5.865967e+01  1.675
21798 1   44.941204  5.935800e+01  1.675
21799 1   44.927764  6.077793e+01  1.675
21800 1   46.150746  6.149954e+01  1.675
21801 1   43.718222  5.863639e+01  1.675
21802 1   42.481802  5.933472e+01  1.675
21803 1   42.468362  6.075466e+01  1.675
21804 1   43.691344  6.147626e+01  1.675
21805 1   41.258820  5.861311e+01  1.675
21806 1   40.022400  5.931144e+01  1.675
21807 1   40.008960  6.073138e+01  1.675
21808 1   41.231942  6.145299e+01  1.675
21809 1   38.799418  5.858983e+01  1.675
21810 1   37.562998  5.928816e+01  1.675
21811 1   37.549558  6.070810e+01  1.675
21812 1   38.772540  6.142971e+01  1.675
21813 1   36.340016  5.856656e+01  1.675
21814 1   35.103596  5.926489e+01  1.675
21815 1   35.090156  6.068482e+01  1.675
21816 1   36.313138  6.140643e+01  1.675
21817 1   33.880614  5.854328e+01  1.675
21818 1   32.644194  5.924161e+01  1.675
21819 1   32.630754  6.066155e+01  1.675
21820 1   33.853736  6.138315e+01  1.675
21821 1   31.421212  5.852000e+01  1.675
21822 1   30.184792  5.921833e+01  1.675
21823 1   30.171352  6.063827e+01  1.675
21824 1   31.394334  6.135987e+01  1.675
21825 1   28.961810  5.849672e+01  1.675
21826 1   27.725390  5.919505e+01  1.675
21827 1   27.711950  6.061499e+01  1.675
21828 1   28.934932  6.133660e+01  1.675
21829 1   26.502408  5.847345e+01  1.675
21830 1   25.265988  5.917178e+01  1.675
21831 1   25.252548  6.059171e+01  1.675
21832 1   26.475530  6.131332e+01  1.675
21833 1   24.043006  5.845017e+01  1.675
21834 1   22.806586  5.914850e+01  1.675
21835 1   22.793146  6.056843e+01  1.675
21836 1   24.016128  6.129004e+01  1.675
21837 1   21.583604  5.842689e+01  1.675
21838 1   20.347184  5.912522e+01  1.675
21839 1   20.333744  6.054516e+01  1.675
21840 1   21.556726  6.126676e+01  1.675
21841 1   19.124202  5.840361e+01  1.675
21842 1   17.887782  5.910194e+01  1.675
21843 1   17.874342  6.052188e+01  1.675
21844 1   19.097324  6.124349e+01  1.675
21845 1   16.664800  5.838034e+01  1.675
21846 1   15.428380  5.907867e+01  1.675
21847 1   15.414940  6.049860e+01  1.675
21848 1   16.637922  6.122021e+01  1.675
21849 1   14.205398  5.835706e+01  1.675
21850 1   12.968978  5.905539e+01  1.675
21851 1   12.955538  6.047532e+01  1.675
21852 1   14.178520  6.119693e+01  1.675
21853 1   11.745996  5.833378e+01  1.675
21854 1   10.509576  5.903211e+01  1.675
21855 1   10.496136  6.045205e+01  1.675
21856 1   11.719118  6.117365e+01  1.675
21857 1    9.286594  5.831050e+01  1.675
21858 1    8.050174  5.900883e+01  1.675
21859 1    8.036734  6.042877e+01  1.675
21860 1    9.259716  6.115038e+01  1.675
21861 1    6.827192  5.828723e+01  1.675
21862 1    5.590772  5.898555e+01  1.675
21863 1    5.577332  6.040549e+01  1.675
21864 1    6.800314  6.112710e+01  1.675
21865 1    4.367790  5.826395e+01  1.675
21866 1    3.131370  5.896228e+01  1.675
21867 1    3.117930  6.038221e+01  1.675
21868 1    4.340912  6.110382e+01  1.675
21869 1    1.908388  5.824067e+01  1.675
21870 1    0.671968  5.893900e+01  1.675
21871 1    0.658528  6.035894e+01  1.675
21872 1    1.881510  6.108054e+01  1.675
21873 1   -0.551014  5.821739e+01  1.675
21874 1   -1.787434  5.891572e+01  1.675
21875 1   -1.800874  6.033566e+01  1.675
21876 1   -0.577892  6.105727e+01  1.675
21877 1   -3.010416  5.819411e+01  1.675
21878 1   -4.246836  5.889244e+01  1.675
21879 1   -4.260276  6.031238e+01  1.675
21880 1   -3.037294  6.103399e+01  1.675
21881 1   -5.469818  5.817084e+01  1.675
21882 1   -6.706238  5.886917e+01  1.675
21883 1   -6.719678  6.028910e+01  1.675
21884 1   -5.496696  6.101071e+01  1.675
21885 1   -7.929220  5.814756e+01  1.675
21886 1   -9.165640  5.884589e+01  1.675
21887 1   -9.179080  6.026583e+01  1.675
21888 1   -7.956098  6.098743e+01  1.675
21889 1  -10.388622  5.812428e+01  1.675
21890 1  -11.625042  5.882261e+01  1.675
21891 1  -11.638482  6.024255e+01  1.675
21892 1  -10.415500  6.096415e+01  1.675
21893 1  -12.848024  5.810100e+01  1.675
21894 1  -14.084444  5.879933e+01  1.675
21895 1  -14.097884  6.021927e+01  1.675
21896 1  -12.874902  6.094088e+01  1.675
21897 1  -15.307426  5.807773e+01  1.675
21898 1  -16.543846  5.877606e+01  1.675
21899 1  -16.557286  6.019599e+01  1.675
21900 1  -15.334304  6.091760e+01  1.675
21901 1  -17.766827  5.805445e+01  1.675
21902 1  -19.003248  5.875278e+01  1.675
21903 1  -19.016688  6.017271e+01  1.675
21904 1  -17.793706  6.089432e+01  1.675
21905 1  -20.226229  5.803117e+01  1.675
21906 1  -21.462650  5.872950e+01  1.675
21907 1  -21.476090  6.014944e+01  1.675
21908 1  -20.253108  6.087104e+01  1.675
21909 1  -22.685631  5.800789e+01  1.675
21910 1  -23.922052  5.870622e+01  1.675
21911 1  -23.935492  6.012616e+01  1.675
21912 1  -22.712510  6.084777e+01  1.675
21913 1  -25.145033  5.798462e+01  1.675
21914 1  -26.381454  5.868295e+01  1.675
21915 1  -26.394893  6.010288e+01  1.675
21916 1  -25.171912  6.082449e+01  1.675
21917 1  -27.604435  5.796134e+01  1.675
21918 1  -28.840856  5.865967e+01  1.675
21919 1  -28.854295  6.007960e+01  1.675
21920 1  -27.631314  6.080121e+01  1.675
21921 1  -30.063837  5.793806e+01  1.675
21922 1  -31.300258  5.863639e+01  1.675
21923 1  -31.313697  6.005633e+01  1.675
21924 1  -30.090716  6.077793e+01  1.675
21925 1  -32.523239  5.791478e+01  1.675
21926 1  -33.759660  5.861311e+01  1.675
21927 1  -33.773099  6.003305e+01  1.675
21928 1  -32.550118  6.075466e+01  1.675
21929 1  -34.982641  5.789151e+01  1.675
21930 1  -36.219062  5.858983e+01  1.675
21931 1  -36.232501  6.000977e+01  1.675
21932 1  -35.009520  6.073138e+01  1.675
21933 1  -37.442043  5.786823e+01  1.675
21934 1  -38.678464  5.856656e+01  1.675
21935 1  -38.691903  5.998649e+01  1.675
21936 1  -37.468922  6.070810e+01  1.675
21937 1  -39.901445  5.784495e+01  1.675
21938 1  -41.137866  5.854328e+01  1.675
21939 1  -41.151305  5.996322e+01  1.675
21940 1  -39.928324  6.068482e+01  1.675
21941 1  -42.360847  5.782167e+01  1.675
21942 1  -43.597268  5.852000e+01  1.675
21943 1  -43.610707  5.993994e+01  1.675
21944 1  -42.387726  6.066155e+01  1.675
21945 1  -44.820249  5.779839e+01  1.675
21946 1  -46.056670  5.849672e+01  1.675
21947 1  -46.070109  5.991666e+01  1.675
21948 1  -44.847128  6.063827e+01  1.675
21949 1  -47.279651  5.777512e+01  1.675
21950 1  -48.516072  5.847345e+01  1.675
21951 1  -48.529511  5.989338e+01  1.675
21952 1  -47.306530  6.061499e+01  1.675
21953 1  -49.739053  5.775184e+01  1.675
21954 1  -50.975474  5.845017e+01  1.675
21955 1  -50.988913  5.987011e+01  1.675
21956 1  -49.765932  6.059171e+01  1.675
21957 1  -52.198455  5.772856e+01  1.675
21958 1  -53.434876  5.842689e+01  1.675
21959 1  -53.448315  5.984683e+01  1.675
21960 1  -52.225334  6.056843e+01  1.675
21961 1  -54.657857  5.770528e+01  1.675
21962 1  -55.894278  5.840361e+01  1.675
21963 1  -55.907717  5.982355e+01  1.675
21964 1  -54.684736  6.054516e+01  1.675
21965 1  -57.117259  5.768201e+01  1.675
21966 1  -58.353680  5.838034e+01  1.675
21967 1  -58.367119  5.980027e+01  1.675
21968 1  -57.144138  6.052188e+01  1.675
21969 1  -59.576661  5.765873e+01  1.675
21970 1  -60.813082  5.835706e+01  1.675
21971 1  -60.826521  5.977699e+01  1.675
21972 1  -59.603540  6.049860e+01  1.675
21973 1  -62.036063  5.763545e+01  1.675
21974 1  -63.272484  5.833378e+01  1.675
21975 1  -63.285923  5.975372e+01  1.675
21976 1  -62.062942  6.047532e+01  1.675
21977 1  -64.495465  5.761217e+01  1.675
21978 1  -65.731886  5.831050e+01  1.675
21979 1  -65.745325  5.973044e+01  1.675
21980 1  -64.522344  6.045205e+01  1.675
21981 1  -66.954867  5.758890e+01  1.675
21982 1  -68.191288  5.828723e+01  1.675
21983 1  -68.204727  5.970716e+01  1.675
21984 1  -66.981746  6.042877e+01  1.675
21985 1  -69.414269  5.756562e+01  1.675
21986 1  -70.650690  5.826395e+01  1.675
21987 1  -70.664129  5.968388e+01  1.675
21988 1  -69.441148  6.040549e+01  1.675
21989 1  -71.873671  5.754234e+01  1.675
21990 1  -73.110092  5.824067e+01  1.675
21991 1  -73.123531  5.966061e+01  1.675
21992 1  -71.900550  6.038221e+01  1.675
21993 1  -74.333073  5.751906e+01  1.675
21994 1  -75.569494  5.821739e+01  1.675
21995 1  -75.582933  5.963733e+01  1.675
21996 1  -74.359952  6.035894e+01  1.675
21997 1  -76.792475  5.749579e+01  1.675
21998 1  -78.028896  5.819411e+01  1.675
21999 1  -78.042335  5.961405e+01  1.675
22000 1  -76.819354  6.033566e+01  1.675
22001 1  -79.251877  5.747251e+01  1.675
22002 1  -80.488298  5.817084e+01  1.675
22003 1  -80.501737  5.959077e+01  1.675
22004 1  -79.278756  6.031238e+01  1.675
22005 1  -81.711279  5.744923e+01  1.675
22006 1  -82.947700  5.814756e+01  1.675
22007 1  -82.961139  5.956750e+01  1.675
22008 1  -81.738158  6.028910e+01  1.675
22009 1  -84.170681  5.742595e+01  1.675
22010 1  -85.407102  5.812428e+01  1.675
22011 1  -85.420541  5.954422e+01  1.675
22012 1  -84.197560  6.026583e+01  1.675
22013 1  -86.630083  5.740267e+01  1.675
22014 1  -87.866504  5.810100e+01  1.675
22015 1  -87.879943  5.952094e+01  1.675
22016 1  -86.656962  6.024255e+01  1.675
22017 1  -89.089485  5.737940e+01  1.675
22018 1  -90.325906  5.807773e+01  1.675
22019 1  -90.339345  5.949766e+01  1.675
22020 1  -89.116364  6.021927e+01  1.675
22021 1  -91.548887  5.735612e+01  1.675
22022 1  -92.785308  5.805445e+01  1.675
22023 1  -92.798747  5.947439e+01  1.675
22024 1  -91.575766  6.019599e+01  1.675
22025 1  -94.008289  5.733284e+01  1.675
22026 1  -95.244710  5.803117e+01  1.675
22027 1  -95.258149  5.945111e+01  1.675
22028 1  -94.035168  6.017271e+01  1.675
22029 1  -96.467691  5.730956e+01  1.675
22030 1  -97.704112  5.800789e+01  1.675
22031 1  -97.717551  5.942783e+01  1.675
22032 1  -96.494570  6.014944e+01  1.675
22033 1  -98.927093  5.728629e+01  1.675
22034 1 -100.163514  5.798462e+01  1.675
22035 1 -100.176953  5.940455e+01  1.675
22036 1  -98.953972  6.012616e+01  1.675
22037 1 -101.386495  5.726301e+01  1.675
22038 1 -102.622916  5.796134e+01  1.675
22039 1 -102.636355  5.938127e+01  1.675
22040 1 -101.413374  6.010288e+01  1.675
22041 1 -103.845897  5.723973e+01  1.675
22042 1 -105.082318  5.793806e+01  1.675
22043 1 -105.095757  5.935800e+01  1.675
22044 1 -103.872776  6.007960e+01  1.675
22045 1 -106.305299  5.721645e+01  1.675
22046 1 -107.541720  5.791478e+01  1.675
22047 1 -107.555159  5.933472e+01  1.675
22048 1 -106.332178  6.005633e+01  1.675
22049 1 -108.764701  5.719318e+01  1.675
22050 1 -110.001122  5.789151e+01  1.675
22051 1 -110.014561  5.931144e+01  1.675
22052 1 -108.791580  6.003305e+01  1.675
22053 1 -111.224103  5.716990e+01  1.675
22054 1 -112.460524  5.786823e+01  1.675
22055 1 -112.473963  5.928816e+01  1.675
22056 1 -111.250982  6.000977e+01  1.675
22057 1  111.304739  6.424630e+01  1.675
22058 1  110.081758  6.352470e+01  1.675
22059 1  108.845337  6.422303e+01  1.675
22060 1  107.622356  6.350142e+01  1.675
22061 1  106.385935  6.419975e+01  1.675
22062 1  105.162954  6.347814e+01  1.675
22063 1  103.926533  6.417647e+01  1.675
22064 1  102.703552  6.345486e+01  1.675
22065 1  101.467131  6.415319e+01  1.675
22066 1  100.244150  6.343159e+01  1.675
22067 1   99.007729  6.412991e+01  1.675
22068 1   97.784748  6.340831e+01  1.675
22069 1   96.548327  6.410664e+01  1.675
22070 1   95.325346  6.338503e+01  1.675
22071 1   94.088925  6.408336e+01  1.675
22072 1   92.865944  6.336175e+01  1.675
22073 1   91.629523  6.406008e+01  1.675
22074 1   90.406542  6.333847e+01  1.675
22075 1   89.170121  6.403680e+01  1.675
22076 1   87.947140  6.331520e+01  1.675
22077 1   86.710719  6.401353e+01  1.675
22078 1   85.487738  6.329192e+01  1.675
22079 1   84.251317  6.399025e+01  1.675
22080 1   83.028336  6.326864e+01  1.675
22081 1   81.791915  6.396697e+01  1.675
22082 1   80.568934  6.324536e+01  1.675
22083 1   79.332513  6.394369e+01  1.675
22084 1   78.109532  6.322209e+01  1.675
22085 1   76.873111  6.392042e+01  1.675
22086 1   75.650130  6.319881e+01  1.675
22087 1   74.413709  6.389714e+01  1.675
22088 1   73.190728  6.317553e+01  1.675
22089 1   71.954307  6.387386e+01  1.675
22090 1   70.731326  6.315225e+01  1.675
22091 1   69.494905  6.385058e+01  1.675
22092 1   68.271924  6.312898e+01  1.675
22093 1   67.035503  6.382731e+01  1.675
22094 1   65.812522  6.310570e+01  1.675
22095 1   64.576101  6.380403e+01  1.675
22096 1   63.353120  6.308242e+01  1.675
22097 1   62.116699  6.378075e+01  1.675
22098 1   60.893718  6.305914e+01  1.675
22099 1   59.657297  6.375747e+01  1.675
22100 1   58.434316  6.303587e+01  1.675
22101 1   57.197895  6.373419e+01  1.675
22102 1   55.974914  6.301259e+01  1.675
22103 1   54.738493  6.371092e+01  1.675
22104 1   53.515512  6.298931e+01  1.675
22105 1   52.279091  6.368764e+01  1.675
22106 1   51.056110  6.296603e+01  1.675
22107 1   49.819690  6.366436e+01  1.675
22108 1   48.596708  6.294275e+01  1.675
22109 1   47.360288  6.364108e+01  1.675
22110 1   46.137306  6.291948e+01  1.675
22111 1   44.900886  6.361781e+01  1.675
22112 1   43.677904  6.289620e+01  1.675
22113 1   42.441484  6.359453e+01  1.675
22114 1   41.218502  6.287292e+01  1.675
22115 1   39.982082  6.357125e+01  1.675
22116 1   38.759100  6.284964e+01  1.675
22117 1   37.522680  6.354797e+01  1.675
22118 1   37.509240  6.496791e+01  1.675
22119 1   36.299698  6.282637e+01  1.675
22120 1   35.063278  6.352470e+01  1.675
22121 1   35.049838  6.494463e+01  1.675
22122 1   33.840296  6.280309e+01  1.675
22123 1   32.603876  6.350142e+01  1.675
22124 1   32.590436  6.492135e+01  1.675
22125 1   31.380894  6.277981e+01  1.675
22126 1   30.144474  6.347814e+01  1.675
22127 1   30.131034  6.489808e+01  1.675
22128 1   28.921492  6.275653e+01  1.675
22129 1   27.685072  6.345486e+01  1.675
22130 1   27.671632  6.487480e+01  1.675
22131 1   26.462090  6.273326e+01  1.675
22132 1   25.225670  6.343159e+01  1.675
22133 1   25.212230  6.485152e+01  1.675
22134 1   24.002688  6.270998e+01  1.675
22135 1   22.766268  6.340831e+01  1.675
22136 1   22.752828  6.482824e+01  1.675
22137 1   21.543286  6.268670e+01  1.675
22138 1   20.306866  6.338503e+01  1.675
22139 1   20.293426  6.480497e+01  1.675
22140 1   19.083884  6.266342e+01  1.675
22141 1   17.847464  6.336175e+01  1.675
22142 1   17.834024  6.478169e+01  1.675
22143 1   16.624482  6.264015e+01  1.675
22144 1   15.388062  6.333847e+01  1.675
22145 1   15.374622  6.475841e+01  1.675
22146 1   14.165080  6.261687e+01  1.675
22147 1   12.928660  6.331520e+01  1.675
22148 1   12.915220  6.473513e+01  1.675
22149 1   11.705678  6.259359e+01  1.675
22150 1   10.469258  6.329192e+01  1.675
22151 1   10.455818  6.471186e+01  1.675
22152 1    9.246276  6.257031e+01  1.675
22153 1    8.009856  6.326864e+01  1.675
22154 1    7.996416  6.468858e+01  1.675
22155 1    6.786874  6.254703e+01  1.675
22156 1    5.550454  6.324536e+01  1.675
22157 1    5.537014  6.466530e+01  1.675
22158 1    4.327472  6.252376e+01  1.675
22159 1    3.091052  6.322209e+01  1.675
22160 1    3.077612  6.464202e+01  1.675
22161 1    1.868070  6.250048e+01  1.675
22162 1    0.631650  6.319881e+01  1.675
22163 1    0.618210  6.461875e+01  1.675
22164 1   -0.591332  6.247720e+01  1.675
22165 1   -1.827752  6.317553e+01  1.675
22166 1   -1.841192  6.459547e+01  1.675
22167 1   -3.050734  6.245392e+01  1.675
22168 1   -4.287154  6.315225e+01  1.675
22169 1   -4.300594  6.457219e+01  1.675
22170 1   -5.510136  6.243065e+01  1.675
22171 1   -6.746556  6.312898e+01  1.675
22172 1   -6.759996  6.454891e+01  1.675
22173 1   -7.969538  6.240737e+01  1.675
22174 1   -9.205958  6.310570e+01  1.675
22175 1   -9.219398  6.452563e+01  1.675
22176 1  -10.428940  6.238409e+01  1.675
22177 1  -11.665360  6.308242e+01  1.675
22178 1  -11.678800  6.450236e+01  1.675
22179 1  -12.888342  6.236081e+01  1.675
22180 1  -14.124762  6.305914e+01  1.675
22181 1  -14.138202  6.447908e+01  1.675
22182 1  -15.347744  6.233754e+01  1.675
22183 1  -16.584164  6.303587e+01  1.675
22184 1  -16.597604  6.445580e+01  1.675
22185 1  -17.807146  6.231426e+01  1.675
22186 1  -19.043566  6.301259e+01  1.675
22187 1  -19.057006  6.443252e+01  1.675
22188 1  -20.266548  6.229098e+01  1.675
22189 1  -21.502968  6.298931e+01  1.675
22190 1  -21.516408  6.440925e+01  1.675
22191 1  -22.725950  6.226770e+01  1.675
22192 1  -23.962370  6.296603e+01  1.675
22193 1  -23.975810  6.438597e+01  1.675
22194 1  -25.185352  6.224443e+01  1.675
22195 1  -26.421772  6.294275e+01  1.675
22196 1  -26.435212  6.436269e+01  1.675
22197 1  -27.644754  6.222115e+01  1.675
22198 1  -28.881174  6.291948e+01  1.675
22199 1  -28.894614  6.433941e+01  1.675
22200 1  -30.104156  6.219787e+01  1.675
22201 1  -31.340576  6.289620e+01  1.675
22202 1  -31.354016  6.431614e+01  1.675
22203 1  -32.563558  6.217459e+01  1.675
22204 1  -33.799978  6.287292e+01  1.675
22205 1  -33.813418  6.429286e+01  1.675
22206 1  -35.022959  6.215131e+01  1.675
22207 1  -36.259380  6.284964e+01  1.675
22208 1  -36.272820  6.426958e+01  1.675
22209 1  -37.482361  6.212804e+01  1.675
22210 1  -38.718782  6.282637e+01  1.675
22211 1  -38.732222  6.424630e+01  1.675
22212 1  -37.509240  6.496791e+01  1.675
22213 1  -39.941763  6.210476e+01  1.675
22214 1  -41.178184  6.280309e+01  1.675
22215 1  -41.191624  6.422303e+01  1.675
22216 1  -39.968642  6.494463e+01  1.675
22217 1  -42.401165  6.208148e+01  1.675
22218 1  -43.637586  6.277981e+01  1.675
22219 1  -43.651025  6.419975e+01  1.675
22220 1  -42.428044  6.492135e+01  1.675
22221 1  -44.860567  6.205820e+01  1.675
22222 1  -46.096988  6.275653e+01  1.675
22223 1  -46.110427  6.417647e+01  1.675
22224 1  -44.887446  6.489808e+01  1.675
22225 1  -47.319969  6.203493e+01  1.675
22226 1  -48.556390  6.273326e+01  1.675
22227 1  -48.569829  6.415319e+01  1.675
22228 1  -47.346848  6.487480e+01  1.675
22229 1  -49.779371  6.201165e+01  1.675
22230 1  -51.015792  6.270998e+01  1.675
22231 1  -51.029231  6.412991e+01  1.675
22232 1  -49.806250  6.485152e+01  1.675
22233 1  -52.238773  6.198837e+01  1.675
22234 1  -53.475194  6.268670e+01  1.675
22235 1  -53.488633  6.410664e+01  1.675
22236 1  -52.265652  6.482824e+01  1.675
22237 1  -54.698175  6.196509e+01  1.675
22238 1  -55.934596  6.266342e+01  1.675
22239 1  -55.948035  6.408336e+01  1.675
22240 1  -54.725054  6.480497e+01  1.675
22241 1  -57.157577  6.194182e+01  1.675
22242 1  -58.393998  6.264015e+01  1.675
22243 1  -58.407437  6.406008e+01  1.675
22244 1  -57.184456  6.478169e+01  1.675
22245 1  -59.616979  6.191854e+01  1.675
22246 1  -60.853400  6.261687e+01  1.675
22247 1  -60.866839  6.403680e+01  1.675
22248 1  -59.643858  6.475841e+01  1.675
22249 1  -62.076381  6.189526e+01  1.675
22250 1  -63.312802  6.259359e+01  1.675
22251 1  -63.326241  6.401353e+01  1.675
22252 1  -62.103260  6.473513e+01  1.675
22253 1  -64.535783  6.187198e+01  1.675
22254 1  -65.772204  6.257031e+01  1.675
22255 1  -65.785643  6.399025e+01  1.675
22256 1  -64.562662  6.471186e+01  1.675
22257 1  -66.995185  6.184871e+01  1.675
22258 1  -68.231606  6.254703e+01  1.675
22259 1  -68.245045  6.396697e+01  1.675
22260 1  -67.022064  6.468858e+01  1.675
22261 1  -69.454587  6.182543e+01  1.675
22262 1  -70.691008  6.252376e+01  1.675
22263 1  -70.704447  6.394369e+01  1.675
22264 1  -69.481466  6.466530e+01  1.675
22265 1  -71.913989  6.180215e+01  1.675
22266 1  -73.150410  6.250048e+01  1.675
22267 1  -73.163849  6.392042e+01  1.675
22268 1  -71.940868  6.464202e+01  1.675
22269 1  -74.373391  6.177887e+01  1.675
22270 1  -75.609812  6.247720e+01  1.675
22271 1  -75.623251  6.389714e+01  1.675
22272 1  -74.400270  6.461875e+01  1.675
22273 1  -76.832793  6.175559e+01  1.675
22274 1  -78.069214  6.245392e+01  1.675
22275 1  -78.082653  6.387386e+01  1.675
22276 1  -76.859672  6.459547e+01  1.675
22277 1  -79.292195  6.173232e+01  1.675
22278 1  -80.528616  6.243065e+01  1.675
22279 1  -80.542055  6.385058e+01  1.675
22280 1  -79.319074  6.457219e+01  1.675
22281 1  -81.751597  6.170904e+01  1.675
22282 1  -82.988018  6.240737e+01  1.675
22283 1  -83.001457  6.382731e+01  1.675
22284 1  -81.778476  6.454891e+01  1.675
22285 1  -84.210999  6.168576e+01  1.675
22286 1  -85.447420  6.238409e+01  1.675
22287 1  -85.460859  6.380403e+01  1.675
22288 1  -84.237878  6.452563e+01  1.675
22289 1  -86.670401  6.166248e+01  1.675
22290 1  -87.906822  6.236081e+01  1.675
22291 1  -87.920261  6.378075e+01  1.675
22292 1  -86.697280  6.450236e+01  1.675
22293 1  -89.129803  6.163921e+01  1.675
22294 1  -90.366224  6.233754e+01  1.675
22295 1  -90.379663  6.375747e+01  1.675
22296 1  -89.156682  6.447908e+01  1.675
22297 1  -91.589205  6.161593e+01  1.675
22298 1  -92.825626  6.231426e+01  1.675
22299 1  -92.839065  6.373419e+01  1.675
22300 1  -91.616084  6.445580e+01  1.675
22301 1  -94.048607  6.159265e+01  1.675
22302 1  -95.285028  6.229098e+01  1.675
22303 1  -95.298467  6.371092e+01  1.675
22304 1  -94.075486  6.443252e+01  1.675
22305 1  -96.508009  6.156937e+01  1.675
22306 1  -97.744430  6.226770e+01  1.675
22307 1  -97.757869  6.368764e+01  1.675
22308 1  -96.534888  6.440925e+01  1.675
22309 1  -98.967411  6.154610e+01  1.675
22310 1 -100.203832  6.224443e+01  1.675
22311 1 -100.217271  6.366436e+01  1.675
22312 1  -98.994290  6.438597e+01  1.675
22313 1 -101.426813  6.152282e+01  1.675
22314 1 -102.663234  6.222115e+01  1.675
22315 1 -102.676673  6.364108e+01  1.675
22316 1 -101.453692  6.436269e+01  1.675
22317 1 -103.886215  6.149954e+01  1.675
22318 1 -105.122636  6.219787e+01  1.675
22319 1 -105.136075  6.361781e+01  1.675
22320 1 -103.913094  6.433941e+01  1.675
22321 1 -106.345617  6.147626e+01  1.675
22322 1 -107.582038  6.217459e+01  1.675
22323 1 -107.595477  6.359453e+01  1.675
22324 1 -106.372496  6.431614e+01  1.675
22325 1 -108.805019  6.145299e+01  1.675
22326 1 -110.041440  6.215131e+01  1.675
22327 1 -110.054879  6.357125e+01  1.675
22328 1 -108.831898  6.429286e+01  1.675
22329 1 -111.264421  6.142971e+01  1.675
22330 1 -112.500842  6.212804e+01  1.675
22331 1 -112.514281  6.354797e+01  1.675
22332 1 -111.291300  6.426958e+01  1.675