# Lorenzo Manunza 7th May 2024

# INITIALIZATION
#---------------
units           metal
dimension           3
processors      * * *
boundary        p p p

# ATOMS
#------
atom_style      atomic
read_data       atoms.dat

# POTENTIAL
#----------
pair_style      airebo 5.0 0 0
pair_coeff * * CH.airebo C       
delete_atoms    overlap 0.2 all all 

# RUN
#----
run     0

# FINAL ATOMS
#------------
write_dump all custom new.atoms id type x y z vx vy vz