# Lorenzo Manunza 14th April 2025

14411 atoms
1 atom types

-90.39544 90.39125 xlo xhi
-52.19224 52.18500 ylo yhi
-10001.67488 9998.32512 zlo zhi

Masses

1 12.011 # C

Atoms

    1 1  89.169949 -51.467804 -1.674884
    2 1  86.710608 -51.438827 -1.674884
    3 1  87.948643 -50.743365 -1.674884
    4 1  84.251266 -51.409849 -1.674884
    5 1  85.489302 -50.714387 -1.674884
    6 1  81.791925 -51.380872 -1.674884
    7 1  83.029961 -50.685410 -1.674884
    8 1  79.332583 -51.351894 -1.674884
    9 1  80.570619 -50.656432 -1.674884
   10 1  76.873242 -51.322916 -1.674884
   11 1  78.111278 -50.627454 -1.674884
   12 1  74.413900 -51.293939 -1.674884
   13 1  75.651936 -50.598477 -1.674884
   14 1  71.954559 -51.264961 -1.674884
   15 1  73.192595 -50.569499 -1.674884
   16 1  69.495217 -51.235984 -1.674884
   17 1  70.733253 -50.540522 -1.674884
   18 1  67.035876 -51.207006 -1.674884
   19 1  68.273912 -50.511544 -1.674884
   20 1  64.576535 -51.178028 -1.674884
   21 1  65.814570 -50.482567 -1.674884
   22 1  62.117193 -51.149051 -1.674884
   23 1  63.355229 -50.453589 -1.674884
   24 1  59.657852 -51.120073 -1.674884
   25 1  60.895888 -50.424611 -1.674884
   26 1  57.198510 -51.091096 -1.674884
   27 1  58.436546 -50.395634 -1.674884
   28 1  54.739169 -51.062118 -1.674884
   29 1  55.977205 -50.366656 -1.674884
   30 1  52.279827 -51.033141 -1.674884
   31 1  53.517863 -50.337679 -1.674884
   32 1  49.820486 -51.004163 -1.674884
   33 1  51.058522 -50.308701 -1.674884
   34 1  47.361145 -50.975185 -1.674884
   35 1  48.599180 -50.279723 -1.674884
   36 1  44.901803 -50.946208 -1.674884
   37 1  46.139839 -50.250746 -1.674884
   38 1  42.442462 -50.917230 -1.674884
   39 1  43.680498 -50.221768 -1.674884
   40 1  39.983120 -50.888253 -1.674884
   41 1  41.221156 -50.192791 -1.674884
   42 1  37.523779 -50.859275 -1.674884
   43 1  38.761815 -50.163813 -1.674884
   44 1  35.064437 -50.830297 -1.674884
   45 1  36.302473 -50.134836 -1.674884
   46 1  32.605096 -50.801320 -1.674884
   47 1  33.843132 -50.105858 -1.674884
   48 1  30.129024 -52.192244 -1.674884
   49 1  30.145755 -50.772342 -1.674884
   50 1  31.383790 -50.076880 -1.674884
   51 1  27.669683 -52.163266 -1.674884
   52 1  27.686413 -50.743365 -1.674884
   53 1  28.924449 -50.047903 -1.674884
   54 1  25.210341 -52.134289 -1.674884
   55 1  25.227072 -50.714387 -1.674884
   56 1  26.465107 -50.018925 -1.674884
   57 1  22.751000 -52.105311 -1.674884
   58 1  22.767730 -50.685410 -1.674884
   59 1  24.005766 -49.989948 -1.674884
   60 1  20.291659 -52.076333 -1.674884
   61 1  20.308389 -50.656432 -1.674884
   62 1  21.546425 -49.960970 -1.674884
   63 1  17.832317 -52.047356 -1.674884
   64 1  17.849047 -50.627454 -1.674884
   65 1  19.087083 -49.931992 -1.674884
   66 1  15.372976 -52.018378 -1.674884
   67 1  15.389706 -50.598477 -1.674884
   68 1  16.627742 -49.903015 -1.674884
   69 1  12.913634 -51.989401 -1.674884
   70 1  12.930364 -50.569499 -1.674884
   71 1  14.168400 -49.874037 -1.674884
   72 1  10.454293 -51.960423 -1.674884
   73 1  10.471023 -50.540522 -1.674884
   74 1  11.709059 -49.845060 -1.674884
   75 1   7.994951 -51.931446 -1.674884
   76 1   8.011682 -50.511544 -1.674884
   77 1   9.249717 -49.816082 -1.674884
   78 1   5.535610 -51.902468 -1.674884
   79 1   5.552340 -50.482567 -1.674884
   80 1   6.790376 -49.787105 -1.674884
   81 1   3.076269 -51.873490 -1.674884
   82 1   3.092999 -50.453589 -1.674884
   83 1   4.331035 -49.758127 -1.674884
   84 1   0.616927 -51.844513 -1.674884
   85 1   0.633657 -50.424611 -1.674884
   86 1   1.871693 -49.729149 -1.674884
   87 1  -1.842414 -51.815535 -1.674884
   88 1  -1.825684 -50.395634 -1.674884
   89 1  -0.587648 -49.700172 -1.674884
   90 1  -4.301756 -51.786558 -1.674884
   91 1  -4.285026 -50.366656 -1.674884
   92 1  -3.046990 -49.671194 -1.674884
   93 1  -6.761097 -51.757580 -1.674884
   94 1  -6.744367 -50.337679 -1.674884
   95 1  -5.506331 -49.642217 -1.674884
   96 1  -9.220439 -51.728602 -1.674884
   97 1  -9.203708 -50.308701 -1.674884
   98 1  -7.965673 -49.613239 -1.674884
   99 1 -11.679780 -51.699625 -1.674884
  100 1 -11.663050 -50.279723 -1.674884
  101 1 -10.425014 -49.584262 -1.674884
  102 1 -14.139122 -51.670647 -1.674884
  103 1 -14.122391 -50.250746 -1.674884
  104 1 -12.884356 -49.555284 -1.674884
  105 1 -16.598463 -51.641670 -1.674884
  106 1 -16.581733 -50.221768 -1.674884
  107 1 -15.343697 -49.526306 -1.674884
  108 1 -19.057804 -51.612692 -1.674884
  109 1 -19.041074 -50.192791 -1.674884
  110 1 -17.803038 -49.497329 -1.674884
  111 1 -21.517146 -51.583715 -1.674884
  112 1 -21.500416 -50.163813 -1.674884
  113 1 -20.262380 -49.468351 -1.674884
  114 1 -23.976487 -51.554737 -1.674884
  115 1 -23.959757 -50.134836 -1.674884
  116 1 -22.721721 -49.439374 -1.674884
  117 1 -26.435829 -51.525759 -1.674884
  118 1 -26.419099 -50.105858 -1.674884
  119 1 -25.181063 -49.410396 -1.674884
  120 1 -28.895170 -51.496782 -1.674884
  121 1 -28.878440 -50.076880 -1.674884
  122 1 -27.640404 -49.381418 -1.674884
  123 1 -30.133206 -52.192244 -1.674884
  124 1 -31.354512 -51.467804 -1.674884
  125 1 -31.337781 -50.047903 -1.674884
  126 1 -30.099746 -49.352441 -1.674884
  127 1 -32.592547 -52.163266 -1.674884
  128 1 -33.813853 -51.438827 -1.674884
  129 1 -33.797123 -50.018925 -1.674884
  130 1 -32.559087 -49.323463 -1.674884
  131 1 -35.051889 -52.134289 -1.674884
  132 1 -36.273194 -51.409849 -1.674884
  133 1 -36.256464 -49.989948 -1.674884
  134 1 -35.018428 -49.294486 -1.674884
  135 1 -37.511230 -52.105311 -1.674884
  136 1 -38.732536 -51.380872 -1.674884
  137 1 -38.715806 -49.960970 -1.674884
  138 1 -37.477770 -49.265508 -1.674884
  139 1 -39.970572 -52.076333 -1.674884
  140 1 -41.191877 -51.351894 -1.674884
  141 1 -41.175147 -49.931992 -1.674884
  142 1 -39.937111 -49.236531 -1.674884
  143 1 -42.429913 -52.047356 -1.674884
  144 1 -43.651219 -51.322916 -1.674884
  145 1 -43.634489 -49.903015 -1.674884
  146 1 -42.396453 -49.207553 -1.674884
  147 1 -44.889255 -52.018378 -1.674884
  148 1 -46.110560 -51.293939 -1.674884
  149 1 -46.093830 -49.874037 -1.674884
  150 1 -44.855794 -49.178575 -1.674884
  151 1 -47.348596 -51.989401 -1.674884
  152 1 -48.569902 -51.264961 -1.674884
  153 1 -48.553171 -49.845060 -1.674884
  154 1 -47.315136 -49.149598 -1.674884
  155 1 -49.807937 -51.960423 -1.674884
  156 1 -51.029243 -51.235984 -1.674884
  157 1 -51.012513 -49.816082 -1.674884
  158 1 -49.774477 -49.120620 -1.674884
  159 1 -52.267279 -51.931446 -1.674884
  160 1 -53.488585 -51.207006 -1.674884
  161 1 -53.471854 -49.787105 -1.674884
  162 1 -52.233818 -49.091643 -1.674884
  163 1 -54.726620 -51.902468 -1.674884
  164 1 -55.947926 -51.178028 -1.674884
  165 1 -55.931196 -49.758127 -1.674884
  166 1 -54.693160 -49.062665 -1.674884
  167 1 -57.185962 -51.873490 -1.674884
  168 1 -58.407267 -51.149051 -1.674884
  169 1 -58.390537 -49.729149 -1.674884
  170 1 -57.152501 -49.033688 -1.674884
  171 1 -59.645303 -51.844513 -1.674884
  172 1 -60.866609 -51.120073 -1.674884
  173 1 -60.849879 -49.700172 -1.674884
  174 1 -59.611843 -49.004710 -1.674884
  175 1 -62.104645 -51.815535 -1.674884
  176 1 -63.325950 -51.091096 -1.674884
  177 1 -63.309220 -49.671194 -1.674884
  178 1 -62.071184 -48.975732 -1.674884
  179 1 -64.563986 -51.786558 -1.674884
  180 1 -65.785292 -51.062118 -1.674884
  181 1 -65.768561 -49.642217 -1.674884
  182 1 -64.530526 -48.946755 -1.674884
  183 1 -67.023328 -51.757580 -1.674884
  184 1 -68.244633 -51.033141 -1.674884
  185 1 -68.227903 -49.613239 -1.674884
  186 1 -66.989867 -48.917777 -1.674884
  187 1 -69.482669 -51.728602 -1.674884
  188 1 -70.703975 -51.004163 -1.674884
  189 1 -70.687244 -49.584262 -1.674884
  190 1 -69.449209 -48.888800 -1.674884
  191 1 -71.942010 -51.699625 -1.674884
  192 1 -73.163316 -50.975185 -1.674884
  193 1 -73.146586 -49.555284 -1.674884
  194 1 -71.908550 -48.859822 -1.674884
  195 1 -74.401352 -51.670647 -1.674884
  196 1 -75.622657 -50.946208 -1.674884
  197 1 -75.605927 -49.526306 -1.674884
  198 1 -74.367891 -48.830844 -1.674884
  199 1 -76.860693 -51.641670 -1.674884
  200 1 -78.081999 -50.917230 -1.674884
  201 1 -78.065269 -49.497329 -1.674884
  202 1 -76.827233 -48.801867 -1.674884
  203 1 -79.320035 -51.612692 -1.674884
  204 1 -80.541340 -50.888253 -1.674884
  205 1 -80.524610 -49.468351 -1.674884
  206 1 -79.286574 -48.772889 -1.674884
  207 1 -81.779376 -51.583715 -1.674884
  208 1 -83.000682 -50.859275 -1.674884
  209 1 -82.983952 -49.439374 -1.674884
  210 1 -81.745916 -48.743912 -1.674884
  211 1 -84.238718 -51.554737 -1.674884
  212 1 -85.460023 -50.830297 -1.674884
  213 1 -85.443293 -49.410396 -1.674884
  214 1 -84.205257 -48.714934 -1.674884
  215 1 -86.698059 -51.525759 -1.674884
  216 1 -87.919365 -50.801320 -1.674884
  217 1 -87.902634 -49.381418 -1.674884
  218 1 -86.664599 -48.685957 -1.674884
  219 1 -89.157400 -51.496782 -1.674884
  220 1 -90.378706 -50.772342 -1.674884
  221 1 -90.361976 -49.352441 -1.674884
  222 1 -89.123940 -48.656979 -1.674884
  223 1  89.203409 -48.628001 -1.674884
  224 1  89.220140 -47.208100 -1.674884
  225 1  87.965374 -49.323463 -1.674884
  226 1  86.744068 -48.599024 -1.674884
  227 1  86.760798 -47.179122 -1.674884
  228 1  87.998834 -46.483660 -1.674884
  229 1  85.506032 -49.294486 -1.674884
  230 1  84.284727 -48.570046 -1.674884
  231 1  84.301457 -47.150145 -1.674884
  232 1  85.539493 -46.454683 -1.674884
  233 1  83.046691 -49.265508 -1.674884
  234 1  81.825385 -48.541069 -1.674884
  235 1  81.842115 -47.121167 -1.674884
  236 1  83.080151 -46.425705 -1.674884
  237 1  80.587349 -49.236531 -1.674884
  238 1  79.366044 -48.512091 -1.674884
  239 1  79.382774 -47.092190 -1.674884
  240 1  80.620810 -46.396728 -1.674884
  241 1  78.128008 -49.207553 -1.674884
  242 1  76.906702 -48.483113 -1.674884
  243 1  76.923432 -47.063212 -1.674884
  244 1  78.161468 -46.367750 -1.674884
  245 1  75.668666 -49.178575 -1.674884
  246 1  74.447361 -48.454136 -1.674884
  247 1  74.464091 -47.034234 -1.674884
  248 1  75.702127 -46.338773 -1.674884
  249 1  73.209325 -49.149598 -1.674884
  250 1  71.988019 -48.425158 -1.674884
  251 1  72.004750 -47.005257 -1.674884
  252 1  73.242785 -46.309795 -1.674884
  253 1  70.749984 -49.120620 -1.674884
  254 1  69.528678 -48.396181 -1.674884
  255 1  69.545408 -46.976279 -1.674884
  256 1  70.783444 -46.280817 -1.674884
  257 1  68.290642 -49.091643 -1.674884
  258 1  67.069336 -48.367203 -1.674884
  259 1  67.086067 -46.947302 -1.674884
  260 1  68.324103 -46.251840 -1.674884
  261 1  65.831301 -49.062665 -1.674884
  262 1  64.609995 -48.338226 -1.674884
  263 1  64.626725 -46.918324 -1.674884
  264 1  65.864761 -46.222862 -1.674884
  265 1  63.371959 -49.033688 -1.674884
  266 1  62.150654 -48.309248 -1.674884
  267 1  62.167384 -46.889347 -1.674884
  268 1  63.405420 -46.193885 -1.674884
  269 1  60.912618 -49.004710 -1.674884
  270 1  59.691312 -48.280270 -1.674884
  271 1  59.708042 -46.860369 -1.674884
  272 1  60.946078 -46.164907 -1.674884
  273 1  58.453276 -48.975732 -1.674884
  274 1  57.231971 -48.251293 -1.674884
  275 1  57.248701 -46.831391 -1.674884
  276 1  58.486737 -46.135929 -1.674884
  277 1  55.993935 -48.946755 -1.674884
  278 1  54.772629 -48.222315 -1.674884
  279 1  54.789360 -46.802414 -1.674884
  280 1  56.027395 -46.106952 -1.674884
  281 1  53.534593 -48.917777 -1.674884
  282 1  52.313288 -48.193338 -1.674884
  283 1  52.330018 -46.773436 -1.674884
  284 1  53.568054 -46.077974 -1.674884
  285 1  51.075252 -48.888800 -1.674884
  286 1  49.853946 -48.164360 -1.674884
  287 1  49.870677 -46.744459 -1.674884
  288 1  51.108712 -46.048997 -1.674884
  289 1  48.615911 -48.859822 -1.674884
  290 1  47.394605 -48.135383 -1.674884
  291 1  47.411335 -46.715481 -1.674884
  292 1  48.649371 -46.020019 -1.674884
  293 1  46.156569 -48.830844 -1.674884
  294 1  44.935264 -48.106405 -1.674884
  295 1  44.951994 -46.686503 -1.674884
  296 1  46.190030 -45.991042 -1.674884
  297 1  43.697228 -48.801867 -1.674884
  298 1  42.475922 -48.077427 -1.674884
  299 1  42.492652 -46.657526 -1.674884
  300 1  43.730688 -45.962064 -1.674884
  301 1  41.237886 -48.772889 -1.674884
  302 1  40.016581 -48.048450 -1.674884
  303 1  40.033311 -46.628548 -1.674884
  304 1  41.271347 -45.933086 -1.674884
  305 1  38.778545 -48.743912 -1.674884
  306 1  37.557239 -48.019472 -1.674884
  307 1  37.573969 -46.599571 -1.674884
  308 1  38.812005 -45.904109 -1.674884
  309 1  36.319203 -48.714934 -1.674884
  310 1  35.097898 -47.990495 -1.674884
  311 1  35.114628 -46.570593 -1.674884
  312 1  36.352664 -45.875131 -1.674884
  313 1  33.859862 -48.685957 -1.674884
  314 1  32.638556 -47.961517 -1.674884
  315 1  32.655287 -46.541616 -1.674884
  316 1  33.893322 -45.846154 -1.674884
  317 1  31.400521 -48.656979 -1.674884
  318 1  30.179215 -47.932539 -1.674884
  319 1  30.195945 -46.512638 -1.674884
  320 1  31.433981 -45.817176 -1.674884
  321 1  28.941179 -48.628001 -1.674884
  322 1  27.719874 -47.903562 -1.674884
  323 1  27.736604 -46.483660 -1.674884
  324 1  28.974640 -45.788198 -1.674884
  325 1  26.481838 -48.599024 -1.674884
  326 1  25.260532 -47.874584 -1.674884
  327 1  25.277262 -46.454683 -1.674884
  328 1  26.515298 -45.759221 -1.674884
  329 1  24.022496 -48.570046 -1.674884
  330 1  22.801191 -47.845607 -1.674884
  331 1  22.817921 -46.425705 -1.674884
  332 1  24.055957 -45.730243 -1.674884
  333 1  21.563155 -48.541069 -1.674884
  334 1  20.341849 -47.816629 -1.674884
  335 1  20.358579 -46.396728 -1.674884
  336 1  21.596615 -45.701266 -1.674884
  337 1  19.103813 -48.512091 -1.674884
  338 1  17.882508 -47.787652 -1.674884
  339 1  17.899238 -46.367750 -1.674884
  340 1  19.137274 -45.672288 -1.674884
  341 1  16.644472 -48.483113 -1.674884
  342 1  15.423166 -47.758674 -1.674884
  343 1  15.439897 -46.338773 -1.674884
  344 1  16.677932 -45.643311 -1.674884
  345 1  14.185131 -48.454136 -1.674884
  346 1  12.963825 -47.729696 -1.674884
  347 1  12.980555 -46.309795 -1.674884
  348 1  14.218591 -45.614333 -1.674884
  349 1  11.725789 -48.425158 -1.674884
  350 1  10.504483 -47.700719 -1.674884
  351 1  10.521214 -46.280817 -1.674884
  352 1  11.759249 -45.585355 -1.674884
  353 1   9.266448 -48.396181 -1.674884
  354 1   8.045142 -47.671741 -1.674884
  355 1   8.061872 -46.251840 -1.674884
  356 1   9.299908 -45.556378 -1.674884
  357 1   6.807106 -48.367203 -1.674884
  358 1   5.585801 -47.642764 -1.674884
  359 1   5.602531 -46.222862 -1.674884
  360 1   6.840567 -45.527400 -1.674884
  361 1   4.347765 -48.338226 -1.674884
  362 1   3.126459 -47.613786 -1.674884
  363 1   3.143189 -46.193885 -1.674884
  364 1   4.381225 -45.498423 -1.674884
  365 1   1.888423 -48.309248 -1.674884
  366 1   0.667118 -47.584808 -1.674884
  367 1   0.683848 -46.164907 -1.674884
  368 1   1.921884 -45.469445 -1.674884
  369 1  -0.570918 -48.280270 -1.674884
  370 1  -1.792224 -47.555831 -1.674884
  371 1  -1.775494 -46.135929 -1.674884
  372 1  -0.537458 -45.440468 -1.674884
  373 1  -3.030260 -48.251293 -1.674884
  374 1  -4.251565 -47.526853 -1.674884
  375 1  -4.234835 -46.106952 -1.674884
  376 1  -2.996799 -45.411490 -1.674884
  377 1  -5.489601 -48.222315 -1.674884
  378 1  -6.710907 -47.497876 -1.674884
  379 1  -6.694176 -46.077974 -1.674884
  380 1  -5.456141 -45.382512 -1.674884
  381 1  -7.948942 -48.193338 -1.674884
  382 1  -9.170248 -47.468898 -1.674884
  383 1  -9.153518 -46.048997 -1.674884
  384 1  -7.915482 -45.353535 -1.674884
  385 1 -10.408284 -48.164360 -1.674884
  386 1 -11.629589 -47.439921 -1.674884
  387 1 -11.612859 -46.020019 -1.674884
  388 1 -10.374823 -45.324557 -1.674884
  389 1 -12.867625 -48.135383 -1.674884
  390 1 -14.088931 -47.410943 -1.674884
  391 1 -14.072201 -45.991042 -1.674884
  392 1 -12.834165 -45.295580 -1.674884
  393 1 -15.326967 -48.106405 -1.674884
  394 1 -16.548272 -47.381965 -1.674884
  395 1 -16.531542 -45.962064 -1.674884
  396 1 -15.293506 -45.266602 -1.674884
  397 1 -17.786308 -48.077427 -1.674884
  398 1 -19.007614 -47.352988 -1.674884
  399 1 -18.990884 -45.933086 -1.674884
  400 1 -17.752848 -45.237624 -1.674884
  401 1 -20.245650 -48.048450 -1.674884
  402 1 -21.466955 -47.324010 -1.674884
  403 1 -21.450225 -45.904109 -1.674884
  404 1 -20.212189 -45.208647 -1.674884
  405 1 -22.704991 -48.019472 -1.674884
  406 1 -23.926297 -47.295033 -1.674884
  407 1 -23.909566 -45.875131 -1.674884
  408 1 -22.671531 -45.179669 -1.674884
  409 1 -25.164332 -47.990495 -1.674884
  410 1 -26.385638 -47.266055 -1.674884
  411 1 -26.368908 -45.846154 -1.674884
  412 1 -25.130872 -45.150692 -1.674884
  413 1 -27.623674 -47.961517 -1.674884
  414 1 -28.844980 -47.237078 -1.674884
  415 1 -28.828249 -45.817176 -1.674884
  416 1 -27.590213 -45.121714 -1.674884
  417 1 -30.083015 -47.932539 -1.674884
  418 1 -31.304321 -47.208100 -1.674884
  419 1 -31.287591 -45.788198 -1.674884
  420 1 -30.049555 -45.092737 -1.674884
  421 1 -32.542357 -47.903562 -1.674884
  422 1 -33.763662 -47.179122 -1.674884
  423 1 -33.746932 -45.759221 -1.674884
  424 1 -32.508896 -45.063759 -1.674884
  425 1 -35.001698 -47.874584 -1.674884
  426 1 -36.223004 -47.150145 -1.674884
  427 1 -36.206274 -45.730243 -1.674884
  428 1 -34.968238 -45.034781 -1.674884
  429 1 -37.461040 -47.845607 -1.674884
  430 1 -38.682345 -47.121167 -1.674884
  431 1 -38.665615 -45.701266 -1.674884
  432 1 -37.427579 -45.005804 -1.674884
  433 1 -39.920381 -47.816629 -1.674884
  434 1 -41.141687 -47.092190 -1.674884
  435 1 -41.124956 -45.672288 -1.674884
  436 1 -39.886921 -44.976826 -1.674884
  437 1 -42.379723 -47.787652 -1.674884
  438 1 -43.601028 -47.063212 -1.674884
  439 1 -43.584298 -45.643311 -1.674884
  440 1 -42.346262 -44.947849 -1.674884
  441 1 -44.839064 -47.758674 -1.674884
  442 1 -46.060370 -47.034234 -1.674884
  443 1 -46.043639 -45.614333 -1.674884
  444 1 -44.805604 -44.918871 -1.674884
  445 1 -47.298405 -47.729696 -1.674884
  446 1 -48.519711 -47.005257 -1.674884
  447 1 -48.502981 -45.585355 -1.674884
  448 1 -47.264945 -44.889894 -1.674884
  449 1 -49.757747 -47.700719 -1.674884
  450 1 -50.979052 -46.976279 -1.674884
  451 1 -50.962322 -45.556378 -1.674884
  452 1 -49.724286 -44.860916 -1.674884
  453 1 -52.217088 -47.671741 -1.674884
  454 1 -53.438394 -46.947302 -1.674884
  455 1 -53.421664 -45.527400 -1.674884
  456 1 -52.183628 -44.831938 -1.674884
  457 1 -54.676430 -47.642764 -1.674884
  458 1 -55.897735 -46.918324 -1.674884
  459 1 -55.881005 -45.498423 -1.674884
  460 1 -54.642969 -44.802961 -1.674884
  461 1 -57.135771 -47.613786 -1.674884
  462 1 -58.357077 -46.889347 -1.674884
  463 1 -58.340347 -45.469445 -1.674884
  464 1 -57.102311 -44.773983 -1.674884
  465 1 -59.595113 -47.584808 -1.674884
  466 1 -60.816418 -46.860369 -1.674884
  467 1 -60.799688 -45.440468 -1.674884
  468 1 -59.561652 -44.745006 -1.674884
  469 1 -62.054454 -47.555831 -1.674884
  470 1 -63.275760 -46.831391 -1.674884
  471 1 -63.259029 -45.411490 -1.674884
  472 1 -62.020994 -44.716028 -1.674884
  473 1 -64.513795 -47.526853 -1.674884
  474 1 -65.735101 -46.802414 -1.674884
  475 1 -65.718371 -45.382512 -1.674884
  476 1 -64.480335 -44.687050 -1.674884
  477 1 -66.973137 -47.497876 -1.674884
  478 1 -68.194443 -46.773436 -1.674884
  479 1 -68.177712 -45.353535 -1.674884
  480 1 -66.939676 -44.658073 -1.674884
  481 1 -69.432478 -47.468898 -1.674884
  482 1 -70.653784 -46.744459 -1.674884
  483 1 -70.637054 -45.324557 -1.674884
  484 1 -69.399018 -44.629095 -1.674884
  485 1 -71.891820 -47.439921 -1.674884
  486 1 -73.113125 -46.715481 -1.674884
  487 1 -73.096395 -45.295580 -1.674884
  488 1 -71.858359 -44.600118 -1.674884
  489 1 -74.351161 -47.410943 -1.674884
  490 1 -75.572467 -46.686503 -1.674884
  491 1 -75.555737 -45.266602 -1.674884
  492 1 -74.317701 -44.571140 -1.674884
  493 1 -76.810503 -47.381965 -1.674884
  494 1 -78.031808 -46.657526 -1.674884
  495 1 -78.015078 -45.237624 -1.674884
  496 1 -76.777042 -44.542163 -1.674884
  497 1 -79.269844 -47.352988 -1.674884
  498 1 -80.491150 -46.628548 -1.674884
  499 1 -80.474419 -45.208647 -1.674884
  500 1 -79.236384 -44.513185 -1.674884
  501 1 -81.729186 -47.324010 -1.674884
  502 1 -82.950491 -46.599571 -1.674884
  503 1 -82.933761 -45.179669 -1.674884
  504 1 -81.695725 -44.484207 -1.674884
  505 1 -84.188527 -47.295033 -1.674884
  506 1 -85.409833 -46.570593 -1.674884
  507 1 -85.393102 -45.150692 -1.674884
  508 1 -84.155067 -44.455230 -1.674884
  509 1 -86.647868 -47.266055 -1.674884
  510 1 -87.869174 -46.541616 -1.674884
  511 1 -87.852444 -45.121714 -1.674884
  512 1 -86.614408 -44.426252 -1.674884
  513 1 -89.107210 -47.237078 -1.674884
  514 1 -90.328515 -46.512638 -1.674884
  515 1 -90.311785 -45.092737 -1.674884
  516 1 -89.073749 -44.397275 -1.674884
  517 1  89.253600 -44.368297 -1.674884
  518 1  89.270330 -42.948396 -1.674884
  519 1  88.015564 -45.063759 -1.674884
  520 1  86.794259 -44.339319 -1.674884
  521 1  86.810989 -42.919418 -1.674884
  522 1  88.049025 -42.223956 -1.674884
  523 1  85.556223 -45.034781 -1.674884
  524 1  84.334917 -44.310342 -1.674884
  525 1  84.351647 -42.890440 -1.674884
  526 1  85.589683 -42.194979 -1.674884
  527 1  83.096881 -45.005804 -1.674884
  528 1  81.875576 -44.281364 -1.674884
  529 1  81.892306 -42.861463 -1.674884
  530 1  83.130342 -42.166001 -1.674884
  531 1  80.637540 -44.976826 -1.674884
  532 1  79.416234 -44.252387 -1.674884
  533 1  79.432965 -42.832485 -1.674884
  534 1  80.671000 -42.137023 -1.674884
  535 1  78.178198 -44.947849 -1.674884
  536 1  76.956893 -44.223409 -1.674884
  537 1  76.973623 -42.803508 -1.674884
  538 1  78.211659 -42.108046 -1.674884
  539 1  75.718857 -44.918871 -1.674884
  540 1  74.497551 -44.194432 -1.674884
  541 1  74.514282 -42.774530 -1.674884
  542 1  75.752317 -42.079068 -1.674884
  543 1  73.259516 -44.889894 -1.674884
  544 1  72.038210 -44.165454 -1.674884
  545 1  72.054940 -42.745553 -1.674884
  546 1  73.292976 -42.050091 -1.674884
  547 1  70.800174 -44.860916 -1.674884
  548 1  69.578869 -44.136476 -1.674884
  549 1  69.595599 -42.716575 -1.674884
  550 1  70.833635 -42.021113 -1.674884
  551 1  68.340833 -44.831938 -1.674884
  552 1  67.119527 -44.107499 -1.674884
  553 1  67.136257 -42.687597 -1.674884
  554 1  68.374293 -41.992135 -1.674884
  555 1  65.881491 -44.802961 -1.674884
  556 1  64.660186 -44.078521 -1.674884
  557 1  64.676916 -42.658620 -1.674884
  558 1  65.914952 -41.963158 -1.674884
  559 1  63.422150 -44.773983 -1.674884
  560 1  62.200844 -44.049544 -1.674884
  561 1  62.217574 -42.629642 -1.674884
  562 1  63.455610 -41.934180 -1.674884
  563 1  60.962808 -44.745006 -1.674884
  564 1  59.741503 -44.020566 -1.674884
  565 1  59.758233 -42.600665 -1.674884
  566 1  60.996269 -41.905203 -1.674884
  567 1  58.503467 -44.716028 -1.674884
  568 1  57.282161 -43.991589 -1.674884
  569 1  57.298892 -42.571687 -1.674884
  570 1  58.536927 -41.876225 -1.674884
  571 1  56.044126 -44.687050 -1.674884
  572 1  54.822820 -43.962611 -1.674884
  573 1  54.839550 -42.542709 -1.674884
  574 1  56.077586 -41.847248 -1.674884
  575 1  53.584784 -44.658073 -1.674884
  576 1  52.363479 -43.933633 -1.674884
  577 1  52.380209 -42.513732 -1.674884
  578 1  53.618245 -41.818270 -1.674884
  579 1  51.125443 -44.629095 -1.674884
  580 1  49.904137 -43.904656 -1.674884
  581 1  49.920867 -42.484754 -1.674884
  582 1  51.158903 -41.789292 -1.674884
  583 1  48.666101 -44.600118 -1.674884
  584 1  47.444796 -43.875678 -1.674884
  585 1  47.461526 -42.455777 -1.674884
  586 1  48.699562 -41.760315 -1.674884
  587 1  46.206760 -44.571140 -1.674884
  588 1  44.985454 -43.846701 -1.674884
  589 1  45.002184 -42.426799 -1.674884
  590 1  46.240220 -41.731337 -1.674884
  591 1  43.747418 -44.542163 -1.674884
  592 1  42.526113 -43.817723 -1.674884
  593 1  42.542843 -42.397822 -1.674884
  594 1  43.780879 -41.702360 -1.674884
  595 1  41.288077 -44.513185 -1.674884
  596 1  40.066771 -43.788745 -1.674884
  597 1  40.083502 -42.368844 -1.674884
  598 1  41.321537 -41.673382 -1.674884
  599 1  38.828736 -44.484207 -1.674884
  600 1  37.607430 -43.759768 -1.674884
  601 1  37.624160 -42.339866 -1.674884
  602 1  38.862196 -41.644404 -1.674884
  603 1  36.369394 -44.455230 -1.674884
  604 1  35.148088 -43.730790 -1.674884
  605 1  35.164819 -42.310889 -1.674884
  606 1  36.402854 -41.615427 -1.674884
  607 1  33.910053 -44.426252 -1.674884
  608 1  32.688747 -43.701813 -1.674884
  609 1  32.705477 -42.281911 -1.674884
  610 1  33.943513 -41.586449 -1.674884
  611 1  31.450711 -44.397275 -1.674884
  612 1  30.229406 -43.672835 -1.674884
  613 1  30.246136 -42.252934 -1.674884
  614 1  31.484172 -41.557472 -1.674884
  615 1  28.991370 -44.368297 -1.674884
  616 1  27.770064 -43.643858 -1.674884
  617 1  27.786794 -42.223956 -1.674884
  618 1  29.024830 -41.528494 -1.674884
  619 1  26.532028 -44.339319 -1.674884
  620 1  25.310723 -43.614880 -1.674884
  621 1  25.327453 -42.194979 -1.674884
  622 1  26.565489 -41.499517 -1.674884
  623 1  24.072687 -44.310342 -1.674884
  624 1  22.851381 -43.585902 -1.674884
  625 1  22.868111 -42.166001 -1.674884
  626 1  24.106147 -41.470539 -1.674884
  627 1  21.613345 -44.281364 -1.674884
  628 1  20.392040 -43.556925 -1.674884
  629 1  20.408770 -42.137023 -1.674884
  630 1  21.646806 -41.441561 -1.674884
  631 1  19.154004 -44.252387 -1.674884
  632 1  17.932698 -43.527947 -1.674884
  633 1  17.949429 -42.108046 -1.674884
  634 1  19.187464 -41.412584 -1.674884
  635 1  16.694663 -44.223409 -1.674884
  636 1  15.473357 -43.498970 -1.674884
  637 1  15.490087 -42.079068 -1.674884
  638 1  16.728123 -41.383606 -1.674884
  639 1  14.235321 -44.194432 -1.674884
  640 1  13.014016 -43.469992 -1.674884
  641 1  13.030746 -42.050091 -1.674884
  642 1  14.268782 -41.354629 -1.674884
  643 1  11.775980 -44.165454 -1.674884
  644 1  10.554674 -43.441014 -1.674884
  645 1  10.571404 -42.021113 -1.674884
  646 1  11.809440 -41.325651 -1.674884
  647 1   9.316638 -44.136476 -1.674884
  648 1   8.095333 -43.412037 -1.674884
  649 1   8.112063 -41.992135 -1.674884
  650 1   9.350099 -41.296674 -1.674884
  651 1   6.857297 -44.107499 -1.674884
  652 1   5.635991 -43.383059 -1.674884
  653 1   5.652721 -41.963158 -1.674884
  654 1   6.890757 -41.267696 -1.674884
  655 1   4.397955 -44.078521 -1.674884
  656 1   3.176650 -43.354082 -1.674884
  657 1   3.193380 -41.934180 -1.674884
  658 1   4.431416 -41.238718 -1.674884
  659 1   1.938614 -44.049544 -1.674884
  660 1   0.717308 -43.325104 -1.674884
  661 1   0.734039 -41.905203 -1.674884
  662 1   1.972074 -41.209741 -1.674884
  663 1  -0.520727 -44.020566 -1.674884
  664 1  -1.742033 -43.296127 -1.674884
  665 1  -1.725303 -41.876225 -1.674884
  666 1  -0.487267 -41.180763 -1.674884
  667 1  -2.980069 -43.991589 -1.674884
  668 1  -4.201375 -43.267149 -1.674884
  669 1  -4.184644 -41.847248 -1.674884
  670 1  -2.946608 -41.151786 -1.674884
  671 1  -5.439410 -43.962611 -1.674884
  672 1  -6.660716 -43.238171 -1.674884
  673 1  -6.643986 -41.818270 -1.674884
  674 1  -5.405950 -41.122808 -1.674884
  675 1  -7.898752 -43.933633 -1.674884
  676 1  -9.120057 -43.209194 -1.674884
  677 1  -9.103327 -41.789292 -1.674884
  678 1  -7.865291 -41.093830 -1.674884
  679 1 -10.358093 -43.904656 -1.674884
  680 1 -11.579399 -43.180216 -1.674884
  681 1 -11.562669 -41.760315 -1.674884
  682 1 -10.324633 -41.064853 -1.674884
  683 1 -12.817435 -43.875678 -1.674884
  684 1 -14.038740 -43.151239 -1.674884
  685 1 -14.022010 -41.731337 -1.674884
  686 1 -12.783974 -41.035875 -1.674884
  687 1 -15.276776 -43.846701 -1.674884
  688 1 -16.498082 -43.122261 -1.674884
  689 1 -16.481351 -41.702360 -1.674884
  690 1 -15.243316 -41.006898 -1.674884
  691 1 -17.736118 -43.817723 -1.674884
  692 1 -18.957423 -43.093284 -1.674884
  693 1 -18.940693 -41.673382 -1.674884
  694 1 -17.702657 -40.977920 -1.674884
  695 1 -20.195459 -43.788745 -1.674884
  696 1 -21.416765 -43.064306 -1.674884
  697 1 -21.400034 -41.644404 -1.674884
  698 1 -20.161999 -40.948943 -1.674884
  699 1 -22.654800 -43.759768 -1.674884
  700 1 -23.876106 -43.035328 -1.674884
  701 1 -23.859376 -41.615427 -1.674884
  702 1 -22.621340 -40.919965 -1.674884
  703 1 -25.114142 -43.730790 -1.674884
  704 1 -26.335447 -43.006351 -1.674884
  705 1 -26.318717 -41.586449 -1.674884
  706 1 -25.080681 -40.890987 -1.674884
  707 1 -27.573483 -43.701813 -1.674884
  708 1 -28.794789 -42.977373 -1.674884
  709 1 -28.778059 -41.557472 -1.674884
  710 1 -27.540023 -40.862010 -1.674884
  711 1 -30.032825 -43.672835 -1.674884
  712 1 -31.254130 -42.948396 -1.674884
  713 1 -31.237400 -41.528494 -1.674884
  714 1 -29.999364 -40.833032 -1.674884
  715 1 -32.492166 -43.643858 -1.674884
  716 1 -33.713472 -42.919418 -1.674884
  717 1 -33.696742 -41.499517 -1.674884
  718 1 -32.458706 -40.804055 -1.674884
  719 1 -34.951508 -43.614880 -1.674884
  720 1 -36.172813 -42.890440 -1.674884
  721 1 -36.156083 -41.470539 -1.674884
  722 1 -34.918047 -40.775077 -1.674884
  723 1 -37.410849 -43.585902 -1.674884
  724 1 -38.632155 -42.861463 -1.674884
  725 1 -38.615424 -41.441561 -1.674884
  726 1 -37.377389 -40.746100 -1.674884
  727 1 -39.870190 -43.556925 -1.674884
  728 1 -41.091496 -42.832485 -1.674884
  729 1 -41.074766 -41.412584 -1.674884
  730 1 -39.836730 -40.717122 -1.674884
  731 1 -42.329532 -43.527947 -1.674884
  732 1 -43.550837 -42.803508 -1.674884
  733 1 -43.534107 -41.383606 -1.674884
  734 1 -42.296071 -40.688144 -1.674884
  735 1 -44.788873 -43.498970 -1.674884
  736 1 -46.010179 -42.774530 -1.674884
  737 1 -45.993449 -41.354629 -1.674884
  738 1 -44.755413 -40.659167 -1.674884
  739 1 -47.248215 -43.469992 -1.674884
  740 1 -48.469520 -42.745553 -1.674884
  741 1 -48.452790 -41.325651 -1.674884
  742 1 -47.214754 -40.630189 -1.674884
  743 1 -49.707556 -43.441014 -1.674884
  744 1 -50.928862 -42.716575 -1.674884
  745 1 -50.912132 -41.296674 -1.674884
  746 1 -49.674096 -40.601212 -1.674884
  747 1 -52.166898 -43.412037 -1.674884
  748 1 -53.388203 -42.687597 -1.674884
  749 1 -53.371473 -41.267696 -1.674884
  750 1 -52.133437 -40.572234 -1.674884
  751 1 -54.626239 -43.383059 -1.674884
  752 1 -55.847545 -42.658620 -1.674884
  753 1 -55.830814 -41.238718 -1.674884
  754 1 -54.592779 -40.543256 -1.674884
  755 1 -57.085581 -43.354082 -1.674884
  756 1 -58.306886 -42.629642 -1.674884
  757 1 -58.290156 -41.209741 -1.674884
  758 1 -57.052120 -40.514279 -1.674884
  759 1 -59.544922 -43.325104 -1.674884
  760 1 -60.766228 -42.600665 -1.674884
  761 1 -60.749497 -41.180763 -1.674884
  762 1 -59.511462 -40.485301 -1.674884
  763 1 -62.004263 -43.296127 -1.674884
  764 1 -63.225569 -42.571687 -1.674884
  765 1 -63.208839 -41.151786 -1.674884
  766 1 -61.970803 -40.456324 -1.674884
  767 1 -64.463605 -43.267149 -1.674884
  768 1 -65.684910 -42.542709 -1.674884
  769 1 -65.668180 -41.122808 -1.674884
  770 1 -64.430144 -40.427346 -1.674884
  771 1 -66.922946 -43.238171 -1.674884
  772 1 -68.144252 -42.513732 -1.674884
  773 1 -68.127522 -41.093830 -1.674884
  774 1 -66.889486 -40.398369 -1.674884
  775 1 -69.382288 -43.209194 -1.674884
  776 1 -70.603593 -42.484754 -1.674884
  777 1 -70.586863 -41.064853 -1.674884
  778 1 -69.348827 -40.369391 -1.674884
  779 1 -71.841629 -43.180216 -1.674884
  780 1 -73.062935 -42.455777 -1.674884
  781 1 -73.046205 -41.035875 -1.674884
  782 1 -71.808169 -40.340413 -1.674884
  783 1 -74.300971 -43.151239 -1.674884
  784 1 -75.522276 -42.426799 -1.674884
  785 1 -75.505546 -41.006898 -1.674884
  786 1 -74.267510 -40.311436 -1.674884
  787 1 -76.760312 -43.122261 -1.674884
  788 1 -77.981618 -42.397822 -1.674884
  789 1 -77.964887 -40.977920 -1.674884
  790 1 -76.726852 -40.282458 -1.674884
  791 1 -79.219653 -43.093284 -1.674884
  792 1 -80.440959 -42.368844 -1.674884
  793 1 -80.424229 -40.948943 -1.674884
  794 1 -79.186193 -40.253481 -1.674884
  795 1 -81.678995 -43.064306 -1.674884
  796 1 -82.900300 -42.339866 -1.674884
  797 1 -82.883570 -40.919965 -1.674884
  798 1 -81.645534 -40.224503 -1.674884
  799 1 -84.138336 -43.035328 -1.674884
  800 1 -85.359642 -42.310889 -1.674884
  801 1 -85.342912 -40.890987 -1.674884
  802 1 -84.104876 -40.195525 -1.674884
  803 1 -86.597678 -43.006351 -1.674884
  804 1 -87.818983 -42.281911 -1.674884
  805 1 -87.802253 -40.862010 -1.674884
  806 1 -86.564217 -40.166548 -1.674884
  807 1 -89.057019 -42.977373 -1.674884
  808 1 -90.278325 -42.252934 -1.674884
  809 1 -90.261595 -40.833032 -1.674884
  810 1 -89.023559 -40.137570 -1.674884
  811 1  89.303791 -40.108593 -1.674884
  812 1  89.320521 -38.688691 -1.674884
  813 1  88.065755 -40.804055 -1.674884
  814 1  86.844449 -40.079615 -1.674884
  815 1  86.861179 -38.659714 -1.674884
  816 1  88.099215 -37.964252 -1.674884
  817 1  85.606413 -40.775077 -1.674884
  818 1  84.385108 -40.050638 -1.674884
  819 1  84.401838 -38.630736 -1.674884
  820 1  85.639874 -37.935274 -1.674884
  821 1  83.147072 -40.746100 -1.674884
  822 1  81.925766 -40.021660 -1.674884
  823 1  81.942497 -38.601759 -1.674884
  824 1  83.180532 -37.906297 -1.674884
  825 1  80.687731 -40.717122 -1.674884
  826 1  79.466425 -39.992682 -1.674884
  827 1  79.483155 -38.572781 -1.674884
  828 1  80.721191 -37.877319 -1.674884
  829 1  78.228389 -40.688144 -1.674884
  830 1  77.007084 -39.963705 -1.674884
  831 1  77.023814 -38.543803 -1.674884
  832 1  78.261850 -37.848341 -1.674884
  833 1  75.769048 -40.659167 -1.674884
  834 1  74.547742 -39.934727 -1.674884
  835 1  74.564472 -38.514826 -1.674884
  836 1  75.802508 -37.819364 -1.674884
  837 1  73.309706 -40.630189 -1.674884
  838 1  72.088401 -39.905750 -1.674884
  839 1  72.105131 -38.485848 -1.674884
  840 1  73.343167 -37.790386 -1.674884
  841 1  70.850365 -40.601212 -1.674884
  842 1  69.629059 -39.876772 -1.674884
  843 1  69.645789 -38.456871 -1.674884
  844 1  70.883825 -37.761409 -1.674884
  845 1  68.391023 -40.572234 -1.674884
  846 1  67.169718 -39.847795 -1.674884
  847 1  67.186448 -38.427893 -1.674884
  848 1  68.424484 -37.732431 -1.674884
  849 1  65.931682 -40.543256 -1.674884
  850 1  64.710376 -39.818817 -1.674884
  851 1  64.727107 -38.398915 -1.674884
  852 1  65.965142 -37.703454 -1.674884
  853 1  63.472341 -40.514279 -1.674884
  854 1  62.251035 -39.789839 -1.674884
  855 1  62.267765 -38.369938 -1.674884
  856 1  63.505801 -37.674476 -1.674884
  857 1  61.012999 -40.485301 -1.674884
  858 1  59.791693 -39.760862 -1.674884
  859 1  59.808424 -38.340960 -1.674884
  860 1  61.046460 -37.645498 -1.674884
  861 1  58.553658 -40.456324 -1.674884
  862 1  57.332352 -39.731884 -1.674884
  863 1  57.349082 -38.311983 -1.674884
  864 1  58.587118 -37.616521 -1.674884
  865 1  56.094316 -40.427346 -1.674884
  866 1  54.873011 -39.702907 -1.674884
  867 1  54.889741 -38.283005 -1.674884
  868 1  56.127777 -37.587543 -1.674884
  869 1  53.634975 -40.398369 -1.674884
  870 1  52.413669 -39.673929 -1.674884
  871 1  52.430399 -38.254028 -1.674884
  872 1  53.668435 -37.558566 -1.674884
  873 1  51.175633 -40.369391 -1.674884
  874 1  49.954328 -39.644951 -1.674884
  875 1  49.971058 -38.225050 -1.674884
  876 1  51.209094 -37.529588 -1.674884
  877 1  48.716292 -40.340413 -1.674884
  878 1  47.494986 -39.615974 -1.674884
  879 1  47.511716 -38.196072 -1.674884
  880 1  48.749752 -37.500610 -1.674884
  881 1  46.256950 -40.311436 -1.674884
  882 1  45.035645 -39.586996 -1.674884
  883 1  45.052375 -38.167095 -1.674884
  884 1  46.290411 -37.471633 -1.674884
  885 1  43.797609 -40.282458 -1.674884
  886 1  42.576303 -39.558019 -1.674884
  887 1  42.593034 -38.138117 -1.674884
  888 1  43.831069 -37.442655 -1.674884
  889 1  41.338268 -40.253481 -1.674884
  890 1  40.116962 -39.529041 -1.674884
  891 1  40.133692 -38.109140 -1.674884
  892 1  41.371728 -37.413678 -1.674884
  893 1  38.878926 -40.224503 -1.674884
  894 1  37.657621 -39.500064 -1.674884
  895 1  37.674351 -38.080162 -1.674884
  896 1  38.912387 -37.384700 -1.674884
  897 1  36.419585 -40.195525 -1.674884
  898 1  35.198279 -39.471086 -1.674884
  899 1  35.215009 -38.051185 -1.674884
  900 1  36.453045 -37.355723 -1.674884
  901 1  33.960243 -40.166548 -1.674884
  902 1  32.738938 -39.442108 -1.674884
  903 1  32.755668 -38.022207 -1.674884
  904 1  33.993704 -37.326745 -1.674884
  905 1  31.500902 -40.137570 -1.674884
  906 1  30.279596 -39.413131 -1.674884
  907 1  30.296326 -37.993229 -1.674884
  908 1  31.534362 -37.297767 -1.674884
  909 1  29.041560 -40.108593 -1.674884
  910 1  27.820255 -39.384153 -1.674884
  911 1  27.836985 -37.964252 -1.674884
  912 1  29.075021 -37.268790 -1.674884
  913 1  26.582219 -40.079615 -1.674884
  914 1  25.360913 -39.355176 -1.674884
  915 1  25.377644 -37.935274 -1.674884
  916 1  26.615679 -37.239812 -1.674884
  917 1  24.122878 -40.050638 -1.674884
  918 1  22.901572 -39.326198 -1.674884
  919 1  22.918302 -37.906297 -1.674884
  920 1  24.156338 -37.210835 -1.674884
  921 1  21.663536 -40.021660 -1.674884
  922 1  20.442230 -39.297220 -1.674884
  923 1  20.458961 -37.877319 -1.674884
  924 1  21.696997 -37.181857 -1.674884
  925 1  19.204195 -39.992682 -1.674884
  926 1  17.982889 -39.268243 -1.674884
  927 1  17.999619 -37.848341 -1.674884
  928 1  19.237655 -37.152880 -1.674884
  929 1  16.744853 -39.963705 -1.674884
  930 1  15.523548 -39.239265 -1.674884
  931 1  15.540278 -37.819364 -1.674884
  932 1  16.778314 -37.123902 -1.674884
  933 1  14.285512 -39.934727 -1.674884
  934 1  13.064206 -39.210288 -1.674884
  935 1  13.080936 -37.790386 -1.674884
  936 1  14.318972 -37.094924 -1.674884
  937 1  11.826170 -39.905750 -1.674884
  938 1  10.604865 -39.181310 -1.674884
  939 1  10.621595 -37.761409 -1.674884
  940 1  11.859631 -37.065947 -1.674884
  941 1   9.366829 -39.876772 -1.674884
  942 1   8.145523 -39.152333 -1.674884
  943 1   8.162254 -37.732431 -1.674884
  944 1   9.400289 -37.036969 -1.674884
  945 1   6.907487 -39.847795 -1.674884
  946 1   5.686182 -39.123355 -1.674884
  947 1   5.702912 -37.703454 -1.674884
  948 1   6.940948 -37.007992 -1.674884
  949 1   4.448146 -39.818817 -1.674884
  950 1   3.226840 -39.094377 -1.674884
  951 1   3.243571 -37.674476 -1.674884
  952 1   4.481606 -36.979014 -1.674884
  953 1   1.988805 -39.789839 -1.674884
  954 1   0.767499 -39.065400 -1.674884
  955 1   0.784229 -37.645498 -1.674884
  956 1   2.022265 -36.950036 -1.674884
  957 1  -0.470537 -39.760862 -1.674884
  958 1  -1.691842 -39.036422 -1.674884
  959 1  -1.675112 -37.616521 -1.674884
  960 1  -0.437076 -36.921059 -1.674884
  961 1  -2.929878 -39.731884 -1.674884
  962 1  -4.151184 -39.007445 -1.674884
  963 1  -4.134454 -37.587543 -1.674884
  964 1  -2.896418 -36.892081 -1.674884
  965 1  -5.389220 -39.702907 -1.674884
  966 1  -6.610525 -38.978467 -1.674884
  967 1  -6.593795 -37.558566 -1.674884
  968 1  -5.355759 -36.863104 -1.674884
  969 1  -7.848561 -39.673929 -1.674884
  970 1  -9.069867 -38.949490 -1.674884
  971 1  -9.053137 -37.529588 -1.674884
  972 1  -7.815101 -36.834126 -1.674884
  973 1 -10.307903 -39.644951 -1.674884
  974 1 -11.529208 -38.920512 -1.674884
  975 1 -11.512478 -37.500610 -1.674884
  976 1 -10.274442 -36.805149 -1.674884
  977 1 -12.767244 -39.615974 -1.674884
  978 1 -13.988550 -38.891534 -1.674884
  979 1 -13.971819 -37.471633 -1.674884
  980 1 -12.733784 -36.776171 -1.674884
  981 1 -15.226585 -39.586996 -1.674884
  982 1 -16.447891 -38.862557 -1.674884
  983 1 -16.431161 -37.442655 -1.674884
  984 1 -15.193125 -36.747193 -1.674884
  985 1 -17.685927 -39.558019 -1.674884
  986 1 -18.907232 -38.833579 -1.674884
  987 1 -18.890502 -37.413678 -1.674884
  988 1 -17.652466 -36.718216 -1.674884
  989 1 -20.145268 -39.529041 -1.674884
  990 1 -21.366574 -38.804602 -1.674884
  991 1 -21.349844 -37.384700 -1.674884
  992 1 -20.111808 -36.689238 -1.674884
  993 1 -22.604610 -39.500064 -1.674884
  994 1 -23.825915 -38.775624 -1.674884
  995 1 -23.809185 -37.355723 -1.674884
  996 1 -22.571149 -36.660261 -1.674884
  997 1 -25.063951 -39.471086 -1.674884
  998 1 -26.285257 -38.746646 -1.674884
  999 1 -26.268527 -37.326745 -1.674884
 1000 1 -25.030491 -36.631283 -1.674884
 1001 1 -27.523293 -39.442108 -1.674884
 1002 1 -28.744598 -38.717669 -1.674884
 1003 1 -28.727868 -37.297767 -1.674884
 1004 1 -27.489832 -36.602306 -1.674884
 1005 1 -29.982634 -39.413131 -1.674884
 1006 1 -31.203940 -38.688691 -1.674884
 1007 1 -31.187209 -37.268790 -1.674884
 1008 1 -29.949174 -36.573328 -1.674884
 1009 1 -32.441975 -39.384153 -1.674884
 1010 1 -33.663281 -38.659714 -1.674884
 1011 1 -33.646551 -37.239812 -1.674884
 1012 1 -32.408515 -36.544350 -1.674884
 1013 1 -34.901317 -39.355176 -1.674884
 1014 1 -36.122623 -38.630736 -1.674884
 1015 1 -36.105892 -37.210835 -1.674884
 1016 1 -34.867857 -36.515373 -1.674884
 1017 1 -37.360658 -39.326198 -1.674884
 1018 1 -38.581964 -38.601759 -1.674884
 1019 1 -38.565234 -37.181857 -1.674884
 1020 1 -37.327198 -36.486395 -1.674884
 1021 1 -39.820000 -39.297220 -1.674884
 1022 1 -41.041305 -38.572781 -1.674884
 1023 1 -41.024575 -37.152880 -1.674884
 1024 1 -39.786539 -36.457418 -1.674884
 1025 1 -42.279341 -39.268243 -1.674884
 1026 1 -43.500647 -38.543803 -1.674884
 1027 1 -43.483917 -37.123902 -1.674884
 1028 1 -42.245881 -36.428440 -1.674884
 1029 1 -44.738683 -39.239265 -1.674884
 1030 1 -45.959988 -38.514826 -1.674884
 1031 1 -45.943258 -37.094924 -1.674884
 1032 1 -44.705222 -36.399462 -1.674884
 1033 1 -47.198024 -39.210288 -1.674884
 1034 1 -48.419330 -38.485848 -1.674884
 1035 1 -48.402600 -37.065947 -1.674884
 1036 1 -47.164564 -36.370485 -1.674884
 1037 1 -49.657366 -39.181310 -1.674884
 1038 1 -50.878671 -38.456871 -1.674884
 1039 1 -50.861941 -37.036969 -1.674884
 1040 1 -49.623905 -36.341507 -1.674884
 1041 1 -52.116707 -39.152333 -1.674884
 1042 1 -53.338013 -38.427893 -1.674884
 1043 1 -53.321282 -37.007992 -1.674884
 1044 1 -52.083247 -36.312530 -1.674884
 1045 1 -54.576048 -39.123355 -1.674884
 1046 1 -55.797354 -38.398915 -1.674884
 1047 1 -55.780624 -36.979014 -1.674884
 1048 1 -54.542588 -36.283552 -1.674884
 1049 1 -57.035390 -39.094377 -1.674884
 1050 1 -58.256695 -38.369938 -1.674884
 1051 1 -58.239965 -36.950036 -1.674884
 1052 1 -57.001929 -36.254575 -1.674884
 1053 1 -59.494731 -39.065400 -1.674884
 1054 1 -60.716037 -38.340960 -1.674884
 1055 1 -60.699307 -36.921059 -1.674884
 1056 1 -59.461271 -36.225597 -1.674884
 1057 1 -61.954073 -39.036422 -1.674884
 1058 1 -63.175378 -38.311983 -1.674884
 1059 1 -63.158648 -36.892081 -1.674884
 1060 1 -61.920612 -36.196619 -1.674884
 1061 1 -64.413414 -39.007445 -1.674884
 1062 1 -65.634720 -38.283005 -1.674884
 1063 1 -65.617990 -36.863104 -1.674884
 1064 1 -64.379954 -36.167642 -1.674884
 1065 1 -66.872756 -38.978467 -1.674884
 1066 1 -68.094061 -38.254028 -1.674884
 1067 1 -68.077331 -36.834126 -1.674884
 1068 1 -66.839295 -36.138664 -1.674884
 1069 1 -69.332097 -38.949490 -1.674884
 1070 1 -70.553403 -38.225050 -1.674884
 1071 1 -70.536672 -36.805149 -1.674884
 1072 1 -69.298637 -36.109687 -1.674884
 1073 1 -71.791438 -38.920512 -1.674884
 1074 1 -73.012744 -38.196072 -1.674884
 1075 1 -72.996014 -36.776171 -1.674884
 1076 1 -71.757978 -36.080709 -1.674884
 1077 1 -74.250780 -38.891534 -1.674884
 1078 1 -75.472086 -38.167095 -1.674884
 1079 1 -75.455355 -36.747193 -1.674884
 1080 1 -74.217319 -36.051731 -1.674884
 1081 1 -76.710121 -38.862557 -1.674884
 1082 1 -77.931427 -38.138117 -1.674884
 1083 1 -77.914697 -36.718216 -1.674884
 1084 1 -76.676661 -36.022754 -1.674884
 1085 1 -79.169463 -38.833579 -1.674884
 1086 1 -80.390768 -38.109140 -1.674884
 1087 1 -80.374038 -36.689238 -1.674884
 1088 1 -79.136002 -35.993776 -1.674884
 1089 1 -81.628804 -38.804602 -1.674884
 1090 1 -82.850110 -38.080162 -1.674884
 1091 1 -82.833380 -36.660261 -1.674884
 1092 1 -81.595344 -35.964799 -1.674884
 1093 1 -84.088146 -38.775624 -1.674884
 1094 1 -85.309451 -38.051185 -1.674884
 1095 1 -85.292721 -36.631283 -1.674884
 1096 1 -84.054685 -35.935821 -1.674884
 1097 1 -86.547487 -38.746646 -1.674884
 1098 1 -87.768793 -38.022207 -1.674884
 1099 1 -87.752062 -36.602306 -1.674884
 1100 1 -86.514027 -35.906844 -1.674884
 1101 1 -89.006829 -38.717669 -1.674884
 1102 1 -90.228134 -37.993229 -1.674884
 1103 1 -90.211404 -36.573328 -1.674884
 1104 1 -88.973368 -35.877866 -1.674884
 1105 1  89.353981 -35.848888 -1.674884
 1106 1  89.370712 -34.428987 -1.674884
 1107 1  88.115946 -36.544350 -1.674884
 1108 1  86.894640 -35.819911 -1.674884
 1109 1  86.911370 -34.400009 -1.674884
 1110 1  88.149406 -33.704547 -1.674884
 1111 1  85.656604 -36.515373 -1.674884
 1112 1  84.435298 -35.790933 -1.674884
 1113 1  84.452029 -34.371032 -1.674884
 1114 1  85.690065 -33.675570 -1.674884
 1115 1  83.197263 -36.486395 -1.674884
 1116 1  81.975957 -35.761956 -1.674884
 1117 1  81.992687 -34.342054 -1.674884
 1118 1  83.230723 -33.646592 -1.674884
 1119 1  80.737921 -36.457418 -1.674884
 1120 1  79.516616 -35.732978 -1.674884
 1121 1  79.533346 -34.313077 -1.674884
 1122 1  80.771382 -33.617615 -1.674884
 1123 1  78.278580 -36.428440 -1.674884
 1124 1  77.057274 -35.704001 -1.674884
 1125 1  77.074004 -34.284099 -1.674884
 1126 1  78.312040 -33.588637 -1.674884
 1127 1  75.819238 -36.399462 -1.674884
 1128 1  74.597933 -35.675023 -1.674884
 1129 1  74.614663 -34.255121 -1.674884
 1130 1  75.852699 -33.559660 -1.674884
 1131 1  73.359897 -36.370485 -1.674884
 1132 1  72.138591 -35.646045 -1.674884
 1133 1  72.155322 -34.226144 -1.674884
 1134 1  73.393357 -33.530682 -1.674884
 1135 1  70.900555 -36.341507 -1.674884
 1136 1  69.679250 -35.617068 -1.674884
 1137 1  69.695980 -34.197166 -1.674884
 1138 1  70.934016 -33.501704 -1.674884
 1139 1  68.441214 -36.312530 -1.674884
 1140 1  67.219908 -35.588090 -1.674884
 1141 1  67.236639 -34.168189 -1.674884
 1142 1  68.474674 -33.472727 -1.674884
 1143 1  65.981873 -36.283552 -1.674884
 1144 1  64.760567 -35.559113 -1.674884
 1145 1  64.777297 -34.139211 -1.674884
 1146 1  66.015333 -33.443749 -1.674884
 1147 1  63.522531 -36.254575 -1.674884
 1148 1  62.301226 -35.530135 -1.674884
 1149 1  62.317956 -34.110234 -1.674884
 1150 1  63.555992 -33.414772 -1.674884
 1151 1  61.063190 -36.225597 -1.674884
 1152 1  59.841884 -35.501157 -1.674884
 1153 1  59.858614 -34.081256 -1.674884
 1154 1  61.096650 -33.385794 -1.674884
 1155 1  58.603848 -36.196619 -1.674884
 1156 1  57.382543 -35.472180 -1.674884
 1157 1  57.399273 -34.052278 -1.674884
 1158 1  58.637309 -33.356816 -1.674884
 1159 1  56.144507 -36.167642 -1.674884
 1160 1  54.923201 -35.443202 -1.674884
 1161 1  54.939931 -34.023301 -1.674884
 1162 1  56.177967 -33.327839 -1.674884
 1163 1  53.685165 -36.138664 -1.674884
 1164 1  52.463860 -35.414225 -1.674884
 1165 1  52.480590 -33.994323 -1.674884
 1166 1  53.718626 -33.298861 -1.674884
 1167 1  51.225824 -36.109687 -1.674884
 1168 1  50.004518 -35.385247 -1.674884
 1169 1  50.021249 -33.965346 -1.674884
 1170 1  51.259284 -33.269884 -1.674884
 1171 1  48.766483 -36.080709 -1.674884
 1172 1  47.545177 -35.356270 -1.674884
 1173 1  47.561907 -33.936368 -1.674884
 1174 1  48.799943 -33.240906 -1.674884
 1175 1  46.307141 -36.051731 -1.674884
 1176 1  45.085835 -35.327292 -1.674884
 1177 1  45.102566 -33.907391 -1.674884
 1178 1  46.340602 -33.211929 -1.674884
 1179 1  43.847800 -36.022754 -1.674884
 1180 1  42.626494 -35.298314 -1.674884
 1181 1  42.643224 -33.878413 -1.674884
 1182 1  43.881260 -33.182951 -1.674884
 1183 1  41.388458 -35.993776 -1.674884
 1184 1  40.167153 -35.269337 -1.674884
 1185 1  40.183883 -33.849435 -1.674884
 1186 1  41.421919 -33.153973 -1.674884
 1187 1  38.929117 -35.964799 -1.674884
 1188 1  37.707811 -35.240359 -1.674884
 1189 1  37.724541 -33.820458 -1.674884
 1190 1  38.962577 -33.124996 -1.674884
 1191 1  36.469775 -35.935821 -1.674884
 1192 1  35.248470 -35.211382 -1.674884
 1193 1  35.265200 -33.791480 -1.674884
 1194 1  36.503236 -33.096018 -1.674884
 1195 1  34.010434 -35.906844 -1.674884
 1196 1  32.789128 -35.182404 -1.674884
 1197 1  32.805859 -33.762503 -1.674884
 1198 1  34.043894 -33.067041 -1.674884
 1199 1  31.551092 -35.877866 -1.674884
 1200 1  30.329787 -35.153426 -1.674884
 1201 1  30.346517 -33.733525 -1.674884
 1202 1  31.584553 -33.038063 -1.674884
 1203 1  29.091751 -35.848888 -1.674884
 1204 1  27.870445 -35.124449 -1.674884
 1205 1  27.887176 -33.704547 -1.674884
 1206 1  29.125211 -33.009086 -1.674884
 1207 1  26.632410 -35.819911 -1.674884
 1208 1  25.411104 -35.095471 -1.674884
 1209 1  25.427834 -33.675570 -1.674884
 1210 1  26.665870 -32.980108 -1.674884
 1211 1  24.173068 -35.790933 -1.674884
 1212 1  22.951763 -35.066494 -1.674884
 1213 1  22.968493 -33.646592 -1.674884
 1214 1  24.206529 -32.951130 -1.674884
 1215 1  21.713727 -35.761956 -1.674884
 1216 1  20.492421 -35.037516 -1.674884
 1217 1  20.509151 -33.617615 -1.674884
 1218 1  21.747187 -32.922153 -1.674884
 1219 1  19.254385 -35.732978 -1.674884
 1220 1  18.033080 -35.008539 -1.674884
 1221 1  18.049810 -33.588637 -1.674884
 1222 1  19.287846 -32.893175 -1.674884
 1223 1  16.795044 -35.704001 -1.674884
 1224 1  15.573738 -34.979561 -1.674884
 1225 1  15.590468 -33.559660 -1.674884
 1226 1  16.828504 -32.864198 -1.674884
 1227 1  14.335702 -35.675023 -1.674884
 1228 1  13.114397 -34.950583 -1.674884
 1229 1  13.131127 -33.530682 -1.674884
 1230 1  14.369163 -32.835220 -1.674884
 1231 1  11.876361 -35.646045 -1.674884
 1232 1  10.655055 -34.921606 -1.674884
 1233 1  10.671786 -33.501704 -1.674884
 1234 1  11.909821 -32.806242 -1.674884
 1235 1   9.417020 -35.617068 -1.674884
 1236 1   8.195714 -34.892628 -1.674884
 1237 1   8.212444 -33.472727 -1.674884
 1238 1   9.450480 -32.777265 -1.674884
 1239 1   6.957678 -35.588090 -1.674884
 1240 1   5.736373 -34.863651 -1.674884
 1241 1   5.753103 -33.443749 -1.674884
 1242 1   6.991139 -32.748287 -1.674884
 1243 1   4.498337 -35.559113 -1.674884
 1244 1   3.277031 -34.834673 -1.674884
 1245 1   3.293761 -33.414772 -1.674884
 1246 1   4.531797 -32.719310 -1.674884
 1247 1   2.038995 -35.530135 -1.674884
 1248 1   0.817690 -34.805696 -1.674884
 1249 1   0.834420 -33.385794 -1.674884
 1250 1   2.072456 -32.690332 -1.674884
 1251 1  -0.420346 -35.501157 -1.674884
 1252 1  -1.641652 -34.776718 -1.674884
 1253 1  -1.624922 -33.356816 -1.674884
 1254 1  -0.386886 -32.661355 -1.674884
 1255 1  -2.879688 -35.472180 -1.674884
 1256 1  -4.100993 -34.747740 -1.674884
 1257 1  -4.084263 -33.327839 -1.674884
 1258 1  -2.846227 -32.632377 -1.674884
 1259 1  -5.339029 -35.443202 -1.674884
 1260 1  -6.560335 -34.718763 -1.674884
 1261 1  -6.543604 -33.298861 -1.674884
 1262 1  -5.305569 -32.603399 -1.674884
 1263 1  -7.798370 -35.414225 -1.674884
 1264 1  -9.019676 -34.689785 -1.674884
 1265 1  -9.002946 -33.269884 -1.674884
 1266 1  -7.764910 -32.574422 -1.674884
 1267 1 -10.257712 -35.385247 -1.674884
 1268 1 -11.479018 -34.660808 -1.674884
 1269 1 -11.462287 -33.240906 -1.674884
 1270 1 -10.224252 -32.545444 -1.674884
 1271 1 -12.717053 -35.356270 -1.674884
 1272 1 -13.938359 -34.631830 -1.674884
 1273 1 -13.921629 -33.211929 -1.674884
 1274 1 -12.683593 -32.516467 -1.674884
 1275 1 -15.176395 -35.327292 -1.674884
 1276 1 -16.397700 -34.602852 -1.674884
 1277 1 -16.380970 -33.182951 -1.674884
 1278 1 -15.142934 -32.487489 -1.674884
 1279 1 -17.635736 -35.298314 -1.674884
 1280 1 -18.857042 -34.573875 -1.674884
 1281 1 -18.840312 -33.153973 -1.674884
 1282 1 -17.602276 -32.458512 -1.674884
 1283 1 -20.095078 -35.269337 -1.674884
 1284 1 -21.316383 -34.544897 -1.674884
 1285 1 -21.299653 -33.124996 -1.674884
 1286 1 -20.061617 -32.429534 -1.674884
 1287 1 -22.554419 -35.240359 -1.674884
 1288 1 -23.775725 -34.515920 -1.674884
 1289 1 -23.758995 -33.096018 -1.674884
 1290 1 -22.520959 -32.400556 -1.674884
 1291 1 -25.013761 -35.211382 -1.674884
 1292 1 -26.235066 -34.486942 -1.674884
 1293 1 -26.218336 -33.067041 -1.674884
 1294 1 -24.980300 -32.371579 -1.674884
 1295 1 -27.473102 -35.182404 -1.674884
 1296 1 -28.694408 -34.457965 -1.674884
 1297 1 -28.677677 -33.038063 -1.674884
 1298 1 -27.439642 -32.342601 -1.674884
 1299 1 -29.932443 -35.153426 -1.674884
 1300 1 -31.153749 -34.428987 -1.674884
 1301 1 -31.137019 -33.009086 -1.674884
 1302 1 -29.898983 -32.313624 -1.674884
 1303 1 -32.391785 -35.124449 -1.674884
 1304 1 -33.613090 -34.400009 -1.674884
 1305 1 -33.596360 -32.980108 -1.674884
 1306 1 -32.358324 -32.284646 -1.674884
 1307 1 -34.851126 -35.095471 -1.674884
 1308 1 -36.072432 -34.371032 -1.674884
 1309 1 -36.055702 -32.951130 -1.674884
 1310 1 -34.817666 -32.255668 -1.674884
 1311 1 -37.310468 -35.066494 -1.674884
 1312 1 -38.531773 -34.342054 -1.674884
 1313 1 -38.515043 -32.922153 -1.674884
 1314 1 -37.277007 -32.226691 -1.674884
 1315 1 -39.769809 -35.037516 -1.674884
 1316 1 -40.991115 -34.313077 -1.674884
 1317 1 -40.974385 -32.893175 -1.674884
 1318 1 -39.736349 -32.197713 -1.674884
 1319 1 -42.229151 -35.008539 -1.674884
 1320 1 -43.450456 -34.284099 -1.674884
 1321 1 -43.433726 -32.864198 -1.674884
 1322 1 -42.195690 -32.168736 -1.674884
 1323 1 -44.688492 -34.979561 -1.674884
 1324 1 -45.909798 -34.255121 -1.674884
 1325 1 -45.893067 -32.835220 -1.674884
 1326 1 -44.655032 -32.139758 -1.674884
 1327 1 -47.147833 -34.950583 -1.674884
 1328 1 -48.369139 -34.226144 -1.674884
 1329 1 -48.352409 -32.806242 -1.674884
 1330 1 -47.114373 -32.110781 -1.674884
 1331 1 -49.607175 -34.921606 -1.674884
 1332 1 -50.828481 -34.197166 -1.674884
 1333 1 -50.811750 -32.777265 -1.674884
 1334 1 -49.573714 -32.081803 -1.674884
 1335 1 -52.066516 -34.892628 -1.674884
 1336 1 -53.287822 -34.168189 -1.674884
 1337 1 -53.271092 -32.748287 -1.674884
 1338 1 -52.033056 -32.052825 -1.674884
 1339 1 -54.525858 -34.863651 -1.674884
 1340 1 -55.747163 -34.139211 -1.674884
 1341 1 -55.730433 -32.719310 -1.674884
 1342 1 -54.492397 -32.023848 -1.674884
 1343 1 -56.985199 -34.834673 -1.674884
 1344 1 -58.206505 -34.110234 -1.674884
 1345 1 -58.189775 -32.690332 -1.674884
 1346 1 -56.951739 -31.994870 -1.674884
 1347 1 -59.444541 -34.805696 -1.674884
 1348 1 -60.665846 -34.081256 -1.674884
 1349 1 -60.649116 -32.661355 -1.674884
 1350 1 -59.411080 -31.965893 -1.674884
 1351 1 -61.903882 -34.776718 -1.674884
 1352 1 -63.125188 -34.052278 -1.674884
 1353 1 -63.108457 -32.632377 -1.674884
 1354 1 -61.870422 -31.936915 -1.674884
 1355 1 -64.363224 -34.747740 -1.674884
 1356 1 -65.584529 -34.023301 -1.674884
 1357 1 -65.567799 -32.603399 -1.674884
 1358 1 -64.329763 -31.907937 -1.674884
 1359 1 -66.822565 -34.718763 -1.674884
 1360 1 -68.043871 -33.994323 -1.674884
 1361 1 -68.027140 -32.574422 -1.674884
 1362 1 -66.789105 -31.878960 -1.674884
 1363 1 -69.281906 -34.689785 -1.674884
 1364 1 -70.503212 -33.965346 -1.674884
 1365 1 -70.486482 -32.545444 -1.674884
 1366 1 -69.248446 -31.849982 -1.674884
 1367 1 -71.741248 -34.660808 -1.674884
 1368 1 -72.962553 -33.936368 -1.674884
 1369 1 -72.945823 -32.516467 -1.674884
 1370 1 -71.707787 -31.821005 -1.674884
 1371 1 -74.200589 -34.631830 -1.674884
 1372 1 -75.421895 -33.907391 -1.674884
 1373 1 -75.405165 -32.487489 -1.674884
 1374 1 -74.167129 -31.792027 -1.674884
 1375 1 -76.659931 -34.602852 -1.674884
 1376 1 -77.881236 -33.878413 -1.674884
 1377 1 -77.864506 -32.458512 -1.674884
 1378 1 -76.626470 -31.763050 -1.674884
 1379 1 -79.119272 -34.573875 -1.674884
 1380 1 -80.340578 -33.849435 -1.674884
 1381 1 -80.323848 -32.429534 -1.674884
 1382 1 -79.085812 -31.734072 -1.674884
 1383 1 -81.578614 -34.544897 -1.674884
 1384 1 -82.799919 -33.820458 -1.674884
 1385 1 -82.783189 -32.400556 -1.674884
 1386 1 -81.545153 -31.705094 -1.674884
 1387 1 -84.037955 -34.515920 -1.674884
 1388 1 -85.259261 -33.791480 -1.674884
 1389 1 -85.242530 -32.371579 -1.674884
 1390 1 -84.004495 -31.676117 -1.674884
 1391 1 -86.497296 -34.486942 -1.674884
 1392 1 -87.718602 -33.762503 -1.674884
 1393 1 -87.701872 -32.342601 -1.674884
 1394 1 -86.463836 -31.647139 -1.674884
 1395 1 -88.956638 -34.457965 -1.674884
 1396 1 -90.177944 -33.733525 -1.674884
 1397 1 -90.161213 -32.313624 -1.674884
 1398 1 -88.923177 -31.618162 -1.674884
 1399 1  89.404172 -31.589184 -1.674884
 1400 1  89.420902 -30.169283 -1.674884
 1401 1  88.166136 -32.284646 -1.674884
 1402 1  86.944831 -31.560207 -1.674884
 1403 1  86.961561 -30.140305 -1.674884
 1404 1  88.199597 -29.444843 -1.674884
 1405 1  85.706795 -32.255668 -1.674884
 1406 1  84.485489 -31.531229 -1.674884
 1407 1  84.502219 -30.111327 -1.674884
 1408 1  85.740255 -29.415866 -1.674884
 1409 1  83.247453 -32.226691 -1.674884
 1410 1  82.026148 -31.502251 -1.674884
 1411 1  82.042878 -30.082350 -1.674884
 1412 1  83.280914 -29.386888 -1.674884
 1413 1  80.788112 -32.197713 -1.674884
 1414 1  79.566806 -31.473274 -1.674884
 1415 1  79.583536 -30.053372 -1.674884
 1416 1  80.821572 -29.357910 -1.674884
 1417 1  78.328770 -32.168736 -1.674884
 1418 1  77.107465 -31.444296 -1.674884
 1419 1  77.124195 -30.024395 -1.674884
 1420 1  78.362231 -29.328933 -1.674884
 1421 1  75.869429 -32.139758 -1.674884
 1422 1  74.648123 -31.415319 -1.674884
 1423 1  74.664854 -29.995417 -1.674884
 1424 1  75.902889 -29.299955 -1.674884
 1425 1  73.410088 -32.110781 -1.674884
 1426 1  72.188782 -31.386341 -1.674884
 1427 1  72.205512 -29.966440 -1.674884
 1428 1  73.443548 -29.270978 -1.674884
 1429 1  70.950746 -32.081803 -1.674884
 1430 1  69.729440 -31.357363 -1.674884
 1431 1  69.746171 -29.937462 -1.674884
 1432 1  70.984207 -29.242000 -1.674884
 1433 1  68.491405 -32.052825 -1.674884
 1434 1  67.270099 -31.328386 -1.674884
 1435 1  67.286829 -29.908484 -1.674884
 1436 1  68.524865 -29.213022 -1.674884
 1437 1  66.032063 -32.023848 -1.674884
 1438 1  64.810758 -31.299408 -1.674884
 1439 1  64.827488 -29.879507 -1.674884
 1440 1  66.065524 -29.184045 -1.674884
 1441 1  63.572722 -31.994870 -1.674884
 1442 1  62.351416 -31.270431 -1.674884
 1443 1  62.368146 -29.850529 -1.674884
 1444 1  63.606182 -29.155067 -1.674884
 1445 1  61.113380 -31.965893 -1.674884
 1446 1  59.892075 -31.241453 -1.674884
 1447 1  59.908805 -29.821552 -1.674884
 1448 1  61.146841 -29.126090 -1.674884
 1449 1  58.654039 -31.936915 -1.674884
 1450 1  57.432733 -31.212476 -1.674884
 1451 1  57.449464 -29.792574 -1.674884
 1452 1  58.687499 -29.097112 -1.674884
 1453 1  56.194697 -31.907937 -1.674884
 1454 1  54.973392 -31.183498 -1.674884
 1455 1  54.990122 -29.763597 -1.674884
 1456 1  56.228158 -29.068135 -1.674884
 1457 1  53.735356 -31.878960 -1.674884
 1458 1  52.514050 -31.154520 -1.674884
 1459 1  52.530781 -29.734619 -1.674884
 1460 1  53.768816 -29.039157 -1.674884
 1461 1  51.276015 -31.849982 -1.674884
 1462 1  50.054709 -31.125543 -1.674884
 1463 1  50.071439 -29.705641 -1.674884
 1464 1  51.309475 -29.010179 -1.674884
 1465 1  48.816673 -31.821005 -1.674884
 1466 1  47.595368 -31.096565 -1.674884
 1467 1  47.612098 -29.676664 -1.674884
 1468 1  48.850134 -28.981202 -1.674884
 1469 1  46.357332 -31.792027 -1.674884
 1470 1  45.136026 -31.067588 -1.674884
 1471 1  45.152756 -29.647686 -1.674884
 1472 1  46.390792 -28.952224 -1.674884
 1473 1  43.897990 -31.763050 -1.674884
 1474 1  42.676685 -31.038610 -1.674884
 1475 1  42.693415 -29.618709 -1.674884
 1476 1  43.931451 -28.923247 -1.674884
 1477 1  41.438649 -31.734072 -1.674884
 1478 1  40.217343 -31.009632 -1.674884
 1479 1  40.234073 -29.589731 -1.674884
 1480 1  41.472109 -28.894269 -1.674884
 1481 1  38.979307 -31.705094 -1.674884
 1482 1  37.758002 -30.980655 -1.674884
 1483 1  37.774732 -29.560753 -1.674884
 1484 1  39.012768 -28.865292 -1.674884
 1485 1  36.519966 -31.676117 -1.674884
 1486 1  35.298660 -30.951677 -1.674884
 1487 1  35.315391 -29.531776 -1.674884
 1488 1  36.553426 -28.836314 -1.674884
 1489 1  34.060625 -31.647139 -1.674884
 1490 1  32.839319 -30.922700 -1.674884
 1491 1  32.856049 -29.502798 -1.674884
 1492 1  34.094085 -28.807336 -1.674884
 1493 1  31.601283 -31.618162 -1.674884
 1494 1  30.379978 -30.893722 -1.674884
 1495 1  30.396708 -29.473821 -1.674884
 1496 1  31.634744 -28.778359 -1.674884
 1497 1  29.141942 -31.589184 -1.674884
 1498 1  27.920636 -30.864745 -1.674884
 1499 1  27.937366 -29.444843 -1.674884
 1500 1  29.175402 -28.749381 -1.674884
 1501 1  26.682600 -31.560207 -1.674884
 1502 1  25.461295 -30.835767 -1.674884
 1503 1  25.478025 -29.415866 -1.674884
 1504 1  26.716061 -28.720404 -1.674884
 1505 1  24.223259 -31.531229 -1.674884
 1506 1  23.001953 -30.806789 -1.674884
 1507 1  23.018683 -29.386888 -1.674884
 1508 1  24.256719 -28.691426 -1.674884
 1509 1  21.763917 -31.502251 -1.674884
 1510 1  20.542612 -30.777812 -1.674884
 1511 1  20.559342 -29.357910 -1.674884
 1512 1  21.797378 -28.662448 -1.674884
 1513 1  19.304576 -31.473274 -1.674884
 1514 1  18.083270 -30.748834 -1.674884
 1515 1  18.100001 -29.328933 -1.674884
 1516 1  19.338036 -28.633471 -1.674884
 1517 1  16.845235 -31.444296 -1.674884
 1518 1  15.623929 -30.719857 -1.674884
 1519 1  15.640659 -29.299955 -1.674884
 1520 1  16.878695 -28.604493 -1.674884
 1521 1  14.385893 -31.415319 -1.674884
 1522 1  13.164587 -30.690879 -1.674884
 1523 1  13.181318 -29.270978 -1.674884
 1524 1  14.419353 -28.575516 -1.674884
 1525 1  11.926552 -31.386341 -1.674884
 1526 1  10.705246 -30.661902 -1.674884
 1527 1  10.721976 -29.242000 -1.674884
 1528 1  11.960012 -28.546538 -1.674884
 1529 1   9.467210 -31.357363 -1.674884
 1530 1   8.245905 -30.632924 -1.674884
 1531 1   8.262635 -29.213022 -1.674884
 1532 1   9.500671 -28.517561 -1.674884
 1533 1   7.007869 -31.328386 -1.674884
 1534 1   5.786563 -30.603946 -1.674884
 1535 1   5.803293 -29.184045 -1.674884
 1536 1   7.041329 -28.488583 -1.674884
 1537 1   4.548527 -31.299408 -1.674884
 1538 1   3.327222 -30.574969 -1.674884
 1539 1   3.343952 -29.155067 -1.674884
 1540 1   4.581988 -28.459605 -1.674884
 1541 1   2.089186 -31.270431 -1.674884
 1542 1   0.867880 -30.545991 -1.674884
 1543 1   0.884610 -29.126090 -1.674884
 1544 1   2.122646 -28.430628 -1.674884
 1545 1  -0.370156 -31.241453 -1.674884
 1546 1  -1.591461 -30.517014 -1.674884
 1547 1  -1.574731 -29.097112 -1.674884
 1548 1  -0.336695 -28.401650 -1.674884
 1549 1  -2.829497 -31.212476 -1.674884
 1550 1  -4.050803 -30.488036 -1.674884
 1551 1  -4.034072 -29.068135 -1.674884
 1552 1  -2.796037 -28.372673 -1.674884
 1553 1  -5.288838 -31.183498 -1.674884
 1554 1  -6.510144 -30.459058 -1.674884
 1555 1  -6.493414 -29.039157 -1.674884
 1556 1  -5.255378 -28.343695 -1.674884
 1557 1  -7.748180 -31.154520 -1.674884
 1558 1  -8.969485 -30.430081 -1.674884
 1559 1  -8.952755 -29.010179 -1.674884
 1560 1  -7.714719 -28.314718 -1.674884
 1561 1 -10.207521 -31.125543 -1.674884
 1562 1 -11.428827 -30.401103 -1.674884
 1563 1 -11.412097 -28.981202 -1.674884
 1564 1 -10.174061 -28.285740 -1.674884
 1565 1 -12.666863 -31.096565 -1.674884
 1566 1 -13.888168 -30.372126 -1.674884
 1567 1 -13.871438 -28.952224 -1.674884
 1568 1 -12.633402 -28.256762 -1.674884
 1569 1 -15.126204 -31.067588 -1.674884
 1570 1 -16.347510 -30.343148 -1.674884
 1571 1 -16.330780 -28.923247 -1.674884
 1572 1 -15.092744 -28.227785 -1.674884
 1573 1 -17.585546 -31.038610 -1.674884
 1574 1 -18.806851 -30.314171 -1.674884
 1575 1 -18.790121 -28.894269 -1.674884
 1576 1 -17.552085 -28.198807 -1.674884
 1577 1 -20.044887 -31.009632 -1.674884
 1578 1 -21.266193 -30.285193 -1.674884
 1579 1 -21.249462 -28.865292 -1.674884
 1580 1 -20.011427 -28.169830 -1.674884
 1581 1 -22.504228 -30.980655 -1.674884
 1582 1 -23.725534 -30.256215 -1.674884
 1583 1 -23.708804 -28.836314 -1.674884
 1584 1 -22.470768 -28.140852 -1.674884
 1585 1 -24.963570 -30.951677 -1.674884
 1586 1 -26.184876 -30.227238 -1.674884
 1587 1 -26.168145 -28.807336 -1.674884
 1588 1 -24.930109 -28.111874 -1.674884
 1589 1 -27.422911 -30.922700 -1.674884
 1590 1 -28.644217 -30.198260 -1.674884
 1591 1 -28.627487 -28.778359 -1.674884
 1592 1 -27.389451 -28.082897 -1.674884
 1593 1 -29.882253 -30.893722 -1.674884
 1594 1 -31.103558 -30.169283 -1.674884
 1595 1 -31.086828 -28.749381 -1.674884
 1596 1 -29.848792 -28.053919 -1.674884
 1597 1 -32.341594 -30.864745 -1.674884
 1598 1 -33.562900 -30.140305 -1.674884
 1599 1 -33.546170 -28.720404 -1.674884
 1600 1 -32.308134 -28.024942 -1.674884
 1601 1 -34.800936 -30.835767 -1.674884
 1602 1 -36.022241 -30.111327 -1.674884
 1603 1 -36.005511 -28.691426 -1.674884
 1604 1 -34.767475 -27.995964 -1.674884
 1605 1 -37.260277 -30.806789 -1.674884
 1606 1 -38.481583 -30.082350 -1.674884
 1607 1 -38.464852 -28.662448 -1.674884
 1608 1 -37.226817 -27.966987 -1.674884
 1609 1 -39.719619 -30.777812 -1.674884
 1610 1 -40.940924 -30.053372 -1.674884
 1611 1 -40.924194 -28.633471 -1.674884
 1612 1 -39.686158 -27.938009 -1.674884
 1613 1 -42.178960 -30.748834 -1.674884
 1614 1 -43.400266 -30.024395 -1.674884
 1615 1 -43.383535 -28.604493 -1.674884
 1616 1 -42.145500 -27.909031 -1.674884
 1617 1 -44.638301 -30.719857 -1.674884
 1618 1 -45.859607 -29.995417 -1.674884
 1619 1 -45.842877 -28.575516 -1.674884
 1620 1 -44.604841 -27.880054 -1.674884
 1621 1 -47.097643 -30.690879 -1.674884
 1622 1 -48.318948 -29.966440 -1.674884
 1623 1 -48.302218 -28.546538 -1.674884
 1624 1 -47.064182 -27.851076 -1.674884
 1625 1 -49.556984 -30.661902 -1.674884
 1626 1 -50.778290 -29.937462 -1.674884
 1627 1 -50.761560 -28.517561 -1.674884
 1628 1 -49.523524 -27.822099 -1.674884
 1629 1 -52.016326 -30.632924 -1.674884
 1630 1 -53.237631 -29.908484 -1.674884
 1631 1 -53.220901 -28.488583 -1.674884
 1632 1 -51.982865 -27.793121 -1.674884
 1633 1 -54.475667 -30.603946 -1.674884
 1634 1 -55.696973 -29.879507 -1.674884
 1635 1 -55.680243 -28.459605 -1.674884
 1636 1 -54.442207 -27.764143 -1.674884
 1637 1 -56.935009 -30.574969 -1.674884
 1638 1 -58.156314 -29.850529 -1.674884
 1639 1 -58.139584 -28.430628 -1.674884
 1640 1 -56.901548 -27.735166 -1.674884
 1641 1 -59.394350 -30.545991 -1.674884
 1642 1 -60.615656 -29.821552 -1.674884
 1643 1 -60.598925 -28.401650 -1.674884
 1644 1 -59.360890 -27.706188 -1.674884
 1645 1 -61.853691 -30.517014 -1.674884
 1646 1 -63.074997 -29.792574 -1.674884
 1647 1 -63.058267 -28.372673 -1.674884
 1648 1 -61.820231 -27.677211 -1.674884
 1649 1 -64.313033 -30.488036 -1.674884
 1650 1 -65.534338 -29.763597 -1.674884
 1651 1 -65.517608 -28.343695 -1.674884
 1652 1 -64.279572 -27.648233 -1.674884
 1653 1 -66.772374 -30.459058 -1.674884
 1654 1 -67.993680 -29.734619 -1.674884
 1655 1 -67.976950 -28.314718 -1.674884
 1656 1 -66.738914 -27.619256 -1.674884
 1657 1 -69.231716 -30.430081 -1.674884
 1658 1 -70.453021 -29.705641 -1.674884
 1659 1 -70.436291 -28.285740 -1.674884
 1660 1 -69.198255 -27.590278 -1.674884
 1661 1 -71.691057 -30.401103 -1.674884
 1662 1 -72.912363 -29.676664 -1.674884
 1663 1 -72.895633 -28.256762 -1.674884
 1664 1 -71.657597 -27.561300 -1.674884
 1665 1 -74.150399 -30.372126 -1.674884
 1666 1 -75.371704 -29.647686 -1.674884
 1667 1 -75.354974 -28.227785 -1.674884
 1668 1 -74.116938 -27.532323 -1.674884
 1669 1 -76.609740 -30.343148 -1.674884
 1670 1 -77.831046 -29.618709 -1.674884
 1671 1 -77.814315 -28.198807 -1.674884
 1672 1 -76.576280 -27.503345 -1.674884
 1673 1 -79.069082 -30.314171 -1.674884
 1674 1 -80.290387 -29.589731 -1.674884
 1675 1 -80.273657 -28.169830 -1.674884
 1676 1 -79.035621 -27.474368 -1.674884
 1677 1 -81.528423 -30.285193 -1.674884
 1678 1 -82.749729 -29.560753 -1.674884
 1679 1 -82.732998 -28.140852 -1.674884
 1680 1 -81.494963 -27.445390 -1.674884
 1681 1 -83.987764 -30.256215 -1.674884
 1682 1 -85.209070 -29.531776 -1.674884
 1683 1 -85.192340 -28.111874 -1.674884
 1684 1 -83.954304 -27.416413 -1.674884
 1685 1 -86.447106 -30.227238 -1.674884
 1686 1 -87.668411 -29.502798 -1.674884
 1687 1 -87.651681 -28.082897 -1.674884
 1688 1 -86.413645 -27.387435 -1.674884
 1689 1 -88.906447 -30.198260 -1.674884
 1690 1 -90.127753 -29.473821 -1.674884
 1691 1 -90.111023 -28.053919 -1.674884
 1692 1 -88.872987 -27.358457 -1.674884
 1693 1  89.454363 -27.329480 -1.674884
 1694 1  89.471093 -25.909578 -1.674884
 1695 1  88.216327 -28.024942 -1.674884
 1696 1  86.995021 -27.300502 -1.674884
 1697 1  87.011751 -25.880601 -1.674884
 1698 1  88.249787 -25.185139 -1.674884
 1699 1  85.756985 -27.995964 -1.674884
 1700 1  84.535680 -27.271525 -1.674884
 1701 1  84.552410 -25.851623 -1.674884
 1702 1  85.790446 -25.156161 -1.674884
 1703 1  83.297644 -27.966987 -1.674884
 1704 1  82.076338 -27.242547 -1.674884
 1705 1  82.093069 -25.822646 -1.674884
 1706 1  83.331104 -25.127184 -1.674884
 1707 1  80.838302 -27.938009 -1.674884
 1708 1  79.616997 -27.213569 -1.674884
 1709 1  79.633727 -25.793668 -1.674884
 1710 1  80.871763 -25.098206 -1.674884
 1711 1  78.378961 -27.909031 -1.674884
 1712 1  77.157655 -27.184592 -1.674884
 1713 1  77.174386 -25.764690 -1.674884
 1714 1  78.412421 -25.069229 -1.674884
 1715 1  75.919620 -27.880054 -1.674884
 1716 1  74.698314 -27.155614 -1.674884
 1717 1  74.715044 -25.735713 -1.674884
 1718 1  75.953080 -25.040251 -1.674884
 1719 1  73.460278 -27.851076 -1.674884
 1720 1  72.238973 -27.126637 -1.674884
 1721 1  72.255703 -25.706735 -1.674884
 1722 1  73.493739 -25.011273 -1.674884
 1723 1  71.000937 -27.822099 -1.674884
 1724 1  69.779631 -27.097659 -1.674884
 1725 1  69.796361 -25.677758 -1.674884
 1726 1  71.034397 -24.982296 -1.674884
 1727 1  68.541595 -27.793121 -1.674884
 1728 1  67.320290 -27.068682 -1.674884
 1729 1  67.337020 -25.648780 -1.674884
 1730 1  68.575056 -24.953318 -1.674884
 1731 1  66.082254 -27.764143 -1.674884
 1732 1  64.860948 -27.039704 -1.674884
 1733 1  64.877678 -25.619803 -1.674884
 1734 1  66.115714 -24.924341 -1.674884
 1735 1  63.622912 -27.735166 -1.674884
 1736 1  62.401607 -27.010726 -1.674884
 1737 1  62.418337 -25.590825 -1.674884
 1738 1  63.656373 -24.895363 -1.674884
 1739 1  61.163571 -27.706188 -1.674884
 1740 1  59.942265 -26.981749 -1.674884
 1741 1  59.958996 -25.561847 -1.674884
 1742 1  61.197031 -24.866385 -1.674884
 1743 1  58.704230 -27.677211 -1.674884
 1744 1  57.482924 -26.952771 -1.674884
 1745 1  57.499654 -25.532870 -1.674884
 1746 1  58.737690 -24.837408 -1.674884
 1747 1  56.244888 -27.648233 -1.674884
 1748 1  55.023583 -26.923794 -1.674884
 1749 1  55.040313 -25.503892 -1.674884
 1750 1  56.278349 -24.808430 -1.674884
 1751 1  53.785547 -27.619256 -1.674884
 1752 1  52.564241 -26.894816 -1.674884
 1753 1  52.580971 -25.474915 -1.674884
 1754 1  53.819007 -24.779453 -1.674884
 1755 1  51.326205 -27.590278 -1.674884
 1756 1  50.104900 -26.865838 -1.674884
 1757 1  50.121630 -25.445937 -1.674884
 1758 1  51.359666 -24.750475 -1.674884
 1759 1  48.866864 -27.561300 -1.674884
 1760 1  47.645558 -26.836861 -1.674884
 1761 1  47.662288 -25.416959 -1.674884
 1762 1  48.900324 -24.721498 -1.674884
 1763 1  46.407522 -27.532323 -1.674884
 1764 1  45.186217 -26.807883 -1.674884
 1765 1  45.202947 -25.387982 -1.674884
 1766 1  46.440983 -24.692520 -1.674884
 1767 1  43.948181 -27.503345 -1.674884
 1768 1  42.726875 -26.778906 -1.674884
 1769 1  42.743606 -25.359004 -1.674884
 1770 1  43.981641 -24.663542 -1.674884
 1771 1  41.488840 -27.474368 -1.674884
 1772 1  40.267534 -26.749928 -1.674884
 1773 1  40.284264 -25.330027 -1.674884
 1774 1  41.522300 -24.634565 -1.674884
 1775 1  39.029498 -27.445390 -1.674884
 1776 1  37.808192 -26.720951 -1.674884
 1777 1  37.824923 -25.301049 -1.674884
 1778 1  39.062959 -24.605587 -1.674884
 1779 1  36.570157 -27.416413 -1.674884
 1780 1  35.348851 -26.691973 -1.674884
 1781 1  35.365581 -25.272072 -1.674884
 1782 1  36.603617 -24.576610 -1.674884
 1783 1  34.110815 -27.387435 -1.674884
 1784 1  32.889510 -26.662995 -1.674884
 1785 1  32.906240 -25.243094 -1.674884
 1786 1  34.144276 -24.547632 -1.674884
 1787 1  31.651474 -27.358457 -1.674884
 1788 1  30.430168 -26.634018 -1.674884
 1789 1  30.446898 -25.214116 -1.674884
 1790 1  31.684934 -24.518654 -1.674884
 1791 1  29.192132 -27.329480 -1.674884
 1792 1  27.970827 -26.605040 -1.674884
 1793 1  27.987557 -25.185139 -1.674884
 1794 1  29.225593 -24.489677 -1.674884
 1795 1  26.732791 -27.300502 -1.674884
 1796 1  25.511485 -26.576063 -1.674884
 1797 1  25.528215 -25.156161 -1.674884
 1798 1  26.766251 -24.460699 -1.674884
 1799 1  24.273449 -27.271525 -1.674884
 1800 1  23.052144 -26.547085 -1.674884
 1801 1  23.068874 -25.127184 -1.674884
 1802 1  24.306910 -24.431722 -1.674884
 1803 1  21.814108 -27.242547 -1.674884
 1804 1  20.592802 -26.518108 -1.674884
 1805 1  20.609533 -25.098206 -1.674884
 1806 1  21.847568 -24.402744 -1.674884
 1807 1  19.354767 -27.213569 -1.674884
 1808 1  18.133461 -26.489130 -1.674884
 1809 1  18.150191 -25.069229 -1.674884
 1810 1  19.388227 -24.373767 -1.674884
 1811 1  16.895425 -27.184592 -1.674884
 1812 1  15.674120 -26.460152 -1.674884
 1813 1  15.690850 -25.040251 -1.674884
 1814 1  16.928886 -24.344789 -1.674884
 1815 1  14.436084 -27.155614 -1.674884
 1816 1  13.214778 -26.431175 -1.674884
 1817 1  13.231508 -25.011273 -1.674884
 1818 1  14.469544 -24.315811 -1.674884
 1819 1  11.976742 -27.126637 -1.674884
 1820 1  10.755437 -26.402197 -1.674884
 1821 1  10.772167 -24.982296 -1.674884
 1822 1  12.010203 -24.286834 -1.674884
 1823 1   9.517401 -27.097659 -1.674884
 1824 1   8.296095 -26.373220 -1.674884
 1825 1   8.312825 -24.953318 -1.674884
 1826 1   9.550861 -24.257856 -1.674884
 1827 1   7.058059 -27.068682 -1.674884
 1828 1   5.836754 -26.344242 -1.674884
 1829 1   5.853484 -24.924341 -1.674884
 1830 1   7.091520 -24.228879 -1.674884
 1831 1   4.598718 -27.039704 -1.674884
 1832 1   3.377412 -26.315264 -1.674884
 1833 1   3.394143 -24.895363 -1.674884
 1834 1   4.632178 -24.199901 -1.674884
 1835 1   2.139377 -27.010726 -1.674884
 1836 1   0.918071 -26.286287 -1.674884
 1837 1   0.934801 -24.866385 -1.674884
 1838 1   2.172837 -24.170924 -1.674884
 1839 1  -0.319965 -26.981749 -1.674884
 1840 1  -1.541271 -26.257309 -1.674884
 1841 1  -1.524540 -24.837408 -1.674884
 1842 1  -0.286504 -24.141946 -1.674884
 1843 1  -2.779306 -26.952771 -1.674884
 1844 1  -4.000612 -26.228332 -1.674884
 1845 1  -3.983882 -24.808430 -1.674884
 1846 1  -2.745846 -24.112968 -1.674884
 1847 1  -5.238648 -26.923794 -1.674884
 1848 1  -6.459953 -26.199354 -1.674884
 1849 1  -6.443223 -24.779453 -1.674884
 1850 1  -5.205187 -24.083991 -1.674884
 1851 1  -7.697989 -26.894816 -1.674884
 1852 1  -8.919295 -26.170377 -1.674884
 1853 1  -8.902565 -24.750475 -1.674884
 1854 1  -7.664529 -24.055013 -1.674884
 1855 1 -10.157331 -26.865838 -1.674884
 1856 1 -11.378636 -26.141399 -1.674884
 1857 1 -11.361906 -24.721498 -1.674884
 1858 1 -10.123870 -24.026036 -1.674884
 1859 1 -12.616672 -26.836861 -1.674884
 1860 1 -13.837978 -26.112421 -1.674884
 1861 1 -13.821247 -24.692520 -1.674884
 1862 1 -12.583212 -23.997058 -1.674884
 1863 1 -15.076014 -26.807883 -1.674884
 1864 1 -16.297319 -26.083444 -1.674884
 1865 1 -16.280589 -24.663542 -1.674884
 1866 1 -15.042553 -23.968080 -1.674884
 1867 1 -17.535355 -26.778906 -1.674884
 1868 1 -18.756661 -26.054466 -1.674884
 1869 1 -18.739930 -24.634565 -1.674884
 1870 1 -17.501895 -23.939103 -1.674884
 1871 1 -19.994696 -26.749928 -1.674884
 1872 1 -21.216002 -26.025489 -1.674884
 1873 1 -21.199272 -24.605587 -1.674884
 1874 1 -19.961236 -23.910125 -1.674884
 1875 1 -22.454038 -26.720951 -1.674884
 1876 1 -23.675343 -25.996511 -1.674884
 1877 1 -23.658613 -24.576610 -1.674884
 1878 1 -22.420577 -23.881148 -1.674884
 1879 1 -24.913379 -26.691973 -1.674884
 1880 1 -26.134685 -25.967533 -1.674884
 1881 1 -26.117955 -24.547632 -1.674884
 1882 1 -24.879919 -23.852170 -1.674884
 1883 1 -27.372721 -26.662995 -1.674884
 1884 1 -28.594026 -25.938556 -1.674884
 1885 1 -28.577296 -24.518654 -1.674884
 1886 1 -27.339260 -23.823193 -1.674884
 1887 1 -29.832062 -26.634018 -1.674884
 1888 1 -31.053368 -25.909578 -1.674884
 1889 1 -31.036638 -24.489677 -1.674884
 1890 1 -29.798602 -23.794215 -1.674884
 1891 1 -32.291404 -26.605040 -1.674884
 1892 1 -33.512709 -25.880601 -1.674884
 1893 1 -33.495979 -24.460699 -1.674884
 1894 1 -32.257943 -23.765237 -1.674884
 1895 1 -34.750745 -26.576063 -1.674884
 1896 1 -35.972051 -25.851623 -1.674884
 1897 1 -35.955320 -24.431722 -1.674884
 1898 1 -34.717285 -23.736260 -1.674884
 1899 1 -37.210086 -26.547085 -1.674884
 1900 1 -38.431392 -25.822646 -1.674884
 1901 1 -38.414662 -24.402744 -1.674884
 1902 1 -37.176626 -23.707282 -1.674884
 1903 1 -39.669428 -26.518108 -1.674884
 1904 1 -40.890733 -25.793668 -1.674884
 1905 1 -40.874003 -24.373767 -1.674884
 1906 1 -39.635967 -23.678305 -1.674884
 1907 1 -42.128769 -26.489130 -1.674884
 1908 1 -43.350075 -25.764690 -1.674884
 1909 1 -43.333345 -24.344789 -1.674884
 1910 1 -42.095309 -23.649327 -1.674884
 1911 1 -44.588111 -26.460152 -1.674884
 1912 1 -45.809416 -25.735713 -1.674884
 1913 1 -45.792686 -24.315811 -1.674884
 1914 1 -44.554650 -23.620349 -1.674884
 1915 1 -47.047452 -26.431175 -1.674884
 1916 1 -48.268758 -25.706735 -1.674884
 1917 1 -48.252028 -24.286834 -1.674884
 1918 1 -47.013992 -23.591372 -1.674884
 1919 1 -49.506794 -26.402197 -1.674884
 1920 1 -50.728099 -25.677758 -1.674884
 1921 1 -50.711369 -24.257856 -1.674884
 1922 1 -49.473333 -23.562394 -1.674884
 1923 1 -51.966135 -26.373220 -1.674884
 1924 1 -53.187441 -25.648780 -1.674884
 1925 1 -53.170710 -24.228879 -1.674884
 1926 1 -51.932675 -23.533417 -1.674884
 1927 1 -54.425477 -26.344242 -1.674884
 1928 1 -55.646782 -25.619803 -1.674884
 1929 1 -55.630052 -24.199901 -1.674884
 1930 1 -54.392016 -23.504439 -1.674884
 1931 1 -56.884818 -26.315264 -1.674884
 1932 1 -58.106124 -25.590825 -1.674884
 1933 1 -58.089393 -24.170924 -1.674884
 1934 1 -56.851358 -23.475462 -1.674884
 1935 1 -59.344159 -26.286287 -1.674884
 1936 1 -60.565465 -25.561847 -1.674884
 1937 1 -60.548735 -24.141946 -1.674884
 1938 1 -59.310699 -23.446484 -1.674884
 1939 1 -61.803501 -26.257309 -1.674884
 1940 1 -63.024806 -25.532870 -1.674884
 1941 1 -63.008076 -24.112968 -1.674884
 1942 1 -61.770040 -23.417506 -1.674884
 1943 1 -64.262842 -26.228332 -1.674884
 1944 1 -65.484148 -25.503892 -1.674884
 1945 1 -65.467418 -24.083991 -1.674884
 1946 1 -64.229382 -23.388529 -1.674884
 1947 1 -66.722184 -26.199354 -1.674884
 1948 1 -67.943489 -25.474915 -1.674884
 1949 1 -67.926759 -24.055013 -1.674884
 1950 1 -66.688723 -23.359551 -1.674884
 1951 1 -69.181525 -26.170377 -1.674884
 1952 1 -70.402831 -25.445937 -1.674884
 1953 1 -70.386101 -24.026036 -1.674884
 1954 1 -69.148065 -23.330574 -1.674884
 1955 1 -71.640867 -26.141399 -1.674884
 1956 1 -72.862172 -25.416959 -1.674884
 1957 1 -72.845442 -23.997058 -1.674884
 1958 1 -71.607406 -23.301596 -1.674884
 1959 1 -74.100208 -26.112421 -1.674884
 1960 1 -75.321514 -25.387982 -1.674884
 1961 1 -75.304783 -23.968080 -1.674884
 1962 1 -74.066748 -23.272619 -1.674884
 1963 1 -76.559549 -26.083444 -1.674884
 1964 1 -77.780855 -25.359004 -1.674884
 1965 1 -77.764125 -23.939103 -1.674884
 1966 1 -76.526089 -23.243641 -1.674884
 1967 1 -79.018891 -26.054466 -1.674884
 1968 1 -80.240196 -25.330027 -1.674884
 1969 1 -80.223466 -23.910125 -1.674884
 1970 1 -78.985430 -23.214663 -1.674884
 1971 1 -81.478232 -26.025489 -1.674884
 1972 1 -82.699538 -25.301049 -1.674884
 1973 1 -82.682808 -23.881148 -1.674884
 1974 1 -81.444772 -23.185686 -1.674884
 1975 1 -83.937574 -25.996511 -1.674884
 1976 1 -85.158879 -25.272072 -1.674884
 1977 1 -85.142149 -23.852170 -1.674884
 1978 1 -83.904113 -23.156708 -1.674884
 1979 1 -86.396915 -25.967533 -1.674884
 1980 1 -87.618221 -25.243094 -1.674884
 1981 1 -87.601491 -23.823193 -1.674884
 1982 1 -86.363455 -23.127731 -1.674884
 1983 1 -88.856257 -25.938556 -1.674884
 1984 1 -90.077562 -25.214116 -1.674884
 1985 1 -90.060832 -23.794215 -1.674884
 1986 1 -88.822796 -23.098753 -1.674884
 1987 1  89.504553 -23.069775 -1.674884
 1988 1  89.521283 -21.649874 -1.674884
 1989 1  88.266517 -23.765237 -1.674884
 1990 1  87.045212 -23.040798 -1.674884
 1991 1  87.061942 -21.620896 -1.674884
 1992 1  88.299978 -20.925435 -1.674884
 1993 1  85.807176 -23.736260 -1.674884
 1994 1  84.585870 -23.011820 -1.674884
 1995 1  84.602601 -21.591919 -1.674884
 1996 1  85.840636 -20.896457 -1.674884
 1997 1  83.347835 -23.707282 -1.674884
 1998 1  82.126529 -22.982843 -1.674884
 1999 1  82.143259 -21.562941 -1.674884
 2000 1  83.381295 -20.867479 -1.674884
 2001 1  80.888493 -23.678305 -1.674884
 2002 1  79.667188 -22.953865 -1.674884
 2003 1  79.683918 -21.533964 -1.674884
 2004 1  80.921954 -20.838502 -1.674884
 2005 1  78.429152 -23.649327 -1.674884
 2006 1  77.207846 -22.924888 -1.674884
 2007 1  77.224576 -21.504986 -1.674884
 2008 1  78.462612 -20.809524 -1.674884
 2009 1  75.969810 -23.620349 -1.674884
 2010 1  74.748505 -22.895910 -1.674884
 2011 1  74.765235 -21.476009 -1.674884
 2012 1  76.003271 -20.780547 -1.674884
 2013 1  73.510469 -23.591372 -1.674884
 2014 1  72.289163 -22.866932 -1.674884
 2015 1  72.305893 -21.447031 -1.674884
 2016 1  73.543929 -20.751569 -1.674884
 2017 1  71.051127 -23.562394 -1.674884
 2018 1  69.829822 -22.837955 -1.674884
 2019 1  69.846552 -21.418053 -1.674884
 2020 1  71.084588 -20.722591 -1.674884
 2021 1  68.591786 -23.533417 -1.674884
 2022 1  67.370480 -22.808977 -1.674884
 2023 1  67.387211 -21.389076 -1.674884
 2024 1  68.625246 -20.693614 -1.674884
 2025 1  66.132445 -23.504439 -1.674884
 2026 1  64.911139 -22.780000 -1.674884
 2027 1  64.927869 -21.360098 -1.674884
 2028 1  66.165905 -20.664636 -1.674884
 2029 1  63.673103 -23.475462 -1.674884
 2030 1  62.451797 -22.751022 -1.674884
 2031 1  62.468528 -21.331121 -1.674884
 2032 1  63.706564 -20.635659 -1.674884
 2033 1  61.213762 -23.446484 -1.674884
 2034 1  59.992456 -22.722044 -1.674884
 2035 1  60.009186 -21.302143 -1.674884
 2036 1  61.247222 -20.606681 -1.674884
 2037 1  58.754420 -23.417506 -1.674884
 2038 1  57.533115 -22.693067 -1.674884
 2039 1  57.549845 -21.273165 -1.674884
 2040 1  58.787881 -20.577704 -1.674884
 2041 1  56.295079 -23.388529 -1.674884
 2042 1  55.073773 -22.664089 -1.674884
 2043 1  55.090503 -21.244188 -1.674884
 2044 1  56.328539 -20.548726 -1.674884
 2045 1  53.835737 -23.359551 -1.674884
 2046 1  52.614432 -22.635112 -1.674884
 2047 1  52.631162 -21.215210 -1.674884
 2048 1  53.869198 -20.519748 -1.674884
 2049 1  51.376396 -23.330574 -1.674884
 2050 1  50.155090 -22.606134 -1.674884
 2051 1  50.171820 -21.186233 -1.674884
 2052 1  51.409856 -20.490771 -1.674884
 2053 1  48.917054 -23.301596 -1.674884
 2054 1  47.695749 -22.577157 -1.674884
 2055 1  47.712479 -21.157255 -1.674884
 2056 1  48.950515 -20.461793 -1.674884
 2057 1  46.457713 -23.272619 -1.674884
 2058 1  45.236407 -22.548179 -1.674884
 2059 1  45.253138 -21.128278 -1.674884
 2060 1  46.491173 -20.432816 -1.674884
 2061 1  43.998372 -23.243641 -1.674884
 2062 1  42.777066 -22.519201 -1.674884
 2063 1  42.793796 -21.099300 -1.674884
 2064 1  44.031832 -20.403838 -1.674884
 2065 1  41.539030 -23.214663 -1.674884
 2066 1  40.317725 -22.490224 -1.674884
 2067 1  40.334455 -21.070322 -1.674884
 2068 1  41.572491 -20.374860 -1.674884
 2069 1  39.079689 -23.185686 -1.674884
 2070 1  37.858383 -22.461246 -1.674884
 2071 1  37.875113 -21.041345 -1.674884
 2072 1  39.113149 -20.345883 -1.674884
 2073 1  36.620347 -23.156708 -1.674884
 2074 1  35.399042 -22.432269 -1.674884
 2075 1  35.415772 -21.012367 -1.674884
 2076 1  36.653808 -20.316905 -1.674884
 2077 1  34.161006 -23.127731 -1.674884
 2078 1  32.939700 -22.403291 -1.674884
 2079 1  32.956430 -20.983390 -1.674884
 2080 1  34.194466 -20.287928 -1.674884
 2081 1  31.701664 -23.098753 -1.674884
 2082 1  30.480359 -22.374314 -1.674884
 2083 1  30.497089 -20.954412 -1.674884
 2084 1  31.735125 -20.258950 -1.674884
 2085 1  29.242323 -23.069775 -1.674884
 2086 1  28.021017 -22.345336 -1.674884
 2087 1  28.037748 -20.925435 -1.674884
 2088 1  29.275783 -20.229973 -1.674884
 2089 1  26.782982 -23.040798 -1.674884
 2090 1  25.561676 -22.316358 -1.674884
 2091 1  25.578406 -20.896457 -1.674884
 2092 1  26.816442 -20.200995 -1.674884
 2093 1  24.323640 -23.011820 -1.674884
 2094 1  23.102334 -22.287381 -1.674884
 2095 1  23.119065 -20.867479 -1.674884
 2096 1  24.357101 -20.172017 -1.674884
 2097 1  21.864299 -22.982843 -1.674884
 2098 1  20.642993 -22.258403 -1.674884
 2099 1  20.659723 -20.838502 -1.674884
 2100 1  21.897759 -20.143040 -1.674884
 2101 1  19.404957 -22.953865 -1.674884
 2102 1  18.183652 -22.229426 -1.674884
 2103 1  18.200382 -20.809524 -1.674884
 2104 1  19.438418 -20.114062 -1.674884
 2105 1  16.945616 -22.924888 -1.674884
 2106 1  15.724310 -22.200448 -1.674884
 2107 1  15.741040 -20.780547 -1.674884
 2108 1  16.979076 -20.085085 -1.674884
 2109 1  14.486274 -22.895910 -1.674884
 2110 1  13.264969 -22.171470 -1.674884
 2111 1  13.281699 -20.751569 -1.674884
 2112 1  14.519735 -20.056107 -1.674884
 2113 1  12.026933 -22.866932 -1.674884
 2114 1  10.805627 -22.142493 -1.674884
 2115 1  10.822358 -20.722591 -1.674884
 2116 1  12.060393 -20.027130 -1.674884
 2117 1   9.567591 -22.837955 -1.674884
 2118 1   8.346286 -22.113515 -1.674884
 2119 1   8.363016 -20.693614 -1.674884
 2120 1   9.601052 -19.998152 -1.674884
 2121 1   7.108250 -22.808977 -1.674884
 2122 1   5.886944 -22.084538 -1.674884
 2123 1   5.903675 -20.664636 -1.674884
 2124 1   7.141710 -19.969174 -1.674884
 2125 1   4.648909 -22.780000 -1.674884
 2126 1   3.427603 -22.055560 -1.674884
 2127 1   3.444333 -20.635659 -1.674884
 2128 1   4.682369 -19.940197 -1.674884
 2129 1   2.189567 -22.751022 -1.674884
 2130 1   0.968262 -22.026583 -1.674884
 2131 1   0.984992 -20.606681 -1.674884
 2132 1   2.223028 -19.911219 -1.674884
 2133 1  -0.269774 -22.722044 -1.674884
 2134 1  -1.491080 -21.997605 -1.674884
 2135 1  -1.474350 -20.577704 -1.674884
 2136 1  -0.236314 -19.882242 -1.674884
 2137 1  -2.729116 -22.693067 -1.674884
 2138 1  -3.950421 -21.968627 -1.674884
 2139 1  -3.933691 -20.548726 -1.674884
 2140 1  -2.695655 -19.853264 -1.674884
 2141 1  -5.188457 -22.664089 -1.674884
 2142 1  -6.409763 -21.939650 -1.674884
 2143 1  -6.393033 -20.519748 -1.674884
 2144 1  -5.154997 -19.824286 -1.674884
 2145 1  -7.647799 -22.635112 -1.674884
 2146 1  -8.869104 -21.910672 -1.674884
 2147 1  -8.852374 -20.490771 -1.674884
 2148 1  -7.614338 -19.795309 -1.674884
 2149 1 -10.107140 -22.606134 -1.674884
 2150 1 -11.328446 -21.881695 -1.674884
 2151 1 -11.311715 -20.461793 -1.674884
 2152 1 -10.073680 -19.766331 -1.674884
 2153 1 -12.566481 -22.577157 -1.674884
 2154 1 -13.787787 -21.852717 -1.674884
 2155 1 -13.771057 -20.432816 -1.674884
 2156 1 -12.533021 -19.737354 -1.674884
 2157 1 -15.025823 -22.548179 -1.674884
 2158 1 -16.247128 -21.823739 -1.674884
 2159 1 -16.230398 -20.403838 -1.674884
 2160 1 -14.992362 -19.708376 -1.674884
 2161 1 -17.485164 -22.519201 -1.674884
 2162 1 -18.706470 -21.794762 -1.674884
 2163 1 -18.689740 -20.374860 -1.674884
 2164 1 -17.451704 -19.679399 -1.674884
 2165 1 -19.944506 -22.490224 -1.674884
 2166 1 -21.165811 -21.765784 -1.674884
 2167 1 -21.149081 -20.345883 -1.674884
 2168 1 -19.911045 -19.650421 -1.674884
 2169 1 -22.403847 -22.461246 -1.674884
 2170 1 -23.625153 -21.736807 -1.674884
 2171 1 -23.608423 -20.316905 -1.674884
 2172 1 -22.370387 -19.621443 -1.674884
 2173 1 -24.863189 -22.432269 -1.674884
 2174 1 -26.084494 -21.707829 -1.674884
 2175 1 -26.067764 -20.287928 -1.674884
 2176 1 -24.829728 -19.592466 -1.674884
 2177 1 -27.322530 -22.403291 -1.674884
 2178 1 -28.543836 -21.678852 -1.674884
 2179 1 -28.527105 -20.258950 -1.674884
 2180 1 -27.289070 -19.563488 -1.674884
 2181 1 -29.781871 -22.374314 -1.674884
 2182 1 -31.003177 -21.649874 -1.674884
 2183 1 -30.986447 -20.229973 -1.674884
 2184 1 -29.748411 -19.534511 -1.674884
 2185 1 -32.241213 -22.345336 -1.674884
 2186 1 -33.462519 -21.620896 -1.674884
 2187 1 -33.445788 -20.200995 -1.674884
 2188 1 -32.207753 -19.505533 -1.674884
 2189 1 -34.700554 -22.316358 -1.674884
 2190 1 -35.921860 -21.591919 -1.674884
 2191 1 -35.905130 -20.172017 -1.674884
 2192 1 -34.667094 -19.476555 -1.674884
 2193 1 -37.159896 -22.287381 -1.674884
 2194 1 -38.381201 -21.562941 -1.674884
 2195 1 -38.364471 -20.143040 -1.674884
 2196 1 -37.126435 -19.447578 -1.674884
 2197 1 -39.619237 -22.258403 -1.674884
 2198 1 -40.840543 -21.533964 -1.674884
 2199 1 -40.823813 -20.114062 -1.674884
 2200 1 -39.585777 -19.418600 -1.674884
 2201 1 -42.078579 -22.229426 -1.674884
 2202 1 -43.299884 -21.504986 -1.674884
 2203 1 -43.283154 -20.085085 -1.674884
 2204 1 -42.045118 -19.389623 -1.674884
 2205 1 -44.537920 -22.200448 -1.674884
 2206 1 -45.759226 -21.476009 -1.674884
 2207 1 -45.742496 -20.056107 -1.674884
 2208 1 -44.504460 -19.360645 -1.674884
 2209 1 -46.997262 -22.171470 -1.674884
 2210 1 -48.218567 -21.447031 -1.674884
 2211 1 -48.201837 -20.027130 -1.674884
 2212 1 -46.963801 -19.331668 -1.674884
 2213 1 -49.456603 -22.142493 -1.674884
 2214 1 -50.677909 -21.418053 -1.674884
 2215 1 -50.661178 -19.998152 -1.674884
 2216 1 -49.423143 -19.302690 -1.674884
 2217 1 -51.915944 -22.113515 -1.674884
 2218 1 -53.137250 -21.389076 -1.674884
 2219 1 -53.120520 -19.969174 -1.674884
 2220 1 -51.882484 -19.273712 -1.674884
 2221 1 -54.375286 -22.084538 -1.674884
 2222 1 -55.596591 -21.360098 -1.674884
 2223 1 -55.579861 -19.940197 -1.674884
 2224 1 -54.341825 -19.244735 -1.674884
 2225 1 -56.834627 -22.055560 -1.674884
 2226 1 -58.055933 -21.331121 -1.674884
 2227 1 -58.039203 -19.911219 -1.674884
 2228 1 -56.801167 -19.215757 -1.674884
 2229 1 -59.293969 -22.026583 -1.674884
 2230 1 -60.515274 -21.302143 -1.674884
 2231 1 -60.498544 -19.882242 -1.674884
 2232 1 -59.260508 -19.186780 -1.674884
 2233 1 -61.753310 -21.997605 -1.674884
 2234 1 -62.974616 -21.273165 -1.674884
 2235 1 -62.957886 -19.853264 -1.674884
 2236 1 -61.719850 -19.157802 -1.674884
 2237 1 -64.212652 -21.968627 -1.674884
 2238 1 -65.433957 -21.244188 -1.674884
 2239 1 -65.417227 -19.824286 -1.674884
 2240 1 -64.179191 -19.128825 -1.674884
 2241 1 -66.671993 -21.939650 -1.674884
 2242 1 -67.893299 -21.215210 -1.674884
 2243 1 -67.876568 -19.795309 -1.674884
 2244 1 -66.638533 -19.099847 -1.674884
 2245 1 -69.131334 -21.910672 -1.674884
 2246 1 -70.352640 -21.186233 -1.674884
 2247 1 -70.335910 -19.766331 -1.674884
 2248 1 -69.097874 -19.070869 -1.674884
 2249 1 -71.590676 -21.881695 -1.674884
 2250 1 -72.811982 -21.157255 -1.674884
 2251 1 -72.795251 -19.737354 -1.674884
 2252 1 -71.557215 -19.041892 -1.674884
 2253 1 -74.050017 -21.852717 -1.674884
 2254 1 -75.271323 -21.128278 -1.674884
 2255 1 -75.254593 -19.708376 -1.674884
 2256 1 -74.016557 -19.012914 -1.674884
 2257 1 -76.509359 -21.823739 -1.674884
 2258 1 -77.730664 -21.099300 -1.674884
 2259 1 -77.713934 -19.679399 -1.674884
 2260 1 -76.475898 -18.983937 -1.674884
 2261 1 -78.968700 -21.794762 -1.674884
 2262 1 -80.190006 -21.070322 -1.674884
 2263 1 -80.173276 -19.650421 -1.674884
 2264 1 -78.935240 -18.954959 -1.674884
 2265 1 -81.428042 -21.765784 -1.674884
 2266 1 -82.649347 -21.041345 -1.674884
 2267 1 -82.632617 -19.621443 -1.674884
 2268 1 -81.394581 -18.925981 -1.674884
 2269 1 -83.887383 -21.736807 -1.674884
 2270 1 -85.108689 -21.012367 -1.674884
 2271 1 -85.091958 -19.592466 -1.674884
 2272 1 -83.853923 -18.897004 -1.674884
 2273 1 -86.346725 -21.707829 -1.674884
 2274 1 -87.568030 -20.983390 -1.674884
 2275 1 -87.551300 -19.563488 -1.674884
 2276 1 -86.313264 -18.868026 -1.674884
 2277 1 -88.806066 -21.678852 -1.674884
 2278 1 -90.027372 -20.954412 -1.674884
 2279 1 -90.010641 -19.534511 -1.674884
 2280 1 -88.772606 -18.839049 -1.674884
 2281 1  89.554744 -18.810071 -1.674884
 2282 1  89.571474 -17.390170 -1.674884
 2283 1  88.316708 -19.505533 -1.674884
 2284 1  87.095402 -18.781094 -1.674884
 2285 1  87.112133 -17.361192 -1.674884
 2286 1  88.350169 -16.665730 -1.674884
 2287 1  85.857367 -19.476555 -1.674884
 2288 1  84.636061 -18.752116 -1.674884
 2289 1  84.652791 -17.332215 -1.674884
 2290 1  85.890827 -16.636753 -1.674884
 2291 1  83.398025 -19.447578 -1.674884
 2292 1  82.176720 -18.723138 -1.674884
 2293 1  82.193450 -17.303237 -1.674884
 2294 1  83.431486 -16.607775 -1.674884
 2295 1  80.938684 -19.418600 -1.674884
 2296 1  79.717378 -18.694161 -1.674884
 2297 1  79.734108 -17.274259 -1.674884
 2298 1  80.972144 -16.578797 -1.674884
 2299 1  78.479342 -19.389623 -1.674884
 2300 1  77.258037 -18.665183 -1.674884
 2301 1  77.274767 -17.245282 -1.674884
 2302 1  78.512803 -16.549820 -1.674884
 2303 1  76.020001 -19.360645 -1.674884
 2304 1  74.798695 -18.636206 -1.674884
 2305 1  74.815426 -17.216304 -1.674884
 2306 1  76.053461 -16.520842 -1.674884
 2307 1  73.560659 -19.331668 -1.674884
 2308 1  72.339354 -18.607228 -1.674884
 2309 1  72.356084 -17.187327 -1.674884
 2310 1  73.594120 -16.491865 -1.674884
 2311 1  71.101318 -19.302690 -1.674884
 2312 1  69.880012 -18.578250 -1.674884
 2313 1  69.896743 -17.158349 -1.674884
 2314 1  71.134778 -16.462887 -1.674884
 2315 1  68.641977 -19.273712 -1.674884
 2316 1  67.420671 -18.549273 -1.674884
 2317 1  67.437401 -17.129371 -1.674884
 2318 1  68.675437 -16.433910 -1.674884
 2319 1  66.182635 -19.244735 -1.674884
 2320 1  64.961330 -18.520295 -1.674884
 2321 1  64.978060 -17.100394 -1.674884
 2322 1  66.216096 -16.404932 -1.674884
 2323 1  63.723294 -19.215757 -1.674884
 2324 1  62.501988 -18.491318 -1.674884
 2325 1  62.518718 -17.071416 -1.674884
 2326 1  63.756754 -16.375954 -1.674884
 2327 1  61.263952 -19.186780 -1.674884
 2328 1  60.042647 -18.462340 -1.674884
 2329 1  60.059377 -17.042439 -1.674884
 2330 1  61.297413 -16.346977 -1.674884
 2331 1  58.804611 -19.157802 -1.674884
 2332 1  57.583305 -18.433363 -1.674884
 2333 1  57.600035 -17.013461 -1.674884
 2334 1  58.838071 -16.317999 -1.674884
 2335 1  56.345269 -19.128825 -1.674884
 2336 1  55.123964 -18.404385 -1.674884
 2337 1  55.140694 -16.984484 -1.674884
 2338 1  56.378730 -16.289022 -1.674884
 2339 1  53.885928 -19.099847 -1.674884
 2340 1  52.664622 -18.375407 -1.674884
 2341 1  52.681353 -16.955506 -1.674884
 2342 1  53.919388 -16.260044 -1.674884
 2343 1  51.426587 -19.070869 -1.674884
 2344 1  50.205281 -18.346430 -1.674884
 2345 1  50.222011 -16.926528 -1.674884
 2346 1  51.460047 -16.231066 -1.674884
 2347 1  48.967245 -19.041892 -1.674884
 2348 1  47.745939 -18.317452 -1.674884
 2349 1  47.762670 -16.897551 -1.674884
 2350 1  49.000706 -16.202089 -1.674884
 2351 1  46.507904 -19.012914 -1.674884
 2352 1  45.286598 -18.288475 -1.674884
 2353 1  45.303328 -16.868573 -1.674884
 2354 1  46.541364 -16.173111 -1.674884
 2355 1  44.048562 -18.983937 -1.674884
 2356 1  42.827257 -18.259497 -1.674884
 2357 1  42.843987 -16.839596 -1.674884
 2358 1  44.082023 -16.144134 -1.674884
 2359 1  41.589221 -18.954959 -1.674884
 2360 1  40.367915 -18.230520 -1.674884
 2361 1  40.384645 -16.810618 -1.674884
 2362 1  41.622681 -16.115156 -1.674884
 2363 1  39.129879 -18.925981 -1.674884
 2364 1  37.908574 -18.201542 -1.674884
 2365 1  37.925304 -16.781641 -1.674884
 2366 1  39.163340 -16.086179 -1.674884
 2367 1  36.670538 -18.897004 -1.674884
 2368 1  35.449232 -18.172564 -1.674884
 2369 1  35.465963 -16.752663 -1.674884
 2370 1  36.703998 -16.057201 -1.674884
 2371 1  34.211196 -18.868026 -1.674884
 2372 1  32.989891 -18.143587 -1.674884
 2373 1  33.006621 -16.723685 -1.674884
 2374 1  34.244657 -16.028223 -1.674884
 2375 1  31.751855 -18.839049 -1.674884
 2376 1  30.530549 -18.114609 -1.674884
 2377 1  30.547280 -16.694708 -1.674884
 2378 1  31.785315 -15.999246 -1.674884
 2379 1  29.292514 -18.810071 -1.674884
 2380 1  28.071208 -18.085632 -1.674884
 2381 1  28.087938 -16.665730 -1.674884
 2382 1  29.325974 -15.970268 -1.674884
 2383 1  26.833172 -18.781094 -1.674884
 2384 1  25.611867 -18.056654 -1.674884
 2385 1  25.628597 -16.636753 -1.674884
 2386 1  26.866633 -15.941291 -1.674884
 2387 1  24.373831 -18.752116 -1.674884
 2388 1  23.152525 -18.027676 -1.674884
 2389 1  23.169255 -16.607775 -1.674884
 2390 1  24.407291 -15.912313 -1.674884
 2391 1  21.914489 -18.723138 -1.674884
 2392 1  20.693184 -17.998699 -1.674884
 2393 1  20.709914 -16.578797 -1.674884
 2394 1  21.947950 -15.883336 -1.674884
 2395 1  19.455148 -18.694161 -1.674884
 2396 1  18.233842 -17.969721 -1.674884
 2397 1  18.250572 -16.549820 -1.674884
 2398 1  19.488608 -15.854358 -1.674884
 2399 1  16.995806 -18.665183 -1.674884
 2400 1  15.774501 -17.940744 -1.674884
 2401 1  15.791231 -16.520842 -1.674884
 2402 1  17.029267 -15.825380 -1.674884
 2403 1  14.536465 -18.636206 -1.674884
 2404 1  13.315159 -17.911766 -1.674884
 2405 1  13.331890 -16.491865 -1.674884
 2406 1  14.569925 -15.796403 -1.674884
 2407 1  12.077124 -18.607228 -1.674884
 2408 1  10.855818 -17.882789 -1.674884
 2409 1  10.872548 -16.462887 -1.674884
 2410 1  12.110584 -15.767425 -1.674884
 2411 1   9.617782 -18.578250 -1.674884
 2412 1   8.396477 -17.853811 -1.674884
 2413 1   8.413207 -16.433910 -1.674884
 2414 1   9.651243 -15.738448 -1.674884
 2415 1   7.158441 -18.549273 -1.674884
 2416 1   5.937135 -17.824833 -1.674884
 2417 1   5.953865 -16.404932 -1.674884
 2418 1   7.191901 -15.709470 -1.674884
 2419 1   4.699099 -18.520295 -1.674884
 2420 1   3.477794 -17.795856 -1.674884
 2421 1   3.494524 -16.375954 -1.674884
 2422 1   4.732560 -15.680492 -1.674884
 2423 1   2.239758 -18.491318 -1.674884
 2424 1   1.018452 -17.766878 -1.674884
 2425 1   1.035182 -16.346977 -1.674884
 2426 1   2.273218 -15.651515 -1.674884
 2427 1  -0.219584 -18.462340 -1.674884
 2428 1  -1.440889 -17.737901 -1.674884
 2429 1  -1.424159 -16.317999 -1.674884
 2430 1  -0.186123 -15.622537 -1.674884
 2431 1  -2.678925 -18.433363 -1.674884
 2432 1  -3.900231 -17.708923 -1.674884
 2433 1  -3.883500 -16.289022 -1.674884
 2434 1  -2.645465 -15.593560 -1.674884
 2435 1  -5.138266 -18.404385 -1.674884
 2436 1  -6.359572 -17.679945 -1.674884
 2437 1  -6.342842 -16.260044 -1.674884
 2438 1  -5.104806 -15.564582 -1.674884
 2439 1  -7.597608 -18.375407 -1.674884
 2440 1  -8.818914 -17.650968 -1.674884
 2441 1  -8.802183 -16.231066 -1.674884
 2442 1  -7.564148 -15.535605 -1.674884
 2443 1 -10.056949 -18.346430 -1.674884
 2444 1 -11.278255 -17.621990 -1.674884
 2445 1 -11.261525 -16.202089 -1.674884
 2446 1 -10.023489 -15.506627 -1.674884
 2447 1 -12.516291 -18.317452 -1.674884
 2448 1 -13.737596 -17.593013 -1.674884
 2449 1 -13.720866 -16.173111 -1.674884
 2450 1 -12.482830 -15.477649 -1.674884
 2451 1 -14.975632 -18.288475 -1.674884
 2452 1 -16.196938 -17.564035 -1.674884
 2453 1 -16.180208 -16.144134 -1.674884
 2454 1 -14.942172 -15.448672 -1.674884
 2455 1 -17.434974 -18.259497 -1.674884
 2456 1 -18.656279 -17.535058 -1.674884
 2457 1 -18.639549 -16.115156 -1.674884
 2458 1 -17.401513 -15.419694 -1.674884
 2459 1 -19.894315 -18.230520 -1.674884
 2460 1 -21.115621 -17.506080 -1.674884
 2461 1 -21.098891 -16.086179 -1.674884
 2462 1 -19.860855 -15.390717 -1.674884
 2463 1 -22.353657 -18.201542 -1.674884
 2464 1 -23.574962 -17.477102 -1.674884
 2465 1 -23.558232 -16.057201 -1.674884
 2466 1 -22.320196 -15.361739 -1.674884
 2467 1 -24.812998 -18.172564 -1.674884
 2468 1 -26.034304 -17.448125 -1.674884
 2469 1 -26.017573 -16.028223 -1.674884
 2470 1 -24.779538 -15.332761 -1.674884
 2471 1 -27.272339 -18.143587 -1.674884
 2472 1 -28.493645 -17.419147 -1.674884
 2473 1 -28.476915 -15.999246 -1.674884
 2474 1 -27.238879 -15.303784 -1.674884
 2475 1 -29.731681 -18.114609 -1.674884
 2476 1 -30.952986 -17.390170 -1.674884
 2477 1 -30.936256 -15.970268 -1.674884
 2478 1 -29.698220 -15.274806 -1.674884
 2479 1 -32.191022 -18.085632 -1.674884
 2480 1 -33.412328 -17.361192 -1.674884
 2481 1 -33.395598 -15.941291 -1.674884
 2482 1 -32.157562 -15.245829 -1.674884
 2483 1 -34.650364 -18.056654 -1.674884
 2484 1 -35.871669 -17.332215 -1.674884
 2485 1 -35.854939 -15.912313 -1.674884
 2486 1 -34.616903 -15.216851 -1.674884
 2487 1 -37.109705 -18.027676 -1.674884
 2488 1 -38.331011 -17.303237 -1.674884
 2489 1 -38.314281 -15.883336 -1.674884
 2490 1 -37.076245 -15.187874 -1.674884
 2491 1 -39.569047 -17.998699 -1.674884
 2492 1 -40.790352 -17.274259 -1.674884
 2493 1 -40.773622 -15.854358 -1.674884
 2494 1 -39.535586 -15.158896 -1.674884
 2495 1 -42.028388 -17.969721 -1.674884
 2496 1 -43.249694 -17.245282 -1.674884
 2497 1 -43.232963 -15.825380 -1.674884
 2498 1 -41.994928 -15.129918 -1.674884
 2499 1 -44.487729 -17.940744 -1.674884
 2500 1 -45.709035 -17.216304 -1.674884
 2501 1 -45.692305 -15.796403 -1.674884
 2502 1 -44.454269 -15.100941 -1.674884
 2503 1 -46.947071 -17.911766 -1.674884
 2504 1 -48.168377 -17.187327 -1.674884
 2505 1 -48.151646 -15.767425 -1.674884
 2506 1 -46.913610 -15.071963 -1.674884
 2507 1 -49.406412 -17.882789 -1.674884
 2508 1 -50.627718 -17.158349 -1.674884
 2509 1 -50.610988 -15.738448 -1.674884
 2510 1 -49.372952 -15.042986 -1.674884
 2511 1 -51.865754 -17.853811 -1.674884
 2512 1 -53.087059 -17.129371 -1.674884
 2513 1 -53.070329 -15.709470 -1.674884
 2514 1 -51.832293 -15.014008 -1.674884
 2515 1 -54.325095 -17.824833 -1.674884
 2516 1 -55.546401 -17.100394 -1.674884
 2517 1 -55.529671 -15.680492 -1.674884
 2518 1 -54.291635 -14.985031 -1.674884
 2519 1 -56.784437 -17.795856 -1.674884
 2520 1 -58.005742 -17.071416 -1.674884
 2521 1 -57.989012 -15.651515 -1.674884
 2522 1 -56.750976 -14.956053 -1.674884
 2523 1 -59.243778 -17.766878 -1.674884
 2524 1 -60.465084 -17.042439 -1.674884
 2525 1 -60.448353 -15.622537 -1.674884
 2526 1 -59.210318 -14.927075 -1.674884
 2527 1 -61.703120 -17.737901 -1.674884
 2528 1 -62.924425 -17.013461 -1.674884
 2529 1 -62.907695 -15.593560 -1.674884
 2530 1 -61.669659 -14.898098 -1.674884
 2531 1 -64.162461 -17.708923 -1.674884
 2532 1 -65.383767 -16.984484 -1.674884
 2533 1 -65.367036 -15.564582 -1.674884
 2534 1 -64.129001 -14.869120 -1.674884
 2535 1 -66.621802 -17.679945 -1.674884
 2536 1 -67.843108 -16.955506 -1.674884
 2537 1 -67.826378 -15.535605 -1.674884
 2538 1 -66.588342 -14.840143 -1.674884
 2539 1 -69.081144 -17.650968 -1.674884
 2540 1 -70.302449 -16.926528 -1.674884
 2541 1 -70.285719 -15.506627 -1.674884
 2542 1 -69.047683 -14.811165 -1.674884
 2543 1 -71.540485 -17.621990 -1.674884
 2544 1 -72.761791 -16.897551 -1.674884
 2545 1 -72.745061 -15.477649 -1.674884
 2546 1 -71.507025 -14.782187 -1.674884
 2547 1 -73.999827 -17.593013 -1.674884
 2548 1 -75.221132 -16.868573 -1.674884
 2549 1 -75.204402 -15.448672 -1.674884
 2550 1 -73.966366 -14.753210 -1.674884
 2551 1 -76.459168 -17.564035 -1.674884
 2552 1 -77.680474 -16.839596 -1.674884
 2553 1 -77.663744 -15.419694 -1.674884
 2554 1 -76.425708 -14.724232 -1.674884
 2555 1 -78.918510 -17.535058 -1.674884
 2556 1 -80.139815 -16.810618 -1.674884
 2557 1 -80.123085 -15.390717 -1.674884
 2558 1 -78.885049 -14.695255 -1.674884
 2559 1 -81.377851 -17.506080 -1.674884
 2560 1 -82.599157 -16.781641 -1.674884
 2561 1 -82.582426 -15.361739 -1.674884
 2562 1 -81.344391 -14.666277 -1.674884
 2563 1 -83.837192 -17.477102 -1.674884
 2564 1 -85.058498 -16.752663 -1.674884
 2565 1 -85.041768 -15.332761 -1.674884
 2566 1 -83.803732 -14.637300 -1.674884
 2567 1 -86.296534 -17.448125 -1.674884
 2568 1 -87.517839 -16.723685 -1.674884
 2569 1 -87.501109 -15.303784 -1.674884
 2570 1 -86.263073 -14.608322 -1.674884
 2571 1 -88.755875 -17.419147 -1.674884
 2572 1 -89.977181 -16.694708 -1.674884
 2573 1 -89.960451 -15.274806 -1.674884
 2574 1 -88.722415 -14.579344 -1.674884
 2575 1  89.604935 -14.550367 -1.674884
 2576 1  89.621665 -13.130465 -1.674884
 2577 1  88.366899 -15.245829 -1.674884
 2578 1  87.145593 -14.521389 -1.674884
 2579 1  87.162323 -13.101488 -1.674884
 2580 1  88.400359 -12.406026 -1.674884
 2581 1  85.907557 -15.216851 -1.674884
 2582 1  84.686252 -14.492412 -1.674884
 2583 1  84.702982 -13.072510 -1.674884
 2584 1  85.941018 -12.377048 -1.674884
 2585 1  83.448216 -15.187874 -1.674884
 2586 1  82.226910 -14.463434 -1.674884
 2587 1  82.243640 -13.043533 -1.674884
 2588 1  83.481676 -12.348071 -1.674884
 2589 1  80.988874 -15.158896 -1.674884
 2590 1  79.767569 -14.434456 -1.674884
 2591 1  79.784299 -13.014555 -1.674884
 2592 1  81.022335 -12.319093 -1.674884
 2593 1  78.529533 -15.129918 -1.674884
 2594 1  77.308227 -14.405479 -1.674884
 2595 1  77.324958 -12.985577 -1.674884
 2596 1  78.562993 -12.290116 -1.674884
 2597 1  76.070192 -15.100941 -1.674884
 2598 1  74.848886 -14.376501 -1.674884
 2599 1  74.865616 -12.956600 -1.674884
 2600 1  76.103652 -12.261138 -1.674884
 2601 1  73.610850 -15.071963 -1.674884
 2602 1  72.389544 -14.347524 -1.674884
 2603 1  72.406275 -12.927622 -1.674884
 2604 1  73.644311 -12.232160 -1.674884
 2605 1  71.151509 -15.042986 -1.674884
 2606 1  69.930203 -14.318546 -1.674884
 2607 1  69.946933 -12.898645 -1.674884
 2608 1  71.184969 -12.203183 -1.674884
 2609 1  68.692167 -15.014008 -1.674884
 2610 1  67.470862 -14.289569 -1.674884
 2611 1  67.487592 -12.869667 -1.674884
 2612 1  68.725628 -12.174205 -1.674884
 2613 1  66.232826 -14.985031 -1.674884
 2614 1  65.011520 -14.260591 -1.674884
 2615 1  65.028250 -12.840690 -1.674884
 2616 1  66.266286 -12.145228 -1.674884
 2617 1  63.773484 -14.956053 -1.674884
 2618 1  62.552179 -14.231613 -1.674884
 2619 1  62.568909 -12.811712 -1.674884
 2620 1  63.806945 -12.116250 -1.674884
 2621 1  61.314143 -14.927075 -1.674884
 2622 1  60.092837 -14.202636 -1.674884
 2623 1  60.109568 -12.782734 -1.674884
 2624 1  61.347603 -12.087272 -1.674884
 2625 1  58.854801 -14.898098 -1.674884
 2626 1  57.633496 -14.173658 -1.674884
 2627 1  57.650226 -12.753757 -1.674884
 2628 1  58.888262 -12.058295 -1.674884
 2629 1  56.395460 -14.869120 -1.674884
 2630 1  55.174154 -14.144681 -1.674884
 2631 1  55.190885 -12.724779 -1.674884
 2632 1  56.428920 -12.029317 -1.674884
 2633 1  53.936119 -14.840143 -1.674884
 2634 1  52.714813 -14.115703 -1.674884
 2635 1  52.731543 -12.695802 -1.674884
 2636 1  53.969579 -12.000340 -1.674884
 2637 1  51.476777 -14.811165 -1.674884
 2638 1  50.255472 -14.086726 -1.674884
 2639 1  50.272202 -12.666824 -1.674884
 2640 1  51.510238 -11.971362 -1.674884
 2641 1  49.017436 -14.782187 -1.674884
 2642 1  47.796130 -14.057748 -1.674884
 2643 1  47.812860 -12.637847 -1.674884
 2644 1  49.050896 -11.942385 -1.674884
 2645 1  46.558094 -14.753210 -1.674884
 2646 1  45.336789 -14.028770 -1.674884
 2647 1  45.353519 -12.608869 -1.674884
 2648 1  46.591555 -11.913407 -1.674884
 2649 1  44.098753 -14.724232 -1.674884
 2650 1  42.877447 -13.999793 -1.674884
 2651 1  42.894177 -12.579891 -1.674884
 2652 1  44.132213 -11.884429 -1.674884
 2653 1  41.639411 -14.695255 -1.674884
 2654 1  40.418106 -13.970815 -1.674884
 2655 1  40.434836 -12.550914 -1.674884
 2656 1  41.672872 -11.855452 -1.674884
 2657 1  39.180070 -14.666277 -1.674884
 2658 1  37.958764 -13.941838 -1.674884
 2659 1  37.975495 -12.521936 -1.674884
 2660 1  39.213530 -11.826474 -1.674884
 2661 1  36.720729 -14.637300 -1.674884
 2662 1  35.499423 -13.912860 -1.674884
 2663 1  35.516153 -12.492959 -1.674884
 2664 1  36.754189 -11.797497 -1.674884
 2665 1  34.261387 -14.608322 -1.674884
 2666 1  33.040082 -13.883882 -1.674884
 2667 1  33.056812 -12.463981 -1.674884
 2668 1  34.294848 -11.768519 -1.674884
 2669 1  31.802046 -14.579344 -1.674884
 2670 1  30.580740 -13.854905 -1.674884
 2671 1  30.597470 -12.435003 -1.674884
 2672 1  31.835506 -11.739542 -1.674884
 2673 1  29.342704 -14.550367 -1.674884
 2674 1  28.121399 -13.825927 -1.674884
 2675 1  28.138129 -12.406026 -1.674884
 2676 1  29.376165 -11.710564 -1.674884
 2677 1  26.883363 -14.521389 -1.674884
 2678 1  25.662057 -13.796950 -1.674884
 2679 1  25.678787 -12.377048 -1.674884
 2680 1  26.916823 -11.681586 -1.674884
 2681 1  24.424021 -14.492412 -1.674884
 2682 1  23.202716 -13.767972 -1.674884
 2683 1  23.219446 -12.348071 -1.674884
 2684 1  24.457482 -11.652609 -1.674884
 2685 1  21.964680 -14.463434 -1.674884
 2686 1  20.743374 -13.738995 -1.674884
 2687 1  20.760105 -12.319093 -1.674884
 2688 1  21.998140 -11.623631 -1.674884
 2689 1  19.505339 -14.434456 -1.674884
 2690 1  18.284033 -13.710017 -1.674884
 2691 1  18.300763 -12.290116 -1.674884
 2692 1  19.538799 -11.594654 -1.674884
 2693 1  17.045997 -14.405479 -1.674884
 2694 1  15.824691 -13.681039 -1.674884
 2695 1  15.841422 -12.261138 -1.674884
 2696 1  17.079458 -11.565676 -1.674884
 2697 1  14.586656 -14.376501 -1.674884
 2698 1  13.365350 -13.652062 -1.674884
 2699 1  13.382080 -12.232160 -1.674884
 2700 1  14.620116 -11.536698 -1.674884
 2701 1  12.127314 -14.347524 -1.674884
 2702 1  10.906009 -13.623084 -1.674884
 2703 1  10.922739 -12.203183 -1.674884
 2704 1  12.160775 -11.507721 -1.674884
 2705 1   9.667973 -14.318546 -1.674884
 2706 1   8.446667 -13.594107 -1.674884
 2707 1   8.463397 -12.174205 -1.674884
 2708 1   9.701433 -11.478743 -1.674884
 2709 1   7.208631 -14.289569 -1.674884
 2710 1   5.987326 -13.565129 -1.674884
 2711 1   6.004056 -12.145228 -1.674884
 2712 1   7.242092 -11.449766 -1.674884
 2713 1   4.749290 -14.260591 -1.674884
 2714 1   3.527984 -13.536151 -1.674884
 2715 1   3.544714 -12.116250 -1.674884
 2716 1   4.782750 -11.420788 -1.674884
 2717 1   2.289948 -14.231613 -1.674884
 2718 1   1.068643 -13.507174 -1.674884
 2719 1   1.085373 -12.087272 -1.674884
 2720 1   2.323409 -11.391811 -1.674884
 2721 1  -0.169393 -14.202636 -1.674884
 2722 1  -1.390699 -13.478196 -1.674884
 2723 1  -1.373968 -12.058295 -1.674884
 2724 1  -0.135933 -11.362833 -1.674884
 2725 1  -2.628734 -14.173658 -1.674884
 2726 1  -3.850040 -13.449219 -1.674884
 2727 1  -3.833310 -12.029317 -1.674884
 2728 1  -2.595274 -11.333855 -1.674884
 2729 1  -5.088076 -14.144681 -1.674884
 2730 1  -6.309381 -13.420241 -1.674884
 2731 1  -6.292651 -12.000340 -1.674884
 2732 1  -5.054615 -11.304878 -1.674884
 2733 1  -7.547417 -14.115703 -1.674884
 2734 1  -8.768723 -13.391264 -1.674884
 2735 1  -8.751993 -11.971362 -1.674884
 2736 1  -7.513957 -11.275900 -1.674884
 2737 1 -10.006759 -14.086726 -1.674884
 2738 1 -11.228064 -13.362286 -1.674884
 2739 1 -11.211334 -11.942385 -1.674884
 2740 1  -9.973298 -11.246923 -1.674884
 2741 1 -12.466100 -14.057748 -1.674884
 2742 1 -13.687406 -13.333308 -1.674884
 2743 1 -13.670676 -11.913407 -1.674884
 2744 1 -12.432640 -11.217945 -1.674884
 2745 1 -14.925442 -14.028770 -1.674884
 2746 1 -16.146747 -13.304331 -1.674884
 2747 1 -16.130017 -11.884429 -1.674884
 2748 1 -14.891981 -11.188967 -1.674884
 2749 1 -17.384783 -13.999793 -1.674884
 2750 1 -18.606089 -13.275353 -1.674884
 2751 1 -18.589358 -11.855452 -1.674884
 2752 1 -17.351323 -11.159990 -1.674884
 2753 1 -19.844124 -13.970815 -1.674884
 2754 1 -21.065430 -13.246376 -1.674884
 2755 1 -21.048700 -11.826474 -1.674884
 2756 1 -19.810664 -11.131012 -1.674884
 2757 1 -22.303466 -13.941838 -1.674884
 2758 1 -23.524772 -13.217398 -1.674884
 2759 1 -23.508041 -11.797497 -1.674884
 2760 1 -22.270005 -11.102035 -1.674884
 2761 1 -24.762807 -13.912860 -1.674884
 2762 1 -25.984113 -13.188421 -1.674884
 2763 1 -25.967383 -11.768519 -1.674884
 2764 1 -24.729347 -11.073057 -1.674884
 2765 1 -27.222149 -13.883882 -1.674884
 2766 1 -28.443454 -13.159443 -1.674884
 2767 1 -28.426724 -11.739542 -1.674884
 2768 1 -27.188688 -11.044080 -1.674884
 2769 1 -29.681490 -13.854905 -1.674884
 2770 1 -30.902796 -13.130465 -1.674884
 2771 1 -30.886066 -11.710564 -1.674884
 2772 1 -29.648030 -11.015102 -1.674884
 2773 1 -32.140832 -13.825927 -1.674884
 2774 1 -33.362137 -13.101488 -1.674884
 2775 1 -33.345407 -11.681586 -1.674884
 2776 1 -32.107371 -10.986124 -1.674884
 2777 1 -34.600173 -13.796950 -1.674884
 2778 1 -35.821479 -13.072510 -1.674884
 2779 1 -35.804748 -11.652609 -1.674884
 2780 1 -34.566713 -10.957147 -1.674884
 2781 1 -37.059515 -13.767972 -1.674884
 2782 1 -38.280820 -13.043533 -1.674884
 2783 1 -38.264090 -11.623631 -1.674884
 2784 1 -37.026054 -10.928169 -1.674884
 2785 1 -39.518856 -13.738995 -1.674884
 2786 1 -40.740162 -13.014555 -1.674884
 2787 1 -40.723431 -11.594654 -1.674884
 2788 1 -39.485396 -10.899192 -1.674884
 2789 1 -41.978197 -13.710017 -1.674884
 2790 1 -43.199503 -12.985577 -1.674884
 2791 1 -43.182773 -11.565676 -1.674884
 2792 1 -41.944737 -10.870214 -1.674884
 2793 1 -44.437539 -13.681039 -1.674884
 2794 1 -45.658844 -12.956600 -1.674884
 2795 1 -45.642114 -11.536698 -1.674884
 2796 1 -44.404078 -10.841237 -1.674884
 2797 1 -46.896880 -13.652062 -1.674884
 2798 1 -48.118186 -12.927622 -1.674884
 2799 1 -48.101456 -11.507721 -1.674884
 2800 1 -46.863420 -10.812259 -1.674884
 2801 1 -49.356222 -13.623084 -1.674884
 2802 1 -50.577527 -12.898645 -1.674884
 2803 1 -50.560797 -11.478743 -1.674884
 2804 1 -49.322761 -10.783281 -1.674884
 2805 1 -51.815563 -13.594107 -1.674884
 2806 1 -53.036869 -12.869667 -1.674884
 2807 1 -53.020139 -11.449766 -1.674884
 2808 1 -51.782103 -10.754304 -1.674884
 2809 1 -54.274905 -13.565129 -1.674884
 2810 1 -55.496210 -12.840690 -1.674884
 2811 1 -55.479480 -11.420788 -1.674884
 2812 1 -54.241444 -10.725326 -1.674884
 2813 1 -56.734246 -13.536151 -1.674884
 2814 1 -57.955552 -12.811712 -1.674884
 2815 1 -57.938821 -11.391811 -1.674884
 2816 1 -56.700786 -10.696349 -1.674884
 2817 1 -59.193587 -13.507174 -1.674884
 2818 1 -60.414893 -12.782734 -1.674884
 2819 1 -60.398163 -11.362833 -1.674884
 2820 1 -59.160127 -10.667371 -1.674884
 2821 1 -61.652929 -13.478196 -1.674884
 2822 1 -62.874234 -12.753757 -1.674884
 2823 1 -62.857504 -11.333855 -1.674884
 2824 1 -61.619468 -10.638393 -1.674884
 2825 1 -64.112270 -13.449219 -1.674884
 2826 1 -65.333576 -12.724779 -1.674884
 2827 1 -65.316846 -11.304878 -1.674884
 2828 1 -64.078810 -10.609416 -1.674884
 2829 1 -66.571612 -13.420241 -1.674884
 2830 1 -67.792917 -12.695802 -1.674884
 2831 1 -67.776187 -11.275900 -1.674884
 2832 1 -66.538151 -10.580438 -1.674884
 2833 1 -69.030953 -13.391264 -1.674884
 2834 1 -70.252259 -12.666824 -1.674884
 2835 1 -70.235529 -11.246923 -1.674884
 2836 1 -68.997493 -10.551461 -1.674884
 2837 1 -71.490295 -13.362286 -1.674884
 2838 1 -72.711600 -12.637847 -1.674884
 2839 1 -72.694870 -11.217945 -1.674884
 2840 1 -71.456834 -10.522483 -1.674884
 2841 1 -73.949636 -13.333308 -1.674884
 2842 1 -75.170942 -12.608869 -1.674884
 2843 1 -75.154211 -11.188967 -1.674884
 2844 1 -73.916176 -10.493506 -1.674884
 2845 1 -76.408978 -13.304331 -1.674884
 2846 1 -77.630283 -12.579891 -1.674884
 2847 1 -77.613553 -11.159990 -1.674884
 2848 1 -76.375517 -10.464528 -1.674884
 2849 1 -78.868319 -13.275353 -1.674884
 2850 1 -80.089625 -12.550914 -1.674884
 2851 1 -80.072894 -11.131012 -1.674884
 2852 1 -78.834859 -10.435550 -1.674884
 2853 1 -81.327660 -13.246376 -1.674884
 2854 1 -82.548966 -12.521936 -1.674884
 2855 1 -82.532236 -11.102035 -1.674884
 2856 1 -81.294200 -10.406573 -1.674884
 2857 1 -83.787002 -13.217398 -1.674884
 2858 1 -85.008307 -12.492959 -1.674884
 2859 1 -84.991577 -11.073057 -1.674884
 2860 1 -83.753541 -10.377595 -1.674884
 2861 1 -86.246343 -13.188421 -1.674884
 2862 1 -87.467649 -12.463981 -1.674884
 2863 1 -87.450919 -11.044080 -1.674884
 2864 1 -86.212883 -10.348618 -1.674884
 2865 1 -88.705685 -13.159443 -1.674884
 2866 1 -89.926990 -12.435003 -1.674884
 2867 1 -89.910260 -11.015102 -1.674884
 2868 1 -88.672224 -10.319640 -1.674884
 2869 1  89.655125 -10.290662 -1.674884
 2870 1  89.671855  -8.870761 -1.674884
 2871 1  88.417089 -10.986124 -1.674884
 2872 1  87.195784 -10.261685 -1.674884
 2873 1  87.212514  -8.841783 -1.674884
 2874 1  88.450550  -8.146322 -1.674884
 2875 1  85.957748 -10.957147 -1.674884
 2876 1  84.736442 -10.232707 -1.674884
 2877 1  84.753173  -8.812806 -1.674884
 2878 1  85.991208  -8.117344 -1.674884
 2879 1  83.498406 -10.928169 -1.674884
 2880 1  82.277101 -10.203730 -1.674884
 2881 1  82.293831  -8.783828 -1.674884
 2882 1  83.531867  -8.088366 -1.674884
 2883 1  81.039065 -10.899192 -1.674884
 2884 1  79.817759 -10.174752 -1.674884
 2885 1  79.834490  -8.754851 -1.674884
 2886 1  81.072525  -8.059389 -1.674884
 2887 1  78.579724 -10.870214 -1.674884
 2888 1  77.358418 -10.145775 -1.674884
 2889 1  77.375148  -8.725873 -1.674884
 2890 1  78.613184  -8.030411 -1.674884
 2891 1  76.120382 -10.841237 -1.674884
 2892 1  74.899077 -10.116797 -1.674884
 2893 1  74.915807  -8.696896 -1.674884
 2894 1  76.153843  -8.001434 -1.674884
 2895 1  73.661041 -10.812259 -1.674884
 2896 1  72.439735 -10.087819 -1.674884
 2897 1  72.456465  -8.667918 -1.674884
 2898 1  73.694501  -7.972456 -1.674884
 2899 1  71.201699 -10.783281 -1.674884
 2900 1  69.980394 -10.058842 -1.674884
 2901 1  69.997124  -8.638940 -1.674884
 2902 1  71.235160  -7.943478 -1.674884
 2903 1  68.742358 -10.754304 -1.674884
 2904 1  67.521052 -10.029864 -1.674884
 2905 1  67.537782  -8.609963 -1.674884
 2906 1  68.775818  -7.914501 -1.674884
 2907 1  66.283016 -10.725326 -1.674884
 2908 1  65.061711 -10.000887 -1.674884
 2909 1  65.078441  -8.580985 -1.674884
 2910 1  66.316477  -7.885523 -1.674884
 2911 1  63.823675 -10.696349 -1.674884
 2912 1  62.602369  -9.971909 -1.674884
 2913 1  62.619100  -8.552008 -1.674884
 2914 1  63.857135  -7.856546 -1.674884
 2915 1  61.364334 -10.667371 -1.674884
 2916 1  60.143028  -9.942932 -1.674884
 2917 1  60.159758  -8.523030 -1.674884
 2918 1  61.397794  -7.827568 -1.674884
 2919 1  58.904992 -10.638393 -1.674884
 2920 1  57.683687  -9.913954 -1.674884
 2921 1  57.700417  -8.494053 -1.674884
 2922 1  58.938453  -7.798591 -1.674884
 2923 1  56.445651 -10.609416 -1.674884
 2924 1  55.224345  -9.884976 -1.674884
 2925 1  55.241075  -8.465075 -1.674884
 2926 1  56.479111  -7.769613 -1.674884
 2927 1  53.986309 -10.580438 -1.674884
 2928 1  52.765004  -9.855999 -1.674884
 2929 1  52.781734  -8.436097 -1.674884
 2930 1  54.019770  -7.740635 -1.674884
 2931 1  51.526968 -10.551461 -1.674884
 2932 1  50.305662  -9.827021 -1.674884
 2933 1  50.322392  -8.407120 -1.674884
 2934 1  51.560428  -7.711658 -1.674884
 2935 1  49.067626 -10.522483 -1.674884
 2936 1  47.846321  -9.798044 -1.674884
 2937 1  47.863051  -8.378142 -1.674884
 2938 1  49.101087  -7.682680 -1.674884
 2939 1  46.608285 -10.493506 -1.674884
 2940 1  45.386979  -9.769066 -1.674884
 2941 1  45.403710  -8.349165 -1.674884
 2942 1  46.641745  -7.653703 -1.674884
 2943 1  44.148944 -10.464528 -1.674884
 2944 1  42.927638  -9.740088 -1.674884
 2945 1  42.944368  -8.320187 -1.674884
 2946 1  44.182404  -7.624725 -1.674884
 2947 1  41.689602 -10.435550 -1.674884
 2948 1  40.468296  -9.711111 -1.674884
 2949 1  40.485027  -8.291209 -1.674884
 2950 1  41.723063  -7.595748 -1.674884
 2951 1  39.230261 -10.406573 -1.674884
 2952 1  38.008955  -9.682133 -1.674884
 2953 1  38.025685  -8.262232 -1.674884
 2954 1  39.263721  -7.566770 -1.674884
 2955 1  36.770919 -10.377595 -1.674884
 2956 1  35.549614  -9.653156 -1.674884
 2957 1  35.566344  -8.233254 -1.674884
 2958 1  36.804380  -7.537792 -1.674884
 2959 1  34.311578 -10.348618 -1.674884
 2960 1  33.090272  -9.624178 -1.674884
 2961 1  33.107002  -8.204277 -1.674884
 2962 1  34.345038  -7.508815 -1.674884
 2963 1  31.852236 -10.319640 -1.674884
 2964 1  30.630931  -9.595201 -1.674884
 2965 1  30.647661  -8.175299 -1.674884
 2966 1  31.885697  -7.479837 -1.674884
 2967 1  29.392895 -10.290662 -1.674884
 2968 1  28.171589  -9.566223 -1.674884
 2969 1  28.188319  -8.146322 -1.674884
 2970 1  29.426355  -7.450860 -1.674884
 2971 1  26.933553 -10.261685 -1.674884
 2972 1  25.712248  -9.537245 -1.674884
 2973 1  25.728978  -8.117344 -1.674884
 2974 1  26.967014  -7.421882 -1.674884
 2975 1  24.474212 -10.232707 -1.674884
 2976 1  23.252906  -9.508268 -1.674884
 2977 1  23.269637  -8.088366 -1.674884
 2978 1  24.507672  -7.392904 -1.674884
 2979 1  22.014871 -10.203730 -1.674884
 2980 1  20.793565  -9.479290 -1.674884
 2981 1  20.810295  -8.059389 -1.674884
 2982 1  22.048331  -7.363927 -1.674884
 2983 1  19.555529 -10.174752 -1.674884
 2984 1  18.334224  -9.450313 -1.674884
 2985 1  18.350954  -8.030411 -1.674884
 2986 1  19.588990  -7.334949 -1.674884
 2987 1  17.096188 -10.145775 -1.674884
 2988 1  15.874882  -9.421335 -1.674884
 2989 1  15.891612  -8.001434 -1.674884
 2990 1  17.129648  -7.305972 -1.674884
 2991 1  14.636846 -10.116797 -1.674884
 2992 1  13.415541  -9.392357 -1.674884
 2993 1  13.432271  -7.972456 -1.674884
 2994 1  14.670307  -7.276994 -1.674884
 2995 1  12.177505 -10.087819 -1.674884
 2996 1  10.956199  -9.363380 -1.674884
 2997 1  10.972929  -7.943478 -1.674884
 2998 1  12.210965  -7.248017 -1.674884
 2999 1   9.718163 -10.058842 -1.674884
 3000 1   8.496858  -9.334402 -1.674884
 3001 1   8.513588  -7.914501 -1.674884
 3002 1   9.751624  -7.219039 -1.674884
 3003 1   7.258822 -10.029864 -1.674884
 3004 1   6.037516  -9.305425 -1.674884
 3005 1   6.054247  -7.885523 -1.674884
 3006 1   7.292282  -7.190061 -1.674884
 3007 1   4.799481 -10.000887 -1.674884
 3008 1   3.578175  -9.276447 -1.674884
 3009 1   3.594905  -7.856546 -1.674884
 3010 1   4.832941  -7.161084 -1.674884
 3011 1   2.340139  -9.971909 -1.674884
 3012 1   1.118833  -9.247470 -1.674884
 3013 1   1.135564  -7.827568 -1.674884
 3014 1   2.373600  -7.132106 -1.674884
 3015 1  -0.119202  -9.942932 -1.674884
 3016 1  -1.340508  -9.218492 -1.674884
 3017 1  -1.323778  -7.798591 -1.674884
 3018 1  -0.085742  -7.103129 -1.674884
 3019 1  -2.578544  -9.913954 -1.674884
 3020 1  -3.799849  -9.189514 -1.674884
 3021 1  -3.783119  -7.769613 -1.674884
 3022 1  -2.545083  -7.074151 -1.674884
 3023 1  -5.037885  -9.884976 -1.674884
 3024 1  -6.259191  -9.160537 -1.674884
 3025 1  -6.242461  -7.740635 -1.674884
 3026 1  -5.004425  -7.045173 -1.674884
 3027 1  -7.497227  -9.855999 -1.674884
 3028 1  -8.718532  -9.131559 -1.674884
 3029 1  -8.701802  -7.711658 -1.674884
 3030 1  -7.463766  -7.016196 -1.674884
 3031 1  -9.956568  -9.827021 -1.674884
 3032 1 -11.177874  -9.102582 -1.674884
 3033 1 -11.161143  -7.682680 -1.674884
 3034 1  -9.923108  -6.987218 -1.674884
 3035 1 -12.415910  -9.798044 -1.674884
 3036 1 -13.637215  -9.073604 -1.674884
 3037 1 -13.620485  -7.653703 -1.674884
 3038 1 -12.382449  -6.958241 -1.674884
 3039 1 -14.875251  -9.769066 -1.674884
 3040 1 -16.096557  -9.044627 -1.674884
 3041 1 -16.079826  -7.624725 -1.674884
 3042 1 -14.841791  -6.929263 -1.674884
 3043 1 -17.334592  -9.740088 -1.674884
 3044 1 -18.555898  -9.015649 -1.674884
 3045 1 -18.539168  -7.595748 -1.674884
 3046 1 -17.301132  -6.900286 -1.674884
 3047 1 -19.793934  -9.711111 -1.674884
 3048 1 -21.015239  -8.986671 -1.674884
 3049 1 -20.998509  -7.566770 -1.674884
 3050 1 -19.760473  -6.871308 -1.674884
 3051 1 -22.253275  -9.682133 -1.674884
 3052 1 -23.474581  -8.957694 -1.674884
 3053 1 -23.457851  -7.537792 -1.674884
 3054 1 -22.219815  -6.842330 -1.674884
 3055 1 -24.712617  -9.653156 -1.674884
 3056 1 -25.933922  -8.928716 -1.674884
 3057 1 -25.917192  -7.508815 -1.674884
 3058 1 -24.679156  -6.813353 -1.674884
 3059 1 -27.171958  -9.624178 -1.674884
 3060 1 -28.393264  -8.899739 -1.674884
 3061 1 -28.376534  -7.479837 -1.674884
 3062 1 -27.138498  -6.784375 -1.674884
 3063 1 -29.631300  -9.595201 -1.674884
 3064 1 -30.852605  -8.870761 -1.674884
 3065 1 -30.835875  -7.450860 -1.674884
 3066 1 -29.597839  -6.755398 -1.674884
 3067 1 -32.090641  -9.566223 -1.674884
 3068 1 -33.311947  -8.841783 -1.674884
 3069 1 -33.295216  -7.421882 -1.674884
 3070 1 -32.057181  -6.726420 -1.674884
 3071 1 -34.549982  -9.537245 -1.674884
 3072 1 -35.771288  -8.812806 -1.674884
 3073 1 -35.754558  -7.392904 -1.674884
 3074 1 -34.516522  -6.697443 -1.674884
 3075 1 -37.009324  -9.508268 -1.674884
 3076 1 -38.230629  -8.783828 -1.674884
 3077 1 -38.213899  -7.363927 -1.674884
 3078 1 -36.975863  -6.668465 -1.674884
 3079 1 -39.468665  -9.479290 -1.674884
 3080 1 -40.689971  -8.754851 -1.674884
 3081 1 -40.673241  -7.334949 -1.674884
 3082 1 -39.435205  -6.639487 -1.674884
 3083 1 -41.928007  -9.450313 -1.674884
 3084 1 -43.149312  -8.725873 -1.674884
 3085 1 -43.132582  -7.305972 -1.674884
 3086 1 -41.894546  -6.610510 -1.674884
 3087 1 -44.387348  -9.421335 -1.674884
 3088 1 -45.608654  -8.696896 -1.674884
 3089 1 -45.591924  -7.276994 -1.674884
 3090 1 -44.353888  -6.581532 -1.674884
 3091 1 -46.846690  -9.392357 -1.674884
 3092 1 -48.067995  -8.667918 -1.674884
 3093 1 -48.051265  -7.248017 -1.674884
 3094 1 -46.813229  -6.552555 -1.674884
 3095 1 -49.306031  -9.363380 -1.674884
 3096 1 -50.527337  -8.638940 -1.674884
 3097 1 -50.510606  -7.219039 -1.674884
 3098 1 -49.272571  -6.523577 -1.674884
 3099 1 -51.765372  -9.334402 -1.674884
 3100 1 -52.986678  -8.609963 -1.674884
 3101 1 -52.969948  -7.190061 -1.674884
 3102 1 -51.731912  -6.494599 -1.674884
 3103 1 -54.224714  -9.305425 -1.674884
 3104 1 -55.446020  -8.580985 -1.674884
 3105 1 -55.429289  -7.161084 -1.674884
 3106 1 -54.191254  -6.465622 -1.674884
 3107 1 -56.684055  -9.276447 -1.674884
 3108 1 -57.905361  -8.552008 -1.674884
 3109 1 -57.888631  -7.132106 -1.674884
 3110 1 -56.650595  -6.436644 -1.674884
 3111 1 -59.143397  -9.247470 -1.674884
 3112 1 -60.364702  -8.523030 -1.674884
 3113 1 -60.347972  -7.103129 -1.674884
 3114 1 -59.109936  -6.407667 -1.674884
 3115 1 -61.602738  -9.218492 -1.674884
 3116 1 -62.824044  -8.494053 -1.674884
 3117 1 -62.807314  -7.074151 -1.674884
 3118 1 -61.569278  -6.378689 -1.674884
 3119 1 -64.062080  -9.189514 -1.674884
 3120 1 -65.283385  -8.465075 -1.674884
 3121 1 -65.266655  -7.045173 -1.674884
 3122 1 -64.028619  -6.349712 -1.674884
 3123 1 -66.521421  -9.160537 -1.674884
 3124 1 -67.742727  -8.436097 -1.674884
 3125 1 -67.725997  -7.016196 -1.674884
 3126 1 -66.487961  -6.320734 -1.674884
 3127 1 -68.980763  -9.131559 -1.674884
 3128 1 -70.202068  -8.407120 -1.674884
 3129 1 -70.185338  -6.987218 -1.674884
 3130 1 -68.947302  -6.291756 -1.674884
 3131 1 -71.440104  -9.102582 -1.674884
 3132 1 -72.661410  -8.378142 -1.674884
 3133 1 -72.644679  -6.958241 -1.674884
 3134 1 -71.406644  -6.262779 -1.674884
 3135 1 -73.899445  -9.073604 -1.674884
 3136 1 -75.120751  -8.349165 -1.674884
 3137 1 -75.104021  -6.929263 -1.674884
 3138 1 -73.865985  -6.233801 -1.674884
 3139 1 -76.358787  -9.044627 -1.674884
 3140 1 -77.580092  -8.320187 -1.674884
 3141 1 -77.563362  -6.900286 -1.674884
 3142 1 -76.325326  -6.204824 -1.674884
 3143 1 -78.818128  -9.015649 -1.674884
 3144 1 -80.039434  -8.291209 -1.674884
 3145 1 -80.022704  -6.871308 -1.674884
 3146 1 -78.784668  -6.175846 -1.674884
 3147 1 -81.277470  -8.986671 -1.674884
 3148 1 -82.498775  -8.262232 -1.674884
 3149 1 -82.482045  -6.842330 -1.674884
 3150 1 -81.244009  -6.146868 -1.674884
 3151 1 -83.736811  -8.957694 -1.674884
 3152 1 -84.958117  -8.233254 -1.674884
 3153 1 -84.941387  -6.813353 -1.674884
 3154 1 -83.703351  -6.117891 -1.674884
 3155 1 -86.196153  -8.928716 -1.674884
 3156 1 -87.417458  -8.204277 -1.674884
 3157 1 -87.400728  -6.784375 -1.674884
 3158 1 -86.162692  -6.088913 -1.674884
 3159 1 -88.655494  -8.899739 -1.674884
 3160 1 -89.876800  -8.175299 -1.674884
 3161 1 -89.860069  -6.755398 -1.674884
 3162 1 -88.622034  -6.059936 -1.674884
 3163 1  89.705316  -6.030958 -1.674884
 3164 1  89.722046  -4.611057 -1.674884
 3165 1  88.467280  -6.726420 -1.674884
 3166 1  87.245974  -6.001981 -1.674884
 3167 1  87.262705  -4.582079 -1.674884
 3168 1  88.500740  -3.886617 -1.674884
 3169 1  86.007939  -6.697443 -1.674884
 3170 1  84.786633  -5.973003 -1.674884
 3171 1  84.803363  -4.553102 -1.674884
 3172 1  86.041399  -3.857640 -1.674884
 3173 1  83.548597  -6.668465 -1.674884
 3174 1  82.327292  -5.944025 -1.674884
 3175 1  82.344022  -4.524124 -1.674884
 3176 1  83.582058  -3.828662 -1.674884
 3177 1  81.089256  -6.639487 -1.674884
 3178 1  79.867950  -5.915048 -1.674884
 3179 1  79.884680  -4.495146 -1.674884
 3180 1  81.122716  -3.799684 -1.674884
 3181 1  78.629914  -6.610510 -1.674884
 3182 1  77.408609  -5.886070 -1.674884
 3183 1  77.425339  -4.466169 -1.674884
 3184 1  78.663375  -3.770707 -1.674884
 3185 1  76.170573  -6.581532 -1.674884
 3186 1  74.949267  -5.857093 -1.674884
 3187 1  74.965997  -4.437191 -1.674884
 3188 1  76.204033  -3.741729 -1.674884
 3189 1  73.711231  -6.552555 -1.674884
 3190 1  72.489926  -5.828115 -1.674884
 3191 1  72.506656  -4.408214 -1.674884
 3192 1  73.744692  -3.712752 -1.674884
 3193 1  71.251890  -6.523577 -1.674884
 3194 1  70.030584  -5.799138 -1.674884
 3195 1  70.047315  -4.379236 -1.674884
 3196 1  71.285350  -3.683774 -1.674884
 3197 1  68.792549  -6.494599 -1.674884
 3198 1  67.571243  -5.770160 -1.674884
 3199 1  67.587973  -4.350259 -1.674884
 3200 1  68.826009  -3.654797 -1.674884
 3201 1  66.333207  -6.465622 -1.674884
 3202 1  65.111901  -5.741182 -1.674884
 3203 1  65.128632  -4.321281 -1.674884
 3204 1  66.366668  -3.625819 -1.674884
 3205 1  63.873866  -6.436644 -1.674884
 3206 1  62.652560  -5.712205 -1.674884
 3207 1  62.669290  -4.292303 -1.674884
 3208 1  63.907326  -3.596841 -1.674884
 3209 1  61.414524  -6.407667 -1.674884
 3210 1  60.193219  -5.683227 -1.674884
 3211 1  60.209949  -4.263326 -1.674884
 3212 1  61.447985  -3.567864 -1.674884
 3213 1  58.955183  -6.378689 -1.674884
 3214 1  57.733877  -5.654250 -1.674884
 3215 1  57.750607  -4.234348 -1.674884
 3216 1  58.988643  -3.538886 -1.674884
 3217 1  56.495841  -6.349712 -1.674884
 3218 1  55.274536  -5.625272 -1.674884
 3219 1  55.291266  -4.205371 -1.674884
 3220 1  56.529302  -3.509909 -1.674884
 3221 1  54.036500  -6.320734 -1.674884
 3222 1  52.815194  -5.596294 -1.674884
 3223 1  52.831925  -4.176393 -1.674884
 3224 1  54.069960  -3.480931 -1.674884
 3225 1  51.577158  -6.291756 -1.674884
 3226 1  50.355853  -5.567317 -1.674884
 3227 1  50.372583  -4.147415 -1.674884
 3228 1  51.610619  -3.451954 -1.674884
 3229 1  49.117817  -6.262779 -1.674884
 3230 1  47.896511  -5.538339 -1.674884
 3231 1  47.913242  -4.118438 -1.674884
 3232 1  49.151277  -3.422976 -1.674884
 3233 1  46.658476  -6.233801 -1.674884
 3234 1  45.437170  -5.509362 -1.674884
 3235 1  45.453900  -4.089460 -1.674884
 3236 1  46.691936  -3.393998 -1.674884
 3237 1  44.199134  -6.204824 -1.674884
 3238 1  42.977829  -5.480384 -1.674884
 3239 1  42.994559  -4.060483 -1.674884
 3240 1  44.232595  -3.365021 -1.674884
 3241 1  41.739793  -6.175846 -1.674884
 3242 1  40.518487  -5.451407 -1.674884
 3243 1  40.535217  -4.031505 -1.674884
 3244 1  41.773253  -3.336043 -1.674884
 3245 1  39.280451  -6.146868 -1.674884
 3246 1  38.059146  -5.422429 -1.674884
 3247 1  38.075876  -4.002528 -1.674884
 3248 1  39.313912  -3.307066 -1.674884
 3249 1  36.821110  -6.117891 -1.674884
 3250 1  35.599804  -5.393451 -1.674884
 3251 1  35.616534  -3.973550 -1.674884
 3252 1  36.854570  -3.278088 -1.674884
 3253 1  34.361768  -6.088913 -1.674884
 3254 1  33.140463  -5.364474 -1.674884
 3255 1  33.157193  -3.944572 -1.674884
 3256 1  34.395229  -3.249110 -1.674884
 3257 1  31.902427  -6.059936 -1.674884
 3258 1  30.681121  -5.335496 -1.674884
 3259 1  30.697852  -3.915595 -1.674884
 3260 1  31.935887  -3.220133 -1.674884
 3261 1  29.443086  -6.030958 -1.674884
 3262 1  28.221780  -5.306519 -1.674884
 3263 1  28.238510  -3.886617 -1.674884
 3264 1  29.476546  -3.191155 -1.674884
 3265 1  26.983744  -6.001981 -1.674884
 3266 1  25.762438  -5.277541 -1.674884
 3267 1  25.779169  -3.857640 -1.674884
 3268 1  27.017205  -3.162178 -1.674884
 3269 1  24.524403  -5.973003 -1.674884
 3270 1  23.303097  -5.248563 -1.674884
 3271 1  23.319827  -3.828662 -1.674884
 3272 1  24.557863  -3.133200 -1.674884
 3273 1  22.065061  -5.944025 -1.674884
 3274 1  20.843756  -5.219586 -1.674884
 3275 1  20.860486  -3.799684 -1.674884
 3276 1  22.098522  -3.104223 -1.674884
 3277 1  19.605720  -5.915048 -1.674884
 3278 1  18.384414  -5.190608 -1.674884
 3279 1  18.401144  -3.770707 -1.674884
 3280 1  19.639180  -3.075245 -1.674884
 3281 1  17.146378  -5.886070 -1.674884
 3282 1  15.925073  -5.161631 -1.674884
 3283 1  15.941803  -3.741729 -1.674884
 3284 1  17.179839  -3.046267 -1.674884
 3285 1  14.687037  -5.857093 -1.674884
 3286 1  13.465731  -5.132653 -1.674884
 3287 1  13.482462  -3.712752 -1.674884
 3288 1  14.720497  -3.017290 -1.674884
 3289 1  12.227695  -5.828115 -1.674884
 3290 1  11.006390  -5.103676 -1.674884
 3291 1  11.023120  -3.683774 -1.674884
 3292 1  12.261156  -2.988312 -1.674884
 3293 1   9.768354  -5.799138 -1.674884
 3294 1   8.547048  -5.074698 -1.674884
 3295 1   8.563779  -3.654797 -1.674884
 3296 1   9.801814  -2.959335 -1.674884
 3297 1   7.309013  -5.770160 -1.674884
 3298 1   6.087707  -5.045720 -1.674884
 3299 1   6.104437  -3.625819 -1.674884
 3300 1   7.342473  -2.930357 -1.674884
 3301 1   4.849671  -5.741182 -1.674884
 3302 1   3.628366  -5.016743 -1.674884
 3303 1   3.645096  -3.596841 -1.674884
 3304 1   4.883132  -2.901379 -1.674884
 3305 1   2.390330  -5.712205 -1.674884
 3306 1   1.169024  -4.987765 -1.674884
 3307 1   1.185754  -3.567864 -1.674884
 3308 1   2.423790  -2.872402 -1.674884
 3309 1  -0.069012  -5.683227 -1.674884
 3310 1  -1.290317  -4.958788 -1.674884
 3311 1  -1.273587  -3.538886 -1.674884
 3312 1  -0.035551  -2.843424 -1.674884
 3313 1  -2.528353  -5.654250 -1.674884
 3314 1  -3.749659  -4.929810 -1.674884
 3315 1  -3.732929  -3.509909 -1.674884
 3316 1  -2.494893  -2.814447 -1.674884
 3317 1  -4.987695  -5.625272 -1.674884
 3318 1  -6.209000  -4.900833 -1.674884
 3319 1  -6.192270  -3.480931 -1.674884
 3320 1  -4.954234  -2.785469 -1.674884
 3321 1  -7.447036  -5.596294 -1.674884
 3322 1  -8.668342  -4.871855 -1.674884
 3323 1  -8.651611  -3.451954 -1.674884
 3324 1  -7.413576  -2.756492 -1.674884
 3325 1  -9.906377  -5.567317 -1.674884
 3326 1 -11.127683  -4.842877 -1.674884
 3327 1 -11.110953  -3.422976 -1.674884
 3328 1  -9.872917  -2.727514 -1.674884
 3329 1 -12.365719  -5.538339 -1.674884
 3330 1 -13.587024  -4.813900 -1.674884
 3331 1 -13.570294  -3.393998 -1.674884
 3332 1 -12.332258  -2.698536 -1.674884
 3333 1 -14.825060  -5.509362 -1.674884
 3334 1 -16.046366  -4.784922 -1.674884
 3335 1 -16.029636  -3.365021 -1.674884
 3336 1 -14.791600  -2.669559 -1.674884
 3337 1 -17.284402  -5.480384 -1.674884
 3338 1 -18.505707  -4.755945 -1.674884
 3339 1 -18.488977  -3.336043 -1.674884
 3340 1 -17.250941  -2.640581 -1.674884
 3341 1 -19.743743  -5.451407 -1.674884
 3342 1 -20.965049  -4.726967 -1.674884
 3343 1 -20.948319  -3.307066 -1.674884
 3344 1 -19.710283  -2.611604 -1.674884
 3345 1 -22.203085  -5.422429 -1.674884
 3346 1 -23.424390  -4.697989 -1.674884
 3347 1 -23.407660  -3.278088 -1.674884
 3348 1 -22.169624  -2.582626 -1.674884
 3349 1 -24.662426  -5.393451 -1.674884
 3350 1 -25.883732  -4.669012 -1.674884
 3351 1 -25.867001  -3.249110 -1.674884
 3352 1 -24.628966  -2.553649 -1.674884
 3353 1 -27.121767  -5.364474 -1.674884
 3354 1 -28.343073  -4.640034 -1.674884
 3355 1 -28.326343  -3.220133 -1.674884
 3356 1 -27.088307  -2.524671 -1.674884
 3357 1 -29.581109  -5.335496 -1.674884
 3358 1 -30.802415  -4.611057 -1.674884
 3359 1 -30.785684  -3.191155 -1.674884
 3360 1 -29.547649  -2.495693 -1.674884
 3361 1 -32.040450  -5.306519 -1.674884
 3362 1 -33.261756  -4.582079 -1.674884
 3363 1 -33.245026  -3.162178 -1.674884
 3364 1 -32.006990  -2.466716 -1.674884
 3365 1 -34.499792  -5.277541 -1.674884
 3366 1 -35.721097  -4.553102 -1.674884
 3367 1 -35.704367  -3.133200 -1.674884
 3368 1 -34.466331  -2.437738 -1.674884
 3369 1 -36.959133  -5.248563 -1.674884
 3370 1 -38.180439  -4.524124 -1.674884
 3371 1 -38.163709  -3.104223 -1.674884
 3372 1 -36.925673  -2.408761 -1.674884
 3373 1 -39.418475  -5.219586 -1.674884
 3374 1 -40.639780  -4.495146 -1.674884
 3375 1 -40.623050  -3.075245 -1.674884
 3376 1 -39.385014  -2.379783 -1.674884
 3377 1 -41.877816  -5.190608 -1.674884
 3378 1 -43.099122  -4.466169 -1.674884
 3379 1 -43.082392  -3.046267 -1.674884
 3380 1 -41.844356  -2.350805 -1.674884
 3381 1 -44.337158  -5.161631 -1.674884
 3382 1 -45.558463  -4.437191 -1.674884
 3383 1 -45.541733  -3.017290 -1.674884
 3384 1 -44.303697  -2.321828 -1.674884
 3385 1 -46.796499  -5.132653 -1.674884
 3386 1 -48.017805  -4.408214 -1.674884
 3387 1 -48.001074  -2.988312 -1.674884
 3388 1 -46.763039  -2.292850 -1.674884
 3389 1 -49.255840  -5.103676 -1.674884
 3390 1 -50.477146  -4.379236 -1.674884
 3391 1 -50.460416  -2.959335 -1.674884
 3392 1 -49.222380  -2.263873 -1.674884
 3393 1 -51.715182  -5.074698 -1.674884
 3394 1 -52.936487  -4.350259 -1.674884
 3395 1 -52.919757  -2.930357 -1.674884
 3396 1 -51.681721  -2.234895 -1.674884
 3397 1 -54.174523  -5.045720 -1.674884
 3398 1 -55.395829  -4.321281 -1.674884
 3399 1 -55.379099  -2.901379 -1.674884
 3400 1 -54.141063  -2.205918 -1.674884
 3401 1 -56.633865  -5.016743 -1.674884
 3402 1 -57.855170  -4.292303 -1.674884
 3403 1 -57.838440  -2.872402 -1.674884
 3404 1 -56.600404  -2.176940 -1.674884
 3405 1 -59.093206  -4.987765 -1.674884
 3406 1 -60.314512  -4.263326 -1.674884
 3407 1 -60.297782  -2.843424 -1.674884
 3408 1 -59.059746  -2.147962 -1.674884
 3409 1 -61.552548  -4.958788 -1.674884
 3410 1 -62.773853  -4.234348 -1.674884
 3411 1 -62.757123  -2.814447 -1.674884
 3412 1 -61.519087  -2.118985 -1.674884
 3413 1 -64.011889  -4.929810 -1.674884
 3414 1 -65.233195  -4.205371 -1.674884
 3415 1 -65.216464  -2.785469 -1.674884
 3416 1 -63.978429  -2.090007 -1.674884
 3417 1 -66.471230  -4.900833 -1.674884
 3418 1 -67.692536  -4.176393 -1.674884
 3419 1 -67.675806  -2.756492 -1.674884
 3420 1 -66.437770  -2.061030 -1.674884
 3421 1 -68.930572  -4.871855 -1.674884
 3422 1 -70.151878  -4.147415 -1.674884
 3423 1 -70.135147  -2.727514 -1.674884
 3424 1 -68.897111  -2.032052 -1.674884
 3425 1 -71.389913  -4.842877 -1.674884
 3426 1 -72.611219  -4.118438 -1.674884
 3427 1 -72.594489  -2.698536 -1.674884
 3428 1 -71.356453  -2.003074 -1.674884
 3429 1 -73.849255  -4.813900 -1.674884
 3430 1 -75.070560  -4.089460 -1.674884
 3431 1 -75.053830  -2.669559 -1.674884
 3432 1 -73.815794  -1.974097 -1.674884
 3433 1 -76.308596  -4.784922 -1.674884
 3434 1 -77.529902  -4.060483 -1.674884
 3435 1 -77.513172  -2.640581 -1.674884
 3436 1 -76.275136  -1.945119 -1.674884
 3437 1 -78.767938  -4.755945 -1.674884
 3438 1 -79.989243  -4.031505 -1.674884
 3439 1 -79.972513  -2.611604 -1.674884
 3440 1 -78.734477  -1.916142 -1.674884
 3441 1 -81.227279  -4.726967 -1.674884
 3442 1 -82.448585  -4.002528 -1.674884
 3443 1 -82.431854  -2.582626 -1.674884
 3444 1 -81.193819  -1.887164 -1.674884
 3445 1 -83.686621  -4.697989 -1.674884
 3446 1 -84.907926  -3.973550 -1.674884
 3447 1 -84.891196  -2.553649 -1.674884
 3448 1 -83.653160  -1.858187 -1.674884
 3449 1 -86.145962  -4.669012 -1.674884
 3450 1 -87.367268  -3.944572 -1.674884
 3451 1 -87.350537  -2.524671 -1.674884
 3452 1 -86.112502  -1.829209 -1.674884
 3453 1 -88.605303  -4.640034 -1.674884
 3454 1 -89.826609  -3.915595 -1.674884
 3455 1 -89.809879  -2.495693 -1.674884
 3456 1 -88.571843  -1.800231 -1.674884
 3457 1  89.755506  -1.771254 -1.674884
 3458 1  89.772237  -0.351352 -1.674884
 3459 1  88.517471  -2.466716 -1.674884
 3460 1  87.296165  -1.742276 -1.674884
 3461 1  87.312895  -0.322375 -1.674884
 3462 1  88.550931   0.373087 -1.674884
 3463 1  86.058129  -2.437738 -1.674884
 3464 1  84.836824  -1.713299 -1.674884
 3465 1  84.853554  -0.293397 -1.674884
 3466 1  86.091590   0.402065 -1.674884
 3467 1  83.598788  -2.408761 -1.674884
 3468 1  82.377482  -1.684321 -1.674884
 3469 1  82.394212  -0.264420 -1.674884
 3470 1  83.632248   0.431042 -1.674884
 3471 1  81.139446  -2.379783 -1.674884
 3472 1  79.918141  -1.655344 -1.674884
 3473 1  79.934871  -0.235442 -1.674884
 3474 1  81.172907   0.460020 -1.674884
 3475 1  78.680105  -2.350805 -1.674884
 3476 1  77.458799  -1.626366 -1.674884
 3477 1  77.475530  -0.206465 -1.674884
 3478 1  78.713565   0.488997 -1.674884
 3479 1  76.220763  -2.321828 -1.674884
 3480 1  74.999458  -1.597388 -1.674884
 3481 1  75.016188  -0.177487 -1.674884
 3482 1  76.254224   0.517975 -1.674884
 3483 1  73.761422  -2.292850 -1.674884
 3484 1  72.540116  -1.568411 -1.674884
 3485 1  72.556847  -0.148509 -1.674884
 3486 1  73.794882   0.546953 -1.674884
 3487 1  71.302081  -2.263873 -1.674884
 3488 1  70.080775  -1.539433 -1.674884
 3489 1  70.097505  -0.119532 -1.674884
 3490 1  71.335541   0.575930 -1.674884
 3491 1  68.842739  -2.234895 -1.674884
 3492 1  67.621434  -1.510456 -1.674884
 3493 1  67.638164  -0.090554 -1.674884
 3494 1  68.876200   0.604908 -1.674884
 3495 1  66.383398  -2.205918 -1.674884
 3496 1  65.162092  -1.481478 -1.674884
 3497 1  65.178822  -0.061577 -1.674884
 3498 1  66.416858   0.633885 -1.674884
 3499 1  63.924056  -2.176940 -1.674884
 3500 1  62.702751  -1.452500 -1.674884
 3501 1  62.719481  -0.032599 -1.674884
 3502 1  63.957517   0.662863 -1.674884
 3503 1  61.464715  -2.147962 -1.674884
 3504 1  60.243409  -1.423523 -1.674884
 3505 1  60.260139  -0.003621 -1.674884
 3506 1  61.498175   0.691840 -1.674884
 3507 1  59.005373  -2.118985 -1.674884
 3508 1  57.784068  -1.394545 -1.674884
 3509 1  57.800798   0.025356 -1.674884
 3510 1  59.038834   0.720818 -1.674884
 3511 1  56.546032  -2.090007 -1.674884
 3512 1  55.324726  -1.365568 -1.674884
 3513 1  55.341457   0.054334 -1.674884
 3514 1  56.579492   0.749796 -1.674884
 3515 1  54.086691  -2.061030 -1.674884
 3516 1  52.865385  -1.336590 -1.674884
 3517 1  52.882115   0.083311 -1.674884
 3518 1  54.120151   0.778773 -1.674884
 3519 1  51.627349  -2.032052 -1.674884
 3520 1  50.406043  -1.307613 -1.674884
 3521 1  50.422774   0.112289 -1.674884
 3522 1  51.660810   0.807751 -1.674884
 3523 1  49.168008  -2.003074 -1.674884
 3524 1  47.946702  -1.278635 -1.674884
 3525 1  47.963432   0.141266 -1.674884
 3526 1  49.201468   0.836728 -1.674884
 3527 1  46.708666  -1.974097 -1.674884
 3528 1  45.487361  -1.249657 -1.674884
 3529 1  45.504091   0.170244 -1.674884
 3530 1  46.742127   0.865706 -1.674884
 3531 1  44.249325  -1.945119 -1.674884
 3532 1  43.028019  -1.220680 -1.674884
 3533 1  43.044749   0.199222 -1.674884
 3534 1  44.282785   0.894684 -1.674884
 3535 1  41.789983  -1.916142 -1.674884
 3536 1  40.568678  -1.191702 -1.674884
 3537 1  40.585408   0.228199 -1.674884
 3538 1  41.823444   0.923661 -1.674884
 3539 1  39.330642  -1.887164 -1.674884
 3540 1  38.109336  -1.162725 -1.674884
 3541 1  38.126067   0.257177 -1.674884
 3542 1  39.364102   0.952639 -1.674884
 3543 1  36.871300  -1.858187 -1.674884
 3544 1  35.649995  -1.133747 -1.674884
 3545 1  35.666725   0.286154 -1.674884
 3546 1  36.904761   0.981616 -1.674884
 3547 1  34.411959  -1.829209 -1.674884
 3548 1  33.190653  -1.104769 -1.674884
 3549 1  33.207384   0.315132 -1.674884
 3550 1  34.445419   1.010594 -1.674884
 3551 1  31.952618  -1.800231 -1.674884
 3552 1  30.731312  -1.075792 -1.674884
 3553 1  30.748042   0.344110 -1.674884
 3554 1  31.986078   1.039571 -1.674884
 3555 1  29.493276  -1.771254 -1.674884
 3556 1  28.271971  -1.046814 -1.674884
 3557 1  28.288701   0.373087 -1.674884
 3558 1  29.526737   1.068549 -1.674884
 3559 1  27.033935  -1.742276 -1.674884
 3560 1  25.812629  -1.017837 -1.674884
 3561 1  25.829359   0.402065 -1.674884
 3562 1  27.067395   1.097527 -1.674884
 3563 1  24.574593  -1.713299 -1.674884
 3564 1  23.353288  -0.988859 -1.674884
 3565 1  23.370018   0.431042 -1.674884
 3566 1  24.608054   1.126504 -1.674884
 3567 1  22.115252  -1.684321 -1.674884
 3568 1  20.893946  -0.959882 -1.674884
 3569 1  20.910676   0.460020 -1.674884
 3570 1  22.148712   1.155482 -1.674884
 3571 1  19.655910  -1.655344 -1.674884
 3572 1  18.434605  -0.930904 -1.674884
 3573 1  18.451335   0.488997 -1.674884
 3574 1  19.689371   1.184459 -1.674884
 3575 1  17.196569  -1.626366 -1.674884
 3576 1  15.975263  -0.901926 -1.674884
 3577 1  15.991994   0.517975 -1.674884
 3578 1  17.230029   1.213437 -1.674884
 3579 1  14.737228  -1.597388 -1.674884
 3580 1  13.515922  -0.872949 -1.674884
 3581 1  13.532652   0.546953 -1.674884
 3582 1  14.770688   1.242415 -1.674884
 3583 1  12.277886  -1.568411 -1.674884
 3584 1  11.056581  -0.843971 -1.674884
 3585 1  11.073311   0.575930 -1.674884
 3586 1  12.311347   1.271392 -1.674884
 3587 1   9.818545  -1.539433 -1.674884
 3588 1   8.597239  -0.814994 -1.674884
 3589 1   8.613969   0.604908 -1.674884
 3590 1   9.852005   1.300370 -1.674884
 3591 1   7.359203  -1.510456 -1.674884
 3592 1   6.137898  -0.786016 -1.674884
 3593 1   6.154628   0.633885 -1.674884
 3594 1   7.392664   1.329347 -1.674884
 3595 1   4.899862  -1.481478 -1.674884
 3596 1   3.678556  -0.757039 -1.674884
 3597 1   3.695286   0.662863 -1.674884
 3598 1   4.933322   1.358325 -1.674884
 3599 1   2.440520  -1.452500 -1.674884
 3600 1   1.219215  -0.728061 -1.674884
 3601 1   1.235945   0.691840 -1.674884
 3602 1   2.473981   1.387302 -1.674884
 3603 1  -0.018821  -1.423523 -1.674884
 3604 1  -1.240127  -0.699083 -1.674884
 3605 1  -1.223396   0.720818 -1.674884
 3606 1   0.014639   1.416280 -1.674884
 3607 1  -2.478162  -1.394545 -1.674884
 3608 1  -3.699468  -0.670106 -1.674884
 3609 1  -3.682738   0.749796 -1.674884
 3610 1  -2.444702   1.445258 -1.674884
 3611 1  -4.937504  -1.365568 -1.674884
 3612 1  -6.158810  -0.641128 -1.674884
 3613 1  -6.142079   0.778773 -1.674884
 3614 1  -4.904043   1.474235 -1.674884
 3615 1  -7.396845  -1.336590 -1.674884
 3616 1  -8.618151  -0.612151 -1.674884
 3617 1  -8.601421   0.807751 -1.674884
 3618 1  -7.363385   1.503213 -1.674884
 3619 1  -9.856187  -1.307613 -1.674884
 3620 1 -11.077492  -0.583173 -1.674884
 3621 1 -11.060762   0.836728 -1.674884
 3622 1  -9.822726   1.532190 -1.674884
 3623 1 -12.315528  -1.278635 -1.674884
 3624 1 -13.536834  -0.554195 -1.674884
 3625 1 -13.520104   0.865706 -1.674884
 3626 1 -12.282068   1.561168 -1.674884
 3627 1 -14.774870  -1.249657 -1.674884
 3628 1 -15.996175  -0.525218 -1.674884
 3629 1 -15.979445   0.894684 -1.674884
 3630 1 -14.741409   1.590145 -1.674884
 3631 1 -17.234211  -1.220680 -1.674884
 3632 1 -18.455517  -0.496240 -1.674884
 3633 1 -18.438787   0.923661 -1.674884
 3634 1 -17.200751   1.619123 -1.674884
 3635 1 -19.693553  -1.191702 -1.674884
 3636 1 -20.914858  -0.467263 -1.674884
 3637 1 -20.898128   0.952639 -1.674884
 3638 1 -19.660092   1.648101 -1.674884
 3639 1 -22.152894  -1.162725 -1.674884
 3640 1 -23.374200  -0.438285 -1.674884
 3641 1 -23.357469   0.981616 -1.674884
 3642 1 -22.119434   1.677078 -1.674884
 3643 1 -24.612235  -1.133747 -1.674884
 3644 1 -25.833541  -0.409308 -1.674884
 3645 1 -25.816811   1.010594 -1.674884
 3646 1 -24.578775   1.706056 -1.674884
 3647 1 -27.071577  -1.104769 -1.674884
 3648 1 -28.292882  -0.380330 -1.674884
 3649 1 -28.276152   1.039571 -1.674884
 3650 1 -27.038116   1.735033 -1.674884
 3651 1 -29.530918  -1.075792 -1.674884
 3652 1 -30.752224  -0.351352 -1.674884
 3653 1 -30.735494   1.068549 -1.674884
 3654 1 -29.497458   1.764011 -1.674884
 3655 1 -31.990260  -1.046814 -1.674884
 3656 1 -33.211565  -0.322375 -1.674884
 3657 1 -33.194835   1.097527 -1.674884
 3658 1 -31.956799   1.792989 -1.674884
 3659 1 -34.449601  -1.017837 -1.674884
 3660 1 -35.670907  -0.293397 -1.674884
 3661 1 -35.654177   1.126504 -1.674884
 3662 1 -34.416141   1.821966 -1.674884
 3663 1 -36.908943  -0.988859 -1.674884
 3664 1 -38.130248  -0.264420 -1.674884
 3665 1 -38.113518   1.155482 -1.674884
 3666 1 -36.875482   1.850944 -1.674884
 3667 1 -39.368284  -0.959882 -1.674884
 3668 1 -40.589590  -0.235442 -1.674884
 3669 1 -40.572859   1.184459 -1.674884
 3670 1 -39.334824   1.879921 -1.674884
 3671 1 -41.827625  -0.930904 -1.674884
 3672 1 -43.048931  -0.206465 -1.674884
 3673 1 -43.032201   1.213437 -1.674884
 3674 1 -41.794165   1.908899 -1.674884
 3675 1 -44.286967  -0.901926 -1.674884
 3676 1 -45.508273  -0.177487 -1.674884
 3677 1 -45.491542   1.242415 -1.674884
 3678 1 -44.253506   1.937876 -1.674884
 3679 1 -46.746308  -0.872949 -1.674884
 3680 1 -47.967614  -0.148509 -1.674884
 3681 1 -47.950884   1.271392 -1.674884
 3682 1 -46.712848   1.966854 -1.674884
 3683 1 -49.205650  -0.843971 -1.674884
 3684 1 -50.426955  -0.119532 -1.674884
 3685 1 -50.410225   1.300370 -1.674884
 3686 1 -49.172189   1.995832 -1.674884
 3687 1 -51.664991  -0.814994 -1.674884
 3688 1 -52.886297  -0.090554 -1.674884
 3689 1 -52.869567   1.329347 -1.674884
 3690 1 -51.631531   2.024809 -1.674884
 3691 1 -54.124333  -0.786016 -1.674884
 3692 1 -55.345638  -0.061577 -1.674884
 3693 1 -55.328908   1.358325 -1.674884
 3694 1 -54.090872   2.053787 -1.674884
 3695 1 -56.583674  -0.757039 -1.674884
 3696 1 -57.804980  -0.032599 -1.674884
 3697 1 -57.788249   1.387302 -1.674884
 3698 1 -56.550214   2.082764 -1.674884
 3699 1 -59.043016  -0.728061 -1.674884
 3700 1 -60.264321  -0.003621 -1.674884
 3701 1 -60.247591   1.416280 -1.674884
 3702 1 -59.009555   2.111742 -1.674884
 3703 1 -61.502357  -0.699083 -1.674884
 3704 1 -62.723663   0.025356 -1.674884
 3705 1 -62.706932   1.445258 -1.674884
 3706 1 -61.468897   2.140720 -1.674884
 3707 1 -63.961698  -0.670106 -1.674884
 3708 1 -65.183004   0.054334 -1.674884
 3709 1 -65.166274   1.474235 -1.674884
 3710 1 -63.928238   2.169697 -1.674884
 3711 1 -66.421040  -0.641128 -1.674884
 3712 1 -67.642345   0.083311 -1.674884
 3713 1 -67.625615   1.503213 -1.674884
 3714 1 -66.387579   2.198675 -1.674884
 3715 1 -68.880381  -0.612151 -1.674884
 3716 1 -70.101687   0.112289 -1.674884
 3717 1 -70.084957   1.532190 -1.674884
 3718 1 -68.846921   2.227652 -1.674884
 3719 1 -71.339723  -0.583173 -1.674884
 3720 1 -72.561028   0.141266 -1.674884
 3721 1 -72.544298   1.561168 -1.674884
 3722 1 -71.306262   2.256630 -1.674884
 3723 1 -73.799064  -0.554195 -1.674884
 3724 1 -75.020370   0.170244 -1.674884
 3725 1 -75.003640   1.590145 -1.674884
 3726 1 -73.765604   2.285607 -1.674884
 3727 1 -76.258406  -0.525218 -1.674884
 3728 1 -77.479711   0.199222 -1.674884
 3729 1 -77.462981   1.619123 -1.674884
 3730 1 -76.224945   2.314585 -1.674884
 3731 1 -78.717747  -0.496240 -1.674884
 3732 1 -79.939053   0.228199 -1.674884
 3733 1 -79.922322   1.648101 -1.674884
 3734 1 -78.684287   2.343563 -1.674884
 3735 1 -81.177088  -0.467263 -1.674884
 3736 1 -82.398394   0.257177 -1.674884
 3737 1 -82.381664   1.677078 -1.674884
 3738 1 -81.143628   2.372540 -1.674884
 3739 1 -83.636430  -0.438285 -1.674884
 3740 1 -84.857735   0.286154 -1.674884
 3741 1 -84.841005   1.706056 -1.674884
 3742 1 -83.602969   2.401518 -1.674884
 3743 1 -86.095771  -0.409308 -1.674884
 3744 1 -87.317077   0.315132 -1.674884
 3745 1 -87.300347   1.735033 -1.674884
 3746 1 -86.062311   2.430495 -1.674884
 3747 1 -88.555113  -0.380330 -1.674884
 3748 1 -89.776418   0.344110 -1.674884
 3749 1 -89.759688   1.764011 -1.674884
 3750 1 -88.521652   2.459473 -1.674884
 3751 1  89.805697   2.488450 -1.674884
 3752 1  89.822427   3.908352 -1.674884
 3753 1  88.567661   1.792989 -1.674884
 3754 1  87.346356   2.517428 -1.674884
 3755 1  87.363086   3.937329 -1.674884
 3756 1  88.601122   4.632791 -1.674884
 3757 1  86.108320   1.821966 -1.674884
 3758 1  84.887014   2.546406 -1.674884
 3759 1  84.903744   3.966307 -1.674884
 3760 1  86.141780   4.661769 -1.674884
 3761 1  83.648978   1.850944 -1.674884
 3762 1  82.427673   2.575383 -1.674884
 3763 1  82.444403   3.995285 -1.674884
 3764 1  83.682439   4.690747 -1.674884
 3765 1  81.189637   1.879921 -1.674884
 3766 1  79.968331   2.604361 -1.674884
 3767 1  79.985062   4.024262 -1.674884
 3768 1  81.223097   4.719724 -1.674884
 3769 1  78.730296   1.908899 -1.674884
 3770 1  77.508990   2.633338 -1.674884
 3771 1  77.525720   4.053240 -1.674884
 3772 1  78.763756   4.748702 -1.674884
 3773 1  76.270954   1.937876 -1.674884
 3774 1  75.049648   2.662316 -1.674884
 3775 1  75.066379   4.082217 -1.674884
 3776 1  76.304415   4.777679 -1.674884
 3777 1  73.811613   1.966854 -1.674884
 3778 1  72.590307   2.691294 -1.674884
 3779 1  72.607037   4.111195 -1.674884
 3780 1  73.845073   4.806657 -1.674884
 3781 1  71.352271   1.995832 -1.674884
 3782 1  70.130966   2.720271 -1.674884
 3783 1  70.147696   4.140173 -1.674884
 3784 1  71.385732   4.835634 -1.674884
 3785 1  68.892930   2.024809 -1.674884
 3786 1  67.671624   2.749249 -1.674884
 3787 1  67.688354   4.169150 -1.674884
 3788 1  68.926390   4.864612 -1.674884
 3789 1  66.433588   2.053787 -1.674884
 3790 1  65.212283   2.778226 -1.674884
 3791 1  65.229013   4.198128 -1.674884
 3792 1  66.467049   4.893590 -1.674884
 3793 1  63.974247   2.082764 -1.674884
 3794 1  62.752941   2.807204 -1.674884
 3795 1  62.769672   4.227105 -1.674884
 3796 1  64.007707   4.922567 -1.674884
 3797 1  61.514905   2.111742 -1.674884
 3798 1  60.293600   2.836181 -1.674884
 3799 1  60.310330   4.256083 -1.674884
 3800 1  61.548366   4.951545 -1.674884
 3801 1  59.055564   2.140720 -1.674884
 3802 1  57.834258   2.865159 -1.674884
 3803 1  57.850989   4.285060 -1.674884
 3804 1  59.089024   4.980522 -1.674884
 3805 1  56.596223   2.169697 -1.674884
 3806 1  55.374917   2.894137 -1.674884
 3807 1  55.391647   4.314038 -1.674884
 3808 1  56.629683   5.009500 -1.674884
 3809 1  54.136881   2.198675 -1.674884
 3810 1  52.915576   2.923114 -1.674884
 3811 1  52.932306   4.343016 -1.674884
 3812 1  54.170342   5.038478 -1.674884
 3813 1  51.677540   2.227652 -1.674884
 3814 1  50.456234   2.952092 -1.674884
 3815 1  50.472964   4.371993 -1.674884
 3816 1  51.711000   5.067455 -1.674884
 3817 1  49.218198   2.256630 -1.674884
 3818 1  47.996893   2.981069 -1.674884
 3819 1  48.013623   4.400971 -1.674884
 3820 1  49.251659   5.096433 -1.674884
 3821 1  46.758857   2.285607 -1.674884
 3822 1  45.537551   3.010047 -1.674884
 3823 1  45.554281   4.429948 -1.674884
 3824 1  46.792317   5.125410 -1.674884
 3825 1  44.299515   2.314585 -1.674884
 3826 1  43.078210   3.039024 -1.674884
 3827 1  43.094940   4.458926 -1.674884
 3828 1  44.332976   5.154388 -1.674884
 3829 1  41.840174   2.343563 -1.674884
 3830 1  40.618868   3.068002 -1.674884
 3831 1  40.635599   4.487904 -1.674884
 3832 1  41.873634   5.183365 -1.674884
 3833 1  39.380833   2.372540 -1.674884
 3834 1  38.159527   3.096980 -1.674884
 3835 1  38.176257   4.516881 -1.674884
 3836 1  39.414293   5.212343 -1.674884
 3837 1  36.921491   2.401518 -1.674884
 3838 1  35.700186   3.125957 -1.674884
 3839 1  35.716916   4.545859 -1.674884
 3840 1  36.954952   5.241321 -1.674884
 3841 1  34.462150   2.430495 -1.674884
 3842 1  33.240844   3.154935 -1.674884
 3843 1  33.257574   4.574836 -1.674884
 3844 1  34.495610   5.270298 -1.674884
 3845 1  32.002808   2.459473 -1.674884
 3846 1  30.781503   3.183912 -1.674884
 3847 1  30.798233   4.603814 -1.674884
 3848 1  32.036269   5.299276 -1.674884
 3849 1  29.543467   2.488450 -1.674884
 3850 1  28.322161   3.212890 -1.674884
 3851 1  28.338891   4.632791 -1.674884
 3852 1  29.576927   5.328253 -1.674884
 3853 1  27.084125   2.517428 -1.674884
 3854 1  25.862820   3.241868 -1.674884
 3855 1  25.879550   4.661769 -1.674884
 3856 1  27.117586   5.357231 -1.674884
 3857 1  24.624784   2.546406 -1.674884
 3858 1  23.403478   3.270845 -1.674884
 3859 1  23.420209   4.690747 -1.674884
 3860 1  24.658244   5.386209 -1.674884
 3861 1  22.165443   2.575383 -1.674884
 3862 1  20.944137   3.299823 -1.674884
 3863 1  20.960867   4.719724 -1.674884
 3864 1  22.198903   5.415186 -1.674884
 3865 1  19.706101   2.604361 -1.674884
 3866 1  18.484795   3.328800 -1.674884
 3867 1  18.501526   4.748702 -1.674884
 3868 1  19.739562   5.444164 -1.674884
 3869 1  17.246760   2.633338 -1.674884
 3870 1  16.025454   3.357778 -1.674884
 3871 1  16.042184   4.777679 -1.674884
 3872 1  17.280220   5.473141 -1.674884
 3873 1  14.787418   2.662316 -1.674884
 3874 1  13.566113   3.386755 -1.674884
 3875 1  13.582843   4.806657 -1.674884
 3876 1  14.820879   5.502119 -1.674884
 3877 1  12.328077   2.691294 -1.674884
 3878 1  11.106771   3.415733 -1.674884
 3879 1  11.123501   4.835634 -1.674884
 3880 1  12.361537   5.531096 -1.674884
 3881 1   9.868735   2.720271 -1.674884
 3882 1   8.647430   3.444711 -1.674884
 3883 1   8.664160   4.864612 -1.674884
 3884 1   9.902196   5.560074 -1.674884
 3885 1   7.409394   2.749249 -1.674884
 3886 1   6.188088   3.473688 -1.674884
 3887 1   6.204818   4.893590 -1.674884
 3888 1   7.442854   5.589052 -1.674884
 3889 1   4.950052   2.778226 -1.674884
 3890 1   3.728747   3.502666 -1.674884
 3891 1   3.745477   4.922567 -1.674884
 3892 1   4.983513   5.618029 -1.674884
 3893 1   2.490711   2.807204 -1.674884
 3894 1   1.269405   3.531643 -1.674884
 3895 1   1.286136   4.951545 -1.674884
 3896 1   2.524171   5.647007 -1.674884
 3897 1   0.031370   2.836181 -1.674884
 3898 1  -1.189936   3.560621 -1.674884
 3899 1  -1.173206   4.980522 -1.674884
 3900 1   0.064830   5.675984 -1.674884
 3901 1  -2.427972   2.865159 -1.674884
 3902 1  -3.649277   3.589599 -1.674884
 3903 1  -3.632547   5.009500 -1.674884
 3904 1  -2.394511   5.704962 -1.674884
 3905 1  -4.887313   2.894137 -1.674884
 3906 1  -6.108619   3.618576 -1.674884
 3907 1  -6.091889   5.038478 -1.674884
 3908 1  -4.853853   5.733939 -1.674884
 3909 1  -7.346655   2.923114 -1.674884
 3910 1  -8.567960   3.647554 -1.674884
 3911 1  -8.551230   5.067455 -1.674884
 3912 1  -7.313194   5.762917 -1.674884
 3913 1  -9.805996   2.952092 -1.674884
 3914 1 -11.027302   3.676531 -1.674884
 3915 1 -11.010572   5.096433 -1.674884
 3916 1  -9.772536   5.791895 -1.674884
 3917 1 -12.265338   2.981069 -1.674884
 3918 1 -13.486643   3.705509 -1.674884
 3919 1 -13.469913   5.125410 -1.674884
 3920 1 -12.231877   5.820872 -1.674884
 3921 1 -14.724679   3.010047 -1.674884
 3922 1 -15.945985   3.734486 -1.674884
 3923 1 -15.929254   5.154388 -1.674884
 3924 1 -14.691219   5.849850 -1.674884
 3925 1 -17.184020   3.039024 -1.674884
 3926 1 -18.405326   3.763464 -1.674884
 3927 1 -18.388596   5.183365 -1.674884
 3928 1 -17.150560   5.878827 -1.674884
 3929 1 -19.643362   3.068002 -1.674884
 3930 1 -20.864668   3.792442 -1.674884
 3931 1 -20.847937   5.212343 -1.674884
 3932 1 -19.609901   5.907805 -1.674884
 3933 1 -22.102703   3.096980 -1.674884
 3934 1 -23.324009   3.821419 -1.674884
 3935 1 -23.307279   5.241321 -1.674884
 3936 1 -22.069243   5.936783 -1.674884
 3937 1 -24.562045   3.125957 -1.674884
 3938 1 -25.783350   3.850397 -1.674884
 3939 1 -25.766620   5.270298 -1.674884
 3940 1 -24.528584   5.965760 -1.674884
 3941 1 -27.021386   3.154935 -1.674884
 3942 1 -28.242692   3.879374 -1.674884
 3943 1 -28.225962   5.299276 -1.674884
 3944 1 -26.987926   5.994738 -1.674884
 3945 1 -29.480728   3.183912 -1.674884
 3946 1 -30.702033   3.908352 -1.674884
 3947 1 -30.685303   5.328253 -1.674884
 3948 1 -29.447267   6.023715 -1.674884
 3949 1 -31.940069   3.212890 -1.674884
 3950 1 -33.161375   3.937329 -1.674884
 3951 1 -33.144644   5.357231 -1.674884
 3952 1 -31.906609   6.052693 -1.674884
 3953 1 -34.399411   3.241868 -1.674884
 3954 1 -35.620716   3.966307 -1.674884
 3955 1 -35.603986   5.386209 -1.674884
 3956 1 -34.365950   6.081670 -1.674884
 3957 1 -36.858752   3.270845 -1.674884
 3958 1 -38.080058   3.995285 -1.674884
 3959 1 -38.063327   5.415186 -1.674884
 3960 1 -36.825292   6.110648 -1.674884
 3961 1 -39.318093   3.299823 -1.674884
 3962 1 -40.539399   4.024262 -1.674884
 3963 1 -40.522669   5.444164 -1.674884
 3964 1 -39.284633   6.139626 -1.674884
 3965 1 -41.777435   3.328800 -1.674884
 3966 1 -42.998740   4.053240 -1.674884
 3967 1 -42.982010   5.473141 -1.674884
 3968 1 -41.743974   6.168603 -1.674884
 3969 1 -44.236776   3.357778 -1.674884
 3970 1 -45.458082   4.082217 -1.674884
 3971 1 -45.441352   5.502119 -1.674884
 3972 1 -44.203316   6.197581 -1.674884
 3973 1 -46.696118   3.386755 -1.674884
 3974 1 -47.917423   4.111195 -1.674884
 3975 1 -47.900693   5.531096 -1.674884
 3976 1 -46.662657   6.226558 -1.674884
 3977 1 -49.155459   3.415733 -1.674884
 3978 1 -50.376765   4.140173 -1.674884
 3979 1 -50.360035   5.560074 -1.674884
 3980 1 -49.121999   6.255536 -1.674884
 3981 1 -51.614801   3.444711 -1.674884
 3982 1 -52.836106   4.169150 -1.674884
 3983 1 -52.819376   5.589052 -1.674884
 3984 1 -51.581340   6.284514 -1.674884
 3985 1 -54.074142   3.473688 -1.674884
 3986 1 -55.295448   4.198128 -1.674884
 3987 1 -55.278717   5.618029 -1.674884
 3988 1 -54.040682   6.313491 -1.674884
 3989 1 -56.533483   3.502666 -1.674884
 3990 1 -57.754789   4.227105 -1.674884
 3991 1 -57.738059   5.647007 -1.674884
 3992 1 -56.500023   6.342469 -1.674884
 3993 1 -58.992825   3.531643 -1.674884
 3994 1 -60.214130   4.256083 -1.674884
 3995 1 -60.197400   5.675984 -1.674884
 3996 1 -58.959364   6.371446 -1.674884
 3997 1 -61.452166   3.560621 -1.674884
 3998 1 -62.673472   4.285060 -1.674884
 3999 1 -62.656742   5.704962 -1.674884
 4000 1 -61.418706   6.400424 -1.674884
 4001 1 -63.911508   3.589599 -1.674884
 4002 1 -65.132813   4.314038 -1.674884
 4003 1 -65.116083   5.733939 -1.674884
 4004 1 -63.878047   6.429401 -1.674884
 4005 1 -66.370849   3.618576 -1.674884
 4006 1 -67.592155   4.343016 -1.674884
 4007 1 -67.575425   5.762917 -1.674884
 4008 1 -66.337389   6.458379 -1.674884
 4009 1 -68.830191   3.647554 -1.674884
 4010 1 -70.051496   4.371993 -1.674884
 4011 1 -70.034766   5.791895 -1.674884
 4012 1 -68.796730   6.487357 -1.674884
 4013 1 -71.289532   3.676531 -1.674884
 4014 1 -72.510838   4.400971 -1.674884
 4015 1 -72.494107   5.820872 -1.674884
 4016 1 -71.256072   6.516334 -1.674884
 4017 1 -73.748873   3.705509 -1.674884
 4018 1 -74.970179   4.429948 -1.674884
 4019 1 -74.953449   5.849850 -1.674884
 4020 1 -73.715413   6.545312 -1.674884
 4021 1 -76.208215   3.734486 -1.674884
 4022 1 -77.429521   4.458926 -1.674884
 4023 1 -77.412790   5.878827 -1.674884
 4024 1 -76.174755   6.574289 -1.674884
 4025 1 -78.667556   3.763464 -1.674884
 4026 1 -79.888862   4.487904 -1.674884
 4027 1 -79.872132   5.907805 -1.674884
 4028 1 -78.634096   6.603267 -1.674884
 4029 1 -81.126898   3.792442 -1.674884
 4030 1 -82.348203   4.516881 -1.674884
 4031 1 -82.331473   5.936783 -1.674884
 4032 1 -81.093437   6.632244 -1.674884
 4033 1 -83.586239   3.821419 -1.674884
 4034 1 -84.807545   4.545859 -1.674884
 4035 1 -84.790815   5.965760 -1.674884
 4036 1 -83.552779   6.661222 -1.674884
 4037 1 -86.045581   3.850397 -1.674884
 4038 1 -87.266886   4.574836 -1.674884
 4039 1 -87.250156   5.994738 -1.674884
 4040 1 -86.012120   6.690200 -1.674884
 4041 1 -88.504922   3.879374 -1.674884
 4042 1 -89.726228   4.603814 -1.674884
 4043 1 -89.709498   6.023715 -1.674884
 4044 1 -88.471462   6.719177 -1.674884
 4045 1  89.855888   6.748155 -1.674884
 4046 1  89.872618   8.168056 -1.674884
 4047 1  88.617852   6.052693 -1.674884
 4048 1  87.396546   6.777132 -1.674884
 4049 1  87.413277   8.197034 -1.674884
 4050 1  88.651312   8.892496 -1.674884
 4051 1  86.158510   6.081670 -1.674884
 4052 1  84.937205   6.806110 -1.674884
 4053 1  84.953935   8.226011 -1.674884
 4054 1  86.191971   8.921473 -1.674884
 4055 1  83.699169   6.110648 -1.674884
 4056 1  82.477863   6.835088 -1.674884
 4057 1  82.494594   8.254989 -1.674884
 4058 1  83.732629   8.950451 -1.674884
 4059 1  81.239828   6.139626 -1.674884
 4060 1  80.018522   6.864065 -1.674884
 4061 1  80.035252   8.283967 -1.674884
 4062 1  81.273288   8.979428 -1.674884
 4063 1  78.780486   6.168603 -1.674884
 4064 1  77.559181   6.893043 -1.674884
 4065 1  77.575911   8.312944 -1.674884
 4066 1  78.813947   9.008406 -1.674884
 4067 1  76.321145   6.197581 -1.674884
 4068 1  75.099839   6.922020 -1.674884
 4069 1  75.116569   8.341922 -1.674884
 4070 1  76.354605   9.037384 -1.674884
 4071 1  73.861803   6.226558 -1.674884
 4072 1  72.640498   6.950998 -1.674884
 4073 1  72.657228   8.370899 -1.674884
 4074 1  73.895264   9.066361 -1.674884
 4075 1  71.402462   6.255536 -1.674884
 4076 1  70.181156   6.979975 -1.674884
 4077 1  70.197886   8.399877 -1.674884
 4078 1  71.435922   9.095339 -1.674884
 4079 1  68.943120   6.284514 -1.674884
 4080 1  67.721815   7.008953 -1.674884
 4081 1  67.738545   8.428854 -1.674884
 4082 1  68.976581   9.124316 -1.674884
 4083 1  66.483779   6.313491 -1.674884
 4084 1  65.262473   7.037931 -1.674884
 4085 1  65.279204   8.457832 -1.674884
 4086 1  66.517239   9.153294 -1.674884
 4087 1  64.024438   6.342469 -1.674884
 4088 1  62.803132   7.066908 -1.674884
 4089 1  62.819862   8.486810 -1.674884
 4090 1  64.057898   9.182272 -1.674884
 4091 1  61.565096   6.371446 -1.674884
 4092 1  60.343791   7.095886 -1.674884
 4093 1  60.360521   8.515787 -1.674884
 4094 1  61.598557   9.211249 -1.674884
 4095 1  59.105755   6.400424 -1.674884
 4096 1  57.884449   7.124863 -1.674884
 4097 1  57.901179   8.544765 -1.674884
 4098 1  59.139215   9.240227 -1.674884
 4099 1  56.646413   6.429401 -1.674884
 4100 1  55.425108   7.153841 -1.674884
 4101 1  55.441838   8.573742 -1.674884
 4102 1  56.679874   9.269204 -1.674884
 4103 1  54.187072   6.458379 -1.674884
 4104 1  52.965766   7.182818 -1.674884
 4105 1  52.982496   8.602720 -1.674884
 4106 1  54.220532   9.298182 -1.674884
 4107 1  51.727730   6.487357 -1.674884
 4108 1  50.506425   7.211796 -1.674884
 4109 1  50.523155   8.631698 -1.674884
 4110 1  51.761191   9.327159 -1.674884
 4111 1  49.268389   6.516334 -1.674884
 4112 1  48.047083   7.240774 -1.674884
 4113 1  48.063814   8.660675 -1.674884
 4114 1  49.301849   9.356137 -1.674884
 4115 1  46.809048   6.545312 -1.674884
 4116 1  45.587742   7.269751 -1.674884
 4117 1  45.604472   8.689653 -1.674884
 4118 1  46.842508   9.385115 -1.674884
 4119 1  44.349706   6.574289 -1.674884
 4120 1  43.128400   7.298729 -1.674884
 4121 1  43.145131   8.718630 -1.674884
 4122 1  44.383167   9.414092 -1.674884
 4123 1  41.890365   6.603267 -1.674884
 4124 1  40.669059   7.327706 -1.674884
 4125 1  40.685789   8.747608 -1.674884
 4126 1  41.923825   9.443070 -1.674884
 4127 1  39.431023   6.632244 -1.674884
 4128 1  38.209718   7.356684 -1.674884
 4129 1  38.226448   8.776585 -1.674884
 4130 1  39.464484   9.472047 -1.674884
 4131 1  36.971682   6.661222 -1.674884
 4132 1  35.750376   7.385662 -1.674884
 4133 1  35.767106   8.805563 -1.674884
 4134 1  37.005142   9.501025 -1.674884
 4135 1  34.512340   6.690200 -1.674884
 4136 1  33.291035   7.414639 -1.674884
 4137 1  33.307765   8.834541 -1.674884
 4138 1  34.545801   9.530003 -1.674884
 4139 1  32.052999   6.719177 -1.674884
 4140 1  30.831693   7.443617 -1.674884
 4141 1  30.848424   8.863518 -1.674884
 4142 1  32.086459   9.558980 -1.674884
 4143 1  29.593657   6.748155 -1.674884
 4144 1  28.372352   7.472594 -1.674884
 4145 1  28.389082   8.892496 -1.674884
 4146 1  29.627118   9.587958 -1.674884
 4147 1  27.134316   6.777132 -1.674884
 4148 1  25.913010   7.501572 -1.674884
 4149 1  25.929741   8.921473 -1.674884
 4150 1  27.167776   9.616935 -1.674884
 4151 1  24.674975   6.806110 -1.674884
 4152 1  23.453669   7.530549 -1.674884
 4153 1  23.470399   8.950451 -1.674884
 4154 1  24.708435   9.645913 -1.674884
 4155 1  22.215633   6.835088 -1.674884
 4156 1  20.994328   7.559527 -1.674884
 4157 1  21.011058   8.979428 -1.674884
 4158 1  22.249094   9.674890 -1.674884
 4159 1  19.756292   6.864065 -1.674884
 4160 1  18.534986   7.588505 -1.674884
 4161 1  18.551716   9.008406 -1.674884
 4162 1  19.789752   9.703868 -1.674884
 4163 1  17.296950   6.893043 -1.674884
 4164 1  16.075645   7.617482 -1.674884
 4165 1  16.092375   9.037384 -1.674884
 4166 1  17.330411   9.732846 -1.674884
 4167 1  14.837609   6.922020 -1.674884
 4168 1  13.616303   7.646460 -1.674884
 4169 1  13.633033   9.066361 -1.674884
 4170 1  14.871069   9.761823 -1.674884
 4171 1  12.378267   6.950998 -1.674884
 4172 1  11.156962   7.675437 -1.674884
 4173 1  11.173692   9.095339 -1.674884
 4174 1  12.411728   9.790801 -1.674884
 4175 1   9.918926   6.979975 -1.674884
 4176 1   8.697620   7.704415 -1.674884
 4177 1   8.714351   9.124316 -1.674884
 4178 1   9.952386   9.819778 -1.674884
 4179 1   7.459585   7.008953 -1.674884
 4180 1   6.238279   7.733393 -1.674884
 4181 1   6.255009   9.153294 -1.674884
 4182 1   7.493045   9.848756 -1.674884
 4183 1   5.000243   7.037931 -1.674884
 4184 1   3.778937   7.762370 -1.674884
 4185 1   3.795668   9.182272 -1.674884
 4186 1   5.033704   9.877733 -1.674884
 4187 1   2.540902   7.066908 -1.674884
 4188 1   1.319596   7.791348 -1.674884
 4189 1   1.336326   9.211249 -1.674884
 4190 1   2.574362   9.906711 -1.674884
 4191 1   0.081560   7.095886 -1.674884
 4192 1  -1.139745   7.820325 -1.674884
 4193 1  -1.123015   9.240227 -1.674884
 4194 1   0.115021   9.935689 -1.674884
 4195 1  -2.377781   7.124863 -1.674884
 4196 1  -3.599087   7.849303 -1.674884
 4197 1  -3.582357   9.269204 -1.674884
 4198 1  -2.344321   9.964666 -1.674884
 4199 1  -4.837123   7.153841 -1.674884
 4200 1  -6.058428   7.878280 -1.674884
 4201 1  -6.041698   9.298182 -1.674884
 4202 1  -4.803662   9.993644 -1.674884
 4203 1  -7.296464   7.182818 -1.674884
 4204 1  -8.517770   7.907258 -1.674884
 4205 1  -8.501039   9.327159 -1.674884
 4206 1  -7.263004  10.022621 -1.674884
 4207 1  -9.755806   7.211796 -1.674884
 4208 1 -10.977111   7.936236 -1.674884
 4209 1 -10.960381   9.356137 -1.674884
 4210 1  -9.722345  10.051599 -1.674884
 4211 1 -12.215147   7.240774 -1.674884
 4212 1 -13.436453   7.965213 -1.674884
 4213 1 -13.419722   9.385115 -1.674884
 4214 1 -12.181687  10.080577 -1.674884
 4215 1 -14.674488   7.269751 -1.674884
 4216 1 -15.895794   7.994191 -1.674884
 4217 1 -15.879064   9.414092 -1.674884
 4218 1 -14.641028  10.109554 -1.674884
 4219 1 -17.133830   7.298729 -1.674884
 4220 1 -18.355135   8.023168 -1.674884
 4221 1 -18.338405   9.443070 -1.674884
 4222 1 -17.100369  10.138532 -1.674884
 4223 1 -19.593171   7.327706 -1.674884
 4224 1 -20.814477   8.052146 -1.674884
 4225 1 -20.797747   9.472047 -1.674884
 4226 1 -19.559711  10.167509 -1.674884
 4227 1 -22.052513   7.356684 -1.674884
 4228 1 -23.273818   8.081123 -1.674884
 4229 1 -23.257088   9.501025 -1.674884
 4230 1 -22.019052  10.196487 -1.674884
 4231 1 -24.511854   7.385662 -1.674884
 4232 1 -25.733160   8.110101 -1.674884
 4233 1 -25.716430   9.530003 -1.674884
 4234 1 -24.478394  10.225464 -1.674884
 4235 1 -26.971196   7.414639 -1.674884
 4236 1 -28.192501   8.139079 -1.674884
 4237 1 -28.175771   9.558980 -1.674884
 4238 1 -26.937735  10.254442 -1.674884
 4239 1 -29.430537   7.443617 -1.674884
 4240 1 -30.651843   8.168056 -1.674884
 4241 1 -30.635112   9.587958 -1.674884
 4242 1 -29.397077  10.283420 -1.674884
 4243 1 -31.889878   7.472594 -1.674884
 4244 1 -33.111184   8.197034 -1.674884
 4245 1 -33.094454   9.616935 -1.674884
 4246 1 -31.856418  10.312397 -1.674884
 4247 1 -34.349220   7.501572 -1.674884
 4248 1 -35.570525   8.226011 -1.674884
 4249 1 -35.553795   9.645913 -1.674884
 4250 1 -34.315759  10.341375 -1.674884
 4251 1 -36.808561   7.530549 -1.674884
 4252 1 -38.029867   8.254989 -1.674884
 4253 1 -38.013137   9.674890 -1.674884
 4254 1 -36.775101  10.370352 -1.674884
 4255 1 -39.267903   7.559527 -1.674884
 4256 1 -40.489208   8.283967 -1.674884
 4257 1 -40.472478   9.703868 -1.674884
 4258 1 -39.234442  10.399330 -1.674884
 4259 1 -41.727244   7.588505 -1.674884
 4260 1 -42.948550   8.312944 -1.674884
 4261 1 -42.931820   9.732846 -1.674884
 4262 1 -41.693784  10.428308 -1.674884
 4263 1 -44.186586   7.617482 -1.674884
 4264 1 -45.407891   8.341922 -1.674884
 4265 1 -45.391161   9.761823 -1.674884
 4266 1 -44.153125  10.457285 -1.674884
 4267 1 -46.645927   7.646460 -1.674884
 4268 1 -47.867233   8.370899 -1.674884
 4269 1 -47.850502   9.790801 -1.674884
 4270 1 -46.612467  10.486263 -1.674884
 4271 1 -49.105268   7.675437 -1.674884
 4272 1 -50.326574   8.399877 -1.674884
 4273 1 -50.309844   9.819778 -1.674884
 4274 1 -49.071808  10.515240 -1.674884
 4275 1 -51.564610   7.704415 -1.674884
 4276 1 -52.785916   8.428854 -1.674884
 4277 1 -52.769185   9.848756 -1.674884
 4278 1 -51.531150  10.544218 -1.674884
 4279 1 -54.023951   7.733393 -1.674884
 4280 1 -55.245257   8.457832 -1.674884
 4281 1 -55.228527   9.877733 -1.674884
 4282 1 -53.990491  10.573195 -1.674884
 4283 1 -56.483293   7.762370 -1.674884
 4284 1 -57.704598   8.486810 -1.674884
 4285 1 -57.687868   9.906711 -1.674884
 4286 1 -56.449832  10.602173 -1.674884
 4287 1 -58.942634   7.791348 -1.674884
 4288 1 -60.163940   8.515787 -1.674884
 4289 1 -60.147210   9.935689 -1.674884
 4290 1 -58.909174  10.631151 -1.674884
 4291 1 -61.401976   7.820325 -1.674884
 4292 1 -62.623281   8.544765 -1.674884
 4293 1 -62.606551   9.964666 -1.674884
 4294 1 -61.368515  10.660128 -1.674884
 4295 1 -63.861317   7.849303 -1.674884
 4296 1 -65.082623   8.573742 -1.674884
 4297 1 -65.065893   9.993644 -1.674884
 4298 1 -63.827857  10.689106 -1.674884
 4299 1 -66.320659   7.878280 -1.674884
 4300 1 -67.541964   8.602720 -1.674884
 4301 1 -67.525234  10.022621 -1.674884
 4302 1 -66.287198  10.718083 -1.674884
 4303 1 -68.780000   7.907258 -1.674884
 4304 1 -70.001306   8.631698 -1.674884
 4305 1 -69.984575  10.051599 -1.674884
 4306 1 -68.746540  10.747061 -1.674884
 4307 1 -71.239341   7.936236 -1.674884
 4308 1 -72.460647   8.660675 -1.674884
 4309 1 -72.443917  10.080577 -1.674884
 4310 1 -71.205881  10.776038 -1.674884
 4311 1 -73.698683   7.965213 -1.674884
 4312 1 -74.919988   8.689653 -1.674884
 4313 1 -74.903258  10.109554 -1.674884
 4314 1 -73.665222  10.805016 -1.674884
 4315 1 -76.158024   7.994191 -1.674884
 4316 1 -77.379330   8.718630 -1.674884
 4317 1 -77.362600  10.138532 -1.674884
 4318 1 -76.124564  10.833994 -1.674884
 4319 1 -78.617366   8.023168 -1.674884
 4320 1 -79.838671   8.747608 -1.674884
 4321 1 -79.821941  10.167509 -1.674884
 4322 1 -78.583905  10.862971 -1.674884
 4323 1 -81.076707   8.052146 -1.674884
 4324 1 -82.298013   8.776585 -1.674884
 4325 1 -82.281283  10.196487 -1.674884
 4326 1 -81.043247  10.891949 -1.674884
 4327 1 -83.536049   8.081123 -1.674884
 4328 1 -84.757354   8.805563 -1.674884
 4329 1 -84.740624  10.225464 -1.674884
 4330 1 -83.502588  10.920926 -1.674884
 4331 1 -85.995390   8.110101 -1.674884
 4332 1 -87.216696   8.834541 -1.674884
 4333 1 -87.199965  10.254442 -1.674884
 4334 1 -85.961930  10.949904 -1.674884
 4335 1 -88.454731   8.139079 -1.674884
 4336 1 -89.676037   8.863518 -1.674884
 4337 1 -89.659307  10.283420 -1.674884
 4338 1 -88.421271  10.978882 -1.674884
 4339 1  89.906078  11.007859 -1.674884
 4340 1  89.922809  12.427761 -1.674884
 4341 1  88.668043  10.312397 -1.674884
 4342 1  87.446737  11.036837 -1.674884
 4343 1  87.463467  12.456738 -1.674884
 4344 1  88.701503  13.152200 -1.674884
 4345 1  86.208701  10.341375 -1.674884
 4346 1  84.987396  11.065814 -1.674884
 4347 1  85.004126  12.485716 -1.674884
 4348 1  86.242162  13.181178 -1.674884
 4349 1  83.749360  10.370352 -1.674884
 4350 1  82.528054  11.094792 -1.674884
 4351 1  82.544784  12.514693 -1.674884
 4352 1  83.782820  13.210155 -1.674884
 4353 1  81.290018  10.399330 -1.674884
 4354 1  80.068713  11.123769 -1.674884
 4355 1  80.085443  12.543671 -1.674884
 4356 1  81.323479  13.239133 -1.674884
 4357 1  78.830677  10.428308 -1.674884
 4358 1  77.609371  11.152747 -1.674884
 4359 1  77.626101  12.572648 -1.674884
 4360 1  78.864137  13.268110 -1.674884
 4361 1  76.371335  10.457285 -1.674884
 4362 1  75.150030  11.181725 -1.674884
 4363 1  75.166760  12.601626 -1.674884
 4364 1  76.404796  13.297088 -1.674884
 4365 1  73.911994  10.486263 -1.674884
 4366 1  72.690688  11.210702 -1.674884
 4367 1  72.707419  12.630604 -1.674884
 4368 1  73.945454  13.326066 -1.674884
 4369 1  71.452653  10.515240 -1.674884
 4370 1  70.231347  11.239680 -1.674884
 4371 1  70.248077  12.659581 -1.674884
 4372 1  71.486113  13.355043 -1.674884
 4373 1  68.993311  10.544218 -1.674884
 4374 1  67.772005  11.268657 -1.674884
 4375 1  67.788736  12.688559 -1.674884
 4376 1  69.026772  13.384021 -1.674884
 4377 1  66.533970  10.573195 -1.674884
 4378 1  65.312664  11.297635 -1.674884
 4379 1  65.329394  12.717536 -1.674884
 4380 1  66.567430  13.412998 -1.674884
 4381 1  64.074628  10.602173 -1.674884
 4382 1  62.853323  11.326612 -1.674884
 4383 1  62.870053  12.746514 -1.674884
 4384 1  64.108089  13.441976 -1.674884
 4385 1  61.615287  10.631151 -1.674884
 4386 1  60.393981  11.355590 -1.674884
 4387 1  60.410711  12.775492 -1.674884
 4388 1  61.648747  13.470953 -1.674884
 4389 1  59.155945  10.660128 -1.674884
 4390 1  57.934640  11.384568 -1.674884
 4391 1  57.951370  12.804469 -1.674884
 4392 1  59.189406  13.499931 -1.674884
 4393 1  56.696604  10.689106 -1.674884
 4394 1  55.475298  11.413545 -1.674884
 4395 1  55.492029  12.833447 -1.674884
 4396 1  56.730064  13.528909 -1.674884
 4397 1  54.237262  10.718083 -1.674884
 4398 1  53.015957  11.442523 -1.674884
 4399 1  53.032687  12.862424 -1.674884
 4400 1  54.270723  13.557886 -1.674884
 4401 1  51.777921  10.747061 -1.674884
 4402 1  50.556615  11.471500 -1.674884
 4403 1  50.573346  12.891402 -1.674884
 4404 1  51.811381  13.586864 -1.674884
 4405 1  49.318580  10.776038 -1.674884
 4406 1  48.097274  11.500478 -1.674884
 4407 1  48.114004  12.920379 -1.674884
 4408 1  49.352040  13.615841 -1.674884
 4409 1  46.859238  10.805016 -1.674884
 4410 1  45.637933  11.529456 -1.674884
 4411 1  45.654663  12.949357 -1.674884
 4412 1  46.892699  13.644819 -1.674884
 4413 1  44.399897  10.833994 -1.674884
 4414 1  43.178591  11.558433 -1.674884
 4415 1  43.195321  12.978335 -1.674884
 4416 1  44.433357  13.673797 -1.674884
 4417 1  41.940555  10.862971 -1.674884
 4418 1  40.719250  11.587411 -1.674884
 4419 1  40.735980  13.007312 -1.674884
 4420 1  41.974016  13.702774 -1.674884
 4421 1  39.481214  10.891949 -1.674884
 4422 1  38.259908  11.616388 -1.674884
 4423 1  38.276638  13.036290 -1.674884
 4424 1  39.514674  13.731752 -1.674884
 4425 1  37.021872  10.920926 -1.674884
 4426 1  35.800567  11.645366 -1.674884
 4427 1  35.817297  13.065267 -1.674884
 4428 1  37.055333  13.760729 -1.674884
 4429 1  34.562531  10.949904 -1.674884
 4430 1  33.341225  11.674343 -1.674884
 4431 1  33.357956  13.094245 -1.674884
 4432 1  34.595991  13.789707 -1.674884
 4433 1  32.103190  10.978882 -1.674884
 4434 1  30.881884  11.703321 -1.674884
 4435 1  30.898614  13.123222 -1.674884
 4436 1  32.136650  13.818684 -1.674884
 4437 1  29.643848  11.007859 -1.674884
 4438 1  28.422542  11.732299 -1.674884
 4439 1  28.439273  13.152200 -1.674884
 4440 1  29.677309  13.847662 -1.674884
 4441 1  27.184507  11.036837 -1.674884
 4442 1  25.963201  11.761276 -1.674884
 4443 1  25.979931  13.181178 -1.674884
 4444 1  27.217967  13.876640 -1.674884
 4445 1  24.725165  11.065814 -1.674884
 4446 1  23.503860  11.790254 -1.674884
 4447 1  23.520590  13.210155 -1.674884
 4448 1  24.758626  13.905617 -1.674884
 4449 1  22.265824  11.094792 -1.674884
 4450 1  21.044518  11.819231 -1.674884
 4451 1  21.061248  13.239133 -1.674884
 4452 1  22.299284  13.934595 -1.674884
 4453 1  19.806482  11.123769 -1.674884
 4454 1  18.585177  11.848209 -1.674884
 4455 1  18.601907  13.268110 -1.674884
 4456 1  19.839943  13.963572 -1.674884
 4457 1  17.347141  11.152747 -1.674884
 4458 1  16.125835  11.877187 -1.674884
 4459 1  16.142566  13.297088 -1.674884
 4460 1  17.380601  13.992550 -1.674884
 4461 1  14.887799  11.181725 -1.674884
 4462 1  13.666494  11.906164 -1.674884
 4463 1  13.683224  13.326066 -1.674884
 4464 1  14.921260  14.021527 -1.674884
 4465 1  12.428458  11.210702 -1.674884
 4466 1  11.207152  11.935142 -1.674884
 4467 1  11.223883  13.355043 -1.674884
 4468 1  12.461918  14.050505 -1.674884
 4469 1   9.969117  11.239680 -1.674884
 4470 1   8.747811  11.964119 -1.674884
 4471 1   8.764541  13.384021 -1.674884
 4472 1  10.002577  14.079483 -1.674884
 4473 1   7.509775  11.268657 -1.674884
 4474 1   6.288470  11.993097 -1.674884
 4475 1   6.305200  13.412998 -1.674884
 4476 1   7.543236  14.108460 -1.674884
 4477 1   5.050434  11.297635 -1.674884
 4478 1   3.829128  12.022074 -1.674884
 4479 1   3.845858  13.441976 -1.674884
 4480 1   5.083894  14.137438 -1.674884
 4481 1   2.591092  11.326612 -1.674884
 4482 1   1.369787  12.051052 -1.674884
 4483 1   1.386517  13.470953 -1.674884
 4484 1   2.624553  14.166415 -1.674884
 4485 1   0.131751  11.355590 -1.674884
 4486 1  -1.089555  12.080030 -1.674884
 4487 1  -1.072825  13.499931 -1.674884
 4488 1   0.165211  14.195393 -1.674884
 4489 1  -2.327591  11.384568 -1.674884
 4490 1  -3.548896  12.109007 -1.674884
 4491 1  -3.532166  13.528909 -1.674884
 4492 1  -2.294130  14.224371 -1.674884
 4493 1  -4.786932  11.413545 -1.674884
 4494 1  -6.008238  12.137985 -1.674884
 4495 1  -5.991507  13.557886 -1.674884
 4496 1  -4.753472  14.253348 -1.674884
 4497 1  -7.246273  11.442523 -1.674884
 4498 1  -8.467579  12.166962 -1.674884
 4499 1  -8.450849  13.586864 -1.674884
 4500 1  -7.212813  14.282326 -1.674884
 4501 1  -9.705615  11.471500 -1.674884
 4502 1 -10.926920  12.195940 -1.674884
 4503 1 -10.910190  13.615841 -1.674884
 4504 1  -9.672154  14.311303 -1.674884
 4505 1 -12.164956  11.500478 -1.674884
 4506 1 -13.386262  12.224917 -1.674884
 4507 1 -13.369532  13.644819 -1.674884
 4508 1 -12.131496  14.340281 -1.674884
 4509 1 -14.624298  11.529456 -1.674884
 4510 1 -15.845603  12.253895 -1.674884
 4511 1 -15.828873  13.673797 -1.674884
 4512 1 -14.590837  14.369258 -1.674884
 4513 1 -17.083639  11.558433 -1.674884
 4514 1 -18.304945  12.282873 -1.674884
 4515 1 -18.288215  13.702774 -1.674884
 4516 1 -17.050179  14.398236 -1.674884
 4517 1 -19.542981  11.587411 -1.674884
 4518 1 -20.764286  12.311850 -1.674884
 4519 1 -20.747556  13.731752 -1.674884
 4520 1 -19.509520  14.427214 -1.674884
 4521 1 -22.002322  11.616388 -1.674884
 4522 1 -23.223628  12.340828 -1.674884
 4523 1 -23.206897  13.760729 -1.674884
 4524 1 -21.968862  14.456191 -1.674884
 4525 1 -24.461663  11.645366 -1.674884
 4526 1 -25.682969  12.369805 -1.674884
 4527 1 -25.666239  13.789707 -1.674884
 4528 1 -24.428203  14.485169 -1.674884
 4529 1 -26.921005  11.674343 -1.674884
 4530 1 -28.142311  12.398783 -1.674884
 4531 1 -28.125580  13.818684 -1.674884
 4532 1 -26.887545  14.514146 -1.674884
 4533 1 -29.380346  11.703321 -1.674884
 4534 1 -30.601652  12.427761 -1.674884
 4535 1 -30.584922  13.847662 -1.674884
 4536 1 -29.346886  14.543124 -1.674884
 4537 1 -31.839688  11.732299 -1.674884
 4538 1 -33.060993  12.456738 -1.674884
 4539 1 -33.044263  13.876640 -1.674884
 4540 1 -31.806227  14.572102 -1.674884
 4541 1 -34.299029  11.761276 -1.674884
 4542 1 -35.520335  12.485716 -1.674884
 4543 1 -35.503605  13.905617 -1.674884
 4544 1 -34.265569  14.601079 -1.674884
 4545 1 -36.758371  11.790254 -1.674884
 4546 1 -37.979676  12.514693 -1.674884
 4547 1 -37.962946  13.934595 -1.674884
 4548 1 -36.724910  14.630057 -1.674884
 4549 1 -39.217712  11.819231 -1.674884
 4550 1 -40.439018  12.543671 -1.674884
 4551 1 -40.422288  13.963572 -1.674884
 4552 1 -39.184252  14.659034 -1.674884
 4553 1 -41.677054  11.848209 -1.674884
 4554 1 -42.898359  12.572648 -1.674884
 4555 1 -42.881629  13.992550 -1.674884
 4556 1 -41.643593  14.688012 -1.674884
 4557 1 -44.136395  11.877187 -1.674884
 4558 1 -45.357701  12.601626 -1.674884
 4559 1 -45.340970  14.021527 -1.674884
 4560 1 -44.102935  14.716989 -1.674884
 4561 1 -46.595736  11.906164 -1.674884
 4562 1 -47.817042  12.630604 -1.674884
 4563 1 -47.800312  14.050505 -1.674884
 4564 1 -46.562276  14.745967 -1.674884
 4565 1 -49.055078  11.935142 -1.674884
 4566 1 -50.276383  12.659581 -1.674884
 4567 1 -50.259653  14.079483 -1.674884
 4568 1 -49.021617  14.774945 -1.674884
 4569 1 -51.514419  11.964119 -1.674884
 4570 1 -52.735725  12.688559 -1.674884
 4571 1 -52.718995  14.108460 -1.674884
 4572 1 -51.480959  14.803922 -1.674884
 4573 1 -53.973761  11.993097 -1.674884
 4574 1 -55.195066  12.717536 -1.674884
 4575 1 -55.178336  14.137438 -1.674884
 4576 1 -53.940300  14.832900 -1.674884
 4577 1 -56.433102  12.022074 -1.674884
 4578 1 -57.654408  12.746514 -1.674884
 4579 1 -57.637678  14.166415 -1.674884
 4580 1 -56.399642  14.861877 -1.674884
 4581 1 -58.892444  12.051052 -1.674884
 4582 1 -60.113749  12.775492 -1.674884
 4583 1 -60.097019  14.195393 -1.674884
 4584 1 -58.858983  14.890855 -1.674884
 4585 1 -61.351785  12.080030 -1.674884
 4586 1 -62.573091  12.804469 -1.674884
 4587 1 -62.556360  14.224371 -1.674884
 4588 1 -61.318325  14.919832 -1.674884
 4589 1 -63.811126  12.109007 -1.674884
 4590 1 -65.032432  12.833447 -1.674884
 4591 1 -65.015702  14.253348 -1.674884
 4592 1 -63.777666  14.948810 -1.674884
 4593 1 -66.270468  12.137985 -1.674884
 4594 1 -67.491774  12.862424 -1.674884
 4595 1 -67.475043  14.282326 -1.674884
 4596 1 -66.237007  14.977788 -1.674884
 4597 1 -68.729809  12.166962 -1.674884
 4598 1 -69.951115  12.891402 -1.674884
 4599 1 -69.934385  14.311303 -1.674884
 4600 1 -68.696349  15.006765 -1.674884
 4601 1 -71.189151  12.195940 -1.674884
 4602 1 -72.410456  12.920379 -1.674884
 4603 1 -72.393726  14.340281 -1.674884
 4604 1 -71.155690  15.035743 -1.674884
 4605 1 -73.648492  12.224917 -1.674884
 4606 1 -74.869798  12.949357 -1.674884
 4607 1 -74.853068  14.369258 -1.674884
 4608 1 -73.615032  15.064720 -1.674884
 4609 1 -76.107834  12.253895 -1.674884
 4610 1 -77.329139  12.978335 -1.674884
 4611 1 -77.312409  14.398236 -1.674884
 4612 1 -76.074373  15.093698 -1.674884
 4613 1 -78.567175  12.282873 -1.674884
 4614 1 -79.788481  13.007312 -1.674884
 4615 1 -79.771750  14.427214 -1.674884
 4616 1 -78.533715  15.122676 -1.674884
 4617 1 -81.026517  12.311850 -1.674884
 4618 1 -82.247822  13.036290 -1.674884
 4619 1 -82.231092  14.456191 -1.674884
 4620 1 -80.993056  15.151653 -1.674884
 4621 1 -83.485858  12.340828 -1.674884
 4622 1 -84.707164  13.065267 -1.674884
 4623 1 -84.690433  14.485169 -1.674884
 4624 1 -83.452398  15.180631 -1.674884
 4625 1 -85.945199  12.369805 -1.674884
 4626 1 -87.166505  13.094245 -1.674884
 4627 1 -87.149775  14.514146 -1.674884
 4628 1 -85.911739  15.209608 -1.674884
 4629 1 -88.404541  12.398783 -1.674884
 4630 1 -89.625846  13.123222 -1.674884
 4631 1 -89.609116  14.543124 -1.674884
 4632 1 -88.371080  15.238586 -1.674884
 4633 1  89.956269  15.267563 -1.674884
 4634 1  89.972999  16.687465 -1.674884
 4635 1  88.718233  14.572102 -1.674884
 4636 1  87.496928  15.296541 -1.674884
 4637 1  87.513658  16.716442 -1.674884
 4638 1  88.751694  17.411904 -1.674884
 4639 1  86.258892  14.601079 -1.674884
 4640 1  85.037586  15.325519 -1.674884
 4641 1  85.054316  16.745420 -1.674884
 4642 1  86.292352  17.440882 -1.674884
 4643 1  83.799550  14.630057 -1.674884
 4644 1  82.578245  15.354496 -1.674884
 4645 1  82.594975  16.774398 -1.674884
 4646 1  83.833011  17.469860 -1.674884
 4647 1  81.340209  14.659034 -1.674884
 4648 1  80.118903  15.383474 -1.674884
 4649 1  80.135634  16.803375 -1.674884
 4650 1  81.373669  17.498837 -1.674884
 4651 1  78.880867  14.688012 -1.674884
 4652 1  77.659562  15.412451 -1.674884
 4653 1  77.676292  16.832353 -1.674884
 4654 1  78.914328  17.527815 -1.674884
 4655 1  76.421526  14.716989 -1.674884
 4656 1  75.200220  15.441429 -1.674884
 4657 1  75.216951  16.861330 -1.674884
 4658 1  76.454986  17.556792 -1.674884
 4659 1  73.962185  14.745967 -1.674884
 4660 1  72.740879  15.470406 -1.674884
 4661 1  72.757609  16.890308 -1.674884
 4662 1  73.995645  17.585770 -1.674884
 4663 1  71.502843  14.774945 -1.674884
 4664 1  70.281538  15.499384 -1.674884
 4665 1  70.298268  16.919286 -1.674884
 4666 1  71.536304  17.614747 -1.674884
 4667 1  69.043502  14.803922 -1.674884
 4668 1  67.822196  15.528362 -1.674884
 4669 1  67.838926  16.948263 -1.674884
 4670 1  69.076962  17.643725 -1.674884
 4671 1  66.584160  14.832900 -1.674884
 4672 1  65.362855  15.557339 -1.674884
 4673 1  65.379585  16.977241 -1.674884
 4674 1  66.617621  17.672703 -1.674884
 4675 1  64.124819  14.861877 -1.674884
 4676 1  62.903513  15.586317 -1.674884
 4677 1  62.920243  17.006218 -1.674884
 4678 1  64.158279  17.701680 -1.674884
 4679 1  61.665477  14.890855 -1.674884
 4680 1  60.444172  15.615294 -1.674884
 4681 1  60.460902  17.035196 -1.674884
 4682 1  61.698938  17.730658 -1.674884
 4683 1  59.206136  14.919832 -1.674884
 4684 1  57.984830  15.644272 -1.674884
 4685 1  58.001561  17.064173 -1.674884
 4686 1  59.239596  17.759635 -1.674884
 4687 1  56.746795  14.948810 -1.674884
 4688 1  55.525489  15.673250 -1.674884
 4689 1  55.542219  17.093151 -1.674884
 4690 1  56.780255  17.788613 -1.674884
 4691 1  54.287453  14.977788 -1.674884
 4692 1  53.066147  15.702227 -1.674884
 4693 1  53.082878  17.122129 -1.674884
 4694 1  54.320914  17.817591 -1.674884
 4695 1  51.828112  15.006765 -1.674884
 4696 1  50.606806  15.731205 -1.674884
 4697 1  50.623536  17.151106 -1.674884
 4698 1  51.861572  17.846568 -1.674884
 4699 1  49.368770  15.035743 -1.674884
 4700 1  48.147465  15.760182 -1.674884
 4701 1  48.164195  17.180084 -1.674884
 4702 1  49.402231  17.875546 -1.674884
 4703 1  46.909429  15.064720 -1.674884
 4704 1  45.688123  15.789160 -1.674884
 4705 1  45.704853  17.209061 -1.674884
 4706 1  46.942889  17.904523 -1.674884
 4707 1  44.450087  15.093698 -1.674884
 4708 1  43.228782  15.818137 -1.674884
 4709 1  43.245512  17.238039 -1.674884
 4710 1  44.483548  17.933501 -1.674884
 4711 1  41.990746  15.122676 -1.674884
 4712 1  40.769440  15.847115 -1.674884
 4713 1  40.786171  17.267016 -1.674884
 4714 1  42.024206  17.962478 -1.674884
 4715 1  39.531404  15.151653 -1.674884
 4716 1  38.310099  15.876093 -1.674884
 4717 1  38.326829  17.295994 -1.674884
 4718 1  39.564865  17.991456 -1.674884
 4719 1  37.072063  15.180631 -1.674884
 4720 1  35.850757  15.905070 -1.674884
 4721 1  35.867488  17.324972 -1.674884
 4722 1  37.105523  18.020434 -1.674884
 4723 1  34.612722  15.209608 -1.674884
 4724 1  33.391416  15.934048 -1.674884
 4725 1  33.408146  17.353949 -1.674884
 4726 1  34.646182  18.049411 -1.674884
 4727 1  32.153380  15.238586 -1.674884
 4728 1  30.932075  15.963025 -1.674884
 4729 1  30.948805  17.382927 -1.674884
 4730 1  32.186841  18.078389 -1.674884
 4731 1  29.694039  15.267563 -1.674884
 4732 1  28.472733  15.992003 -1.674884
 4733 1  28.489463  17.411904 -1.674884
 4734 1  29.727499  18.107366 -1.674884
 4735 1  27.234697  15.296541 -1.674884
 4736 1  26.013392  16.020981 -1.674884
 4737 1  26.030122  17.440882 -1.674884
 4738 1  27.268158  18.136344 -1.674884
 4739 1  24.775356  15.325519 -1.674884
 4740 1  23.554050  16.049958 -1.674884
 4741 1  23.570780  17.469860 -1.674884
 4742 1  24.808816  18.165321 -1.674884
 4743 1  22.316014  15.354496 -1.674884
 4744 1  21.094709  16.078936 -1.674884
 4745 1  21.111439  17.498837 -1.674884
 4746 1  22.349475  18.194299 -1.674884
 4747 1  19.856673  15.383474 -1.674884
 4748 1  18.635367  16.107913 -1.674884
 4749 1  18.652098  17.527815 -1.674884
 4750 1  19.890133  18.223277 -1.674884
 4751 1  17.397332  15.412451 -1.674884
 4752 1  16.176026  16.136891 -1.674884
 4753 1  16.192756  17.556792 -1.674884
 4754 1  17.430792  18.252254 -1.674884
 4755 1  14.937990  15.441429 -1.674884
 4756 1  13.716685  16.165868 -1.674884
 4757 1  13.733415  17.585770 -1.674884
 4758 1  14.971451  18.281232 -1.674884
 4759 1  12.478649  15.470406 -1.674884
 4760 1  11.257343  16.194846 -1.674884
 4761 1  11.274073  17.614747 -1.674884
 4762 1  12.512109  18.310209 -1.674884
 4763 1  10.019307  15.499384 -1.674884
 4764 1   8.798002  16.223824 -1.674884
 4765 1   8.814732  17.643725 -1.674884
 4766 1  10.052768  18.339187 -1.674884
 4767 1   7.559966  15.528362 -1.674884
 4768 1   6.338660  16.252801 -1.674884
 4769 1   6.355390  17.672703 -1.674884
 4770 1   7.593426  18.368165 -1.674884
 4771 1   5.100624  15.557339 -1.674884
 4772 1   3.879319  16.281779 -1.674884
 4773 1   3.896049  17.701680 -1.674884
 4774 1   5.134085  18.397142 -1.674884
 4775 1   2.641283  15.586317 -1.674884
 4776 1   1.419977  16.310756 -1.674884
 4777 1   1.436708  17.730658 -1.674884
 4778 1   2.674743  18.426120 -1.674884
 4779 1   0.181942  15.615294 -1.674884
 4780 1  -1.039364  16.339734 -1.674884
 4781 1  -1.022634  17.759635 -1.674884
 4782 1   0.215402  18.455097 -1.674884
 4783 1  -2.277400  15.644272 -1.674884
 4784 1  -3.498706  16.368711 -1.674884
 4785 1  -3.481975  17.788613 -1.674884
 4786 1  -2.243939  18.484075 -1.674884
 4787 1  -4.736741  15.673250 -1.674884
 4788 1  -5.958047  16.397689 -1.674884
 4789 1  -5.941317  17.817591 -1.674884
 4790 1  -4.703281  18.513052 -1.674884
 4791 1  -7.196083  15.702227 -1.674884
 4792 1  -8.417388  16.426667 -1.674884
 4793 1  -8.400658  17.846568 -1.674884
 4794 1  -7.162622  18.542030 -1.674884
 4795 1  -9.655424  15.731205 -1.674884
 4796 1 -10.876730  16.455644 -1.674884
 4797 1 -10.860000  17.875546 -1.674884
 4798 1  -9.621964  18.571008 -1.674884
 4799 1 -12.114766  15.760182 -1.674884
 4800 1 -13.336071  16.484622 -1.674884
 4801 1 -13.319341  17.904523 -1.674884
 4802 1 -12.081305  18.599985 -1.674884
 4803 1 -14.574107  15.789160 -1.674884
 4804 1 -15.795413  16.513599 -1.674884
 4805 1 -15.778683  17.933501 -1.674884
 4806 1 -14.540647  18.628963 -1.674884
 4807 1 -17.033449  15.818137 -1.674884
 4808 1 -18.254754  16.542577 -1.674884
 4809 1 -18.238024  17.962478 -1.674884
 4810 1 -16.999988  18.657940 -1.674884
 4811 1 -19.492790  15.847115 -1.674884
 4812 1 -20.714096  16.571555 -1.674884
 4813 1 -20.697365  17.991456 -1.674884
 4814 1 -19.459330  18.686918 -1.674884
 4815 1 -21.952131  15.876093 -1.674884
 4816 1 -23.173437  16.600532 -1.674884
 4817 1 -23.156707  18.020434 -1.674884
 4818 1 -21.918671  18.715896 -1.674884
 4819 1 -24.411473  15.905070 -1.674884
 4820 1 -25.632778  16.629510 -1.674884
 4821 1 -25.616048  18.049411 -1.674884
 4822 1 -24.378012  18.744873 -1.674884
 4823 1 -26.870814  15.934048 -1.674884
 4824 1 -28.092120  16.658487 -1.674884
 4825 1 -28.075390  18.078389 -1.674884
 4826 1 -26.837354  18.773851 -1.674884
 4827 1 -29.330156  15.963025 -1.674884
 4828 1 -30.551461  16.687465 -1.674884
 4829 1 -30.534731  18.107366 -1.674884
 4830 1 -29.296695  18.802828 -1.674884
 4831 1 -31.789497  15.992003 -1.674884
 4832 1 -33.010803  16.716442 -1.674884
 4833 1 -32.994073  18.136344 -1.674884
 4834 1 -31.756037  18.831806 -1.674884
 4835 1 -34.248839  16.020981 -1.674884
 4836 1 -35.470144  16.745420 -1.674884
 4837 1 -35.453414  18.165321 -1.674884
 4838 1 -34.215378  18.860783 -1.674884
 4839 1 -36.708180  16.049958 -1.674884
 4840 1 -37.929486  16.774398 -1.674884
 4841 1 -37.912755  18.194299 -1.674884
 4842 1 -36.674720  18.889761 -1.674884
 4843 1 -39.167521  16.078936 -1.674884
 4844 1 -40.388827  16.803375 -1.674884
 4845 1 -40.372097  18.223277 -1.674884
 4846 1 -39.134061  18.918739 -1.674884
 4847 1 -41.626863  16.107913 -1.674884
 4848 1 -42.848169  16.832353 -1.674884
 4849 1 -42.831438  18.252254 -1.674884
 4850 1 -41.593402  18.947716 -1.674884
 4851 1 -44.086204  16.136891 -1.674884
 4852 1 -45.307510  16.861330 -1.674884
 4853 1 -45.290780  18.281232 -1.674884
 4854 1 -44.052744  18.976694 -1.674884
 4855 1 -46.545546  16.165868 -1.674884
 4856 1 -47.766851  16.890308 -1.674884
 4857 1 -47.750121  18.310209 -1.674884
 4858 1 -46.512085  19.005671 -1.674884
 4859 1 -49.004887  16.194846 -1.674884
 4860 1 -50.226193  16.919286 -1.674884
 4861 1 -50.209463  18.339187 -1.674884
 4862 1 -48.971427  19.034649 -1.674884
 4863 1 -51.464229  16.223824 -1.674884
 4864 1 -52.685534  16.948263 -1.674884
 4865 1 -52.668804  18.368165 -1.674884
 4866 1 -51.430768  19.063626 -1.674884
 4867 1 -53.923570  16.252801 -1.674884
 4868 1 -55.144876  16.977241 -1.674884
 4869 1 -55.128145  18.397142 -1.674884
 4870 1 -53.890110  19.092604 -1.674884
 4871 1 -56.382912  16.281779 -1.674884
 4872 1 -57.604217  17.006218 -1.674884
 4873 1 -57.587487  18.426120 -1.674884
 4874 1 -56.349451  19.121582 -1.674884
 4875 1 -58.842253  16.310756 -1.674884
 4876 1 -60.063559  17.035196 -1.674884
 4877 1 -60.046828  18.455097 -1.674884
 4878 1 -58.808793  19.150559 -1.674884
 4879 1 -61.301594  16.339734 -1.674884
 4880 1 -62.522900  17.064173 -1.674884
 4881 1 -62.506170  18.484075 -1.674884
 4882 1 -61.268134  19.179537 -1.674884
 4883 1 -63.760936  16.368711 -1.674884
 4884 1 -64.982241  17.093151 -1.674884
 4885 1 -64.965511  18.513052 -1.674884
 4886 1 -63.727475  19.208514 -1.674884
 4887 1 -66.220277  16.397689 -1.674884
 4888 1 -67.441583  17.122129 -1.674884
 4889 1 -67.424853  18.542030 -1.674884
 4890 1 -66.186817  19.237492 -1.674884
 4891 1 -68.679619  16.426667 -1.674884
 4892 1 -69.900924  17.151106 -1.674884
 4893 1 -69.884194  18.571008 -1.674884
 4894 1 -68.646158  19.266470 -1.674884
 4895 1 -71.138960  16.455644 -1.674884
 4896 1 -72.360266  17.180084 -1.674884
 4897 1 -72.343536  18.599985 -1.674884
 4898 1 -71.105500  19.295447 -1.674884
 4899 1 -73.598302  16.484622 -1.674884
 4900 1 -74.819607  17.209061 -1.674884
 4901 1 -74.802877  18.628963 -1.674884
 4902 1 -73.564841  19.324425 -1.674884
 4903 1 -76.057643  16.513599 -1.674884
 4904 1 -77.278949  17.238039 -1.674884
 4905 1 -77.262218  18.657940 -1.674884
 4906 1 -76.024183  19.353402 -1.674884
 4907 1 -78.516984  16.542577 -1.674884
 4908 1 -79.738290  17.267016 -1.674884
 4909 1 -79.721560  18.686918 -1.674884
 4910 1 -78.483524  19.382380 -1.674884
 4911 1 -80.976326  16.571555 -1.674884
 4912 1 -82.197631  17.295994 -1.674884
 4913 1 -82.180901  18.715896 -1.674884
 4914 1 -80.942865  19.411357 -1.674884
 4915 1 -83.435667  16.600532 -1.674884
 4916 1 -84.656973  17.324972 -1.674884
 4917 1 -84.640243  18.744873 -1.674884
 4918 1 -83.402207  19.440335 -1.674884
 4919 1 -85.895009  16.629510 -1.674884
 4920 1 -87.116314  17.353949 -1.674884
 4921 1 -87.099584  18.773851 -1.674884
 4922 1 -85.861548  19.469313 -1.674884
 4923 1 -88.354350  16.658487 -1.674884
 4924 1 -89.575656  17.382927 -1.674884
 4925 1 -89.558926  18.802828 -1.674884
 4926 1 -88.320890  19.498290 -1.674884
 4927 1  90.006460  19.527268 -1.674884
 4928 1  90.023190  20.947169 -1.674884
 4929 1  88.768424  18.831806 -1.674884
 4930 1  87.547118  19.556245 -1.674884
 4931 1  87.563848  20.976147 -1.674884
 4932 1  88.801884  21.671609 -1.674884
 4933 1  86.309082  18.860783 -1.674884
 4934 1  85.087777  19.585223 -1.674884
 4935 1  85.104507  21.005124 -1.674884
 4936 1  86.342543  21.700586 -1.674884
 4937 1  83.849741  18.889761 -1.674884
 4938 1  82.628435  19.614200 -1.674884
 4939 1  82.645166  21.034102 -1.674884
 4940 1  83.883201  21.729564 -1.674884
 4941 1  81.390400  18.918739 -1.674884
 4942 1  80.169094  19.643178 -1.674884
 4943 1  80.185824  21.063080 -1.674884
 4944 1  81.423860  21.758541 -1.674884
 4945 1  78.931058  18.947716 -1.674884
 4946 1  77.709752  19.672156 -1.674884
 4947 1  77.726483  21.092057 -1.674884
 4948 1  78.964519  21.787519 -1.674884
 4949 1  76.471717  18.976694 -1.674884
 4950 1  75.250411  19.701133 -1.674884
 4951 1  75.267141  21.121035 -1.674884
 4952 1  76.505177  21.816497 -1.674884
 4953 1  74.012375  19.005671 -1.674884
 4954 1  72.791070  19.730111 -1.674884
 4955 1  72.807800  21.150012 -1.674884
 4956 1  74.045836  21.845474 -1.674884
 4957 1  71.553034  19.034649 -1.674884
 4958 1  70.331728  19.759088 -1.674884
 4959 1  70.348458  21.178990 -1.674884
 4960 1  71.586494  21.874452 -1.674884
 4961 1  69.093692  19.063626 -1.674884
 4962 1  67.872387  19.788066 -1.674884
 4963 1  67.889117  21.207967 -1.674884
 4964 1  69.127153  21.903429 -1.674884
 4965 1  66.634351  19.092604 -1.674884
 4966 1  65.413045  19.817044 -1.674884
 4967 1  65.429776  21.236945 -1.674884
 4968 1  66.667811  21.932407 -1.674884
 4969 1  64.175009  19.121582 -1.674884
 4970 1  62.953704  19.846021 -1.674884
 4971 1  62.970434  21.265923 -1.674884
 4972 1  64.208470  21.961385 -1.674884
 4973 1  61.715668  19.150559 -1.674884
 4974 1  60.494362  19.874999 -1.674884
 4975 1  60.511093  21.294900 -1.674884
 4976 1  61.749128  21.990362 -1.674884
 4977 1  59.256327  19.179537 -1.674884
 4978 1  58.035021  19.903976 -1.674884
 4979 1  58.051751  21.323878 -1.674884
 4980 1  59.289787  22.019340 -1.674884
 4981 1  56.796985  19.208514 -1.674884
 4982 1  55.575680  19.932954 -1.674884
 4983 1  55.592410  21.352855 -1.674884
 4984 1  56.830446  22.048317 -1.674884
 4985 1  54.337644  19.237492 -1.674884
 4986 1  53.116338  19.961931 -1.674884
 4987 1  53.133068  21.381833 -1.674884
 4988 1  54.371104  22.077295 -1.674884
 4989 1  51.878302  19.266470 -1.674884
 4990 1  50.656997  19.990909 -1.674884
 4991 1  50.673727  21.410810 -1.674884
 4992 1  51.911763  22.106272 -1.674884
 4993 1  49.418961  19.295447 -1.674884
 4994 1  48.197655  20.019887 -1.674884
 4995 1  48.214385  21.439788 -1.674884
 4996 1  49.452421  22.135250 -1.674884
 4997 1  46.959619  19.324425 -1.674884
 4998 1  45.738314  20.048864 -1.674884
 4999 1  45.755044  21.468766 -1.674884
 5000 1  46.993080  22.164228 -1.674884
 5001 1  44.500278  19.353402 -1.674884
 5002 1  43.278972  20.077842 -1.674884
 5003 1  43.295703  21.497743 -1.674884
 5004 1  44.533738  22.193205 -1.674884
 5005 1  42.040937  19.382380 -1.674884
 5006 1  40.819631  20.106819 -1.674884
 5007 1  40.836361  21.526721 -1.674884
 5008 1  42.074397  22.222183 -1.674884
 5009 1  39.581595  19.411357 -1.674884
 5010 1  38.360290  20.135797 -1.674884
 5011 1  38.377020  21.555698 -1.674884
 5012 1  39.615056  22.251160 -1.674884
 5013 1  37.122254  19.440335 -1.674884
 5014 1  35.900948  20.164775 -1.674884
 5015 1  35.917678  21.584676 -1.674884
 5016 1  37.155714  22.280138 -1.674884
 5017 1  34.662912  19.469313 -1.674884
 5018 1  33.441607  20.193752 -1.674884
 5019 1  33.458337  21.613654 -1.674884
 5020 1  34.696373  22.309115 -1.674884
 5021 1  32.203571  19.498290 -1.674884
 5022 1  30.982265  20.222730 -1.674884
 5023 1  30.998995  21.642631 -1.674884
 5024 1  32.237031  22.338093 -1.674884
 5025 1  29.744229  19.527268 -1.674884
 5026 1  28.522924  20.251707 -1.674884
 5027 1  28.539654  21.671609 -1.674884
 5028 1  29.777690  22.367071 -1.674884
 5029 1  27.284888  19.556245 -1.674884
 5030 1  26.063582  20.280685 -1.674884
 5031 1  26.080313  21.700586 -1.674884
 5032 1  27.318348  22.396048 -1.674884
 5033 1  24.825547  19.585223 -1.674884
 5034 1  23.604241  20.309662 -1.674884
 5035 1  23.620971  21.729564 -1.674884
 5036 1  24.859007  22.425026 -1.674884
 5037 1  22.366205  19.614200 -1.674884
 5038 1  21.144899  20.338640 -1.674884
 5039 1  21.161630  21.758541 -1.674884
 5040 1  22.399666  22.454003 -1.674884
 5041 1  19.906864  19.643178 -1.674884
 5042 1  18.685558  20.367618 -1.674884
 5043 1  18.702288  21.787519 -1.674884
 5044 1  19.940324  22.482981 -1.674884
 5045 1  17.447522  19.672156 -1.674884
 5046 1  16.226217  20.396595 -1.674884
 5047 1  16.242947  21.816497 -1.674884
 5048 1  17.480983  22.511959 -1.674884
 5049 1  14.988181  19.701133 -1.674884
 5050 1  13.766875  20.425573 -1.674884
 5051 1  13.783605  21.845474 -1.674884
 5052 1  15.021641  22.540936 -1.674884
 5053 1  12.528839  19.730111 -1.674884
 5054 1  11.307534  20.454550 -1.674884
 5055 1  11.324264  21.874452 -1.674884
 5056 1  12.562300  22.569914 -1.674884
 5057 1  10.069498  19.759088 -1.674884
 5058 1   8.848192  20.483528 -1.674884
 5059 1   8.864923  21.903429 -1.674884
 5060 1  10.102958  22.598891 -1.674884
 5061 1   7.610156  19.788066 -1.674884
 5062 1   6.388851  20.512505 -1.674884
 5063 1   6.405581  21.932407 -1.674884
 5064 1   7.643617  22.627869 -1.674884
 5065 1   5.150815  19.817044 -1.674884
 5066 1   3.929509  20.541483 -1.674884
 5067 1   3.946240  21.961385 -1.674884
 5068 1   5.184275  22.656846 -1.674884
 5069 1   2.691474  19.846021 -1.674884
 5070 1   1.470168  20.570461 -1.674884
 5071 1   1.486898  21.990362 -1.674884
 5072 1   2.724934  22.685824 -1.674884
 5073 1   0.232132  19.874999 -1.674884
 5074 1  -0.989173  20.599438 -1.674884
 5075 1  -0.972443  22.019340 -1.674884
 5076 1   0.265593  22.714802 -1.674884
 5077 1  -2.227209  19.903976 -1.674884
 5078 1  -3.448515  20.628416 -1.674884
 5079 1  -3.431785  22.048317 -1.674884
 5080 1  -2.193749  22.743779 -1.674884
 5081 1  -4.686551  19.932954 -1.674884
 5082 1  -5.907856  20.657393 -1.674884
 5083 1  -5.891126  22.077295 -1.674884
 5084 1  -4.653090  22.772757 -1.674884
 5085 1  -7.145892  19.961931 -1.674884
 5086 1  -8.367198  20.686371 -1.674884
 5087 1  -8.350468  22.106272 -1.674884
 5088 1  -7.112432  22.801734 -1.674884
 5089 1  -9.605234  19.990909 -1.674884
 5090 1 -10.826539  20.715349 -1.674884
 5091 1 -10.809809  22.135250 -1.674884
 5092 1  -9.571773  22.830712 -1.674884
 5093 1 -12.064575  20.019887 -1.674884
 5094 1 -13.285881  20.744326 -1.674884
 5095 1 -13.269150  22.164228 -1.674884
 5096 1 -12.031115  22.859690 -1.674884
 5097 1 -14.523916  20.048864 -1.674884
 5098 1 -15.745222  20.773304 -1.674884
 5099 1 -15.728492  22.193205 -1.674884
 5100 1 -14.490456  22.888667 -1.674884
 5101 1 -16.983258  20.077842 -1.674884
 5102 1 -18.204564  20.802281 -1.674884
 5103 1 -18.187833  22.222183 -1.674884
 5104 1 -16.949797  22.917645 -1.674884
 5105 1 -19.442599  20.106819 -1.674884
 5106 1 -20.663905  20.831259 -1.674884
 5107 1 -20.647175  22.251160 -1.674884
 5108 1 -19.409139  22.946622 -1.674884
 5109 1 -21.901941  20.135797 -1.674884
 5110 1 -23.123246  20.860236 -1.674884
 5111 1 -23.106516  22.280138 -1.674884
 5112 1 -21.868480  22.975600 -1.674884
 5113 1 -24.361282  20.164775 -1.674884
 5114 1 -25.582588  20.889214 -1.674884
 5115 1 -25.565858  22.309115 -1.674884
 5116 1 -24.327822  23.004577 -1.674884
 5117 1 -26.820624  20.193752 -1.674884
 5118 1 -28.041929  20.918192 -1.674884
 5119 1 -28.025199  22.338093 -1.674884
 5120 1 -26.787163  23.033555 -1.674884
 5121 1 -29.279965  20.222730 -1.674884
 5122 1 -30.501271  20.947169 -1.674884
 5123 1 -30.484540  22.367071 -1.674884
 5124 1 -29.246505  23.062533 -1.674884
 5125 1 -31.739307  20.251707 -1.674884
 5126 1 -32.960612  20.976147 -1.674884
 5127 1 -32.943882  22.396048 -1.674884
 5128 1 -31.705846  23.091510 -1.674884
 5129 1 -34.198648  20.280685 -1.674884
 5130 1 -35.419954  21.005124 -1.674884
 5131 1 -35.403223  22.425026 -1.674884
 5132 1 -34.165188  23.120488 -1.674884
 5133 1 -36.657989  20.309662 -1.674884
 5134 1 -37.879295  21.034102 -1.674884
 5135 1 -37.862565  22.454003 -1.674884
 5136 1 -36.624529  23.149465 -1.674884
 5137 1 -39.117331  20.338640 -1.674884
 5138 1 -40.338636  21.063080 -1.674884
 5139 1 -40.321906  22.482981 -1.674884
 5140 1 -39.083870  23.178443 -1.674884
 5141 1 -41.576672  20.367618 -1.674884
 5142 1 -42.797978  21.092057 -1.674884
 5143 1 -42.781248  22.511959 -1.674884
 5144 1 -41.543212  23.207420 -1.674884
 5145 1 -44.036014  20.396595 -1.674884
 5146 1 -45.257319  21.121035 -1.674884
 5147 1 -45.240589  22.540936 -1.674884
 5148 1 -44.002553  23.236398 -1.674884
 5149 1 -46.495355  20.425573 -1.674884
 5150 1 -47.716661  21.150012 -1.674884
 5151 1 -47.699931  22.569914 -1.674884
 5152 1 -46.461895  23.265376 -1.674884
 5153 1 -48.954697  20.454550 -1.674884
 5154 1 -50.176002  21.178990 -1.674884
 5155 1 -50.159272  22.598891 -1.674884
 5156 1 -48.921236  23.294353 -1.674884
 5157 1 -51.414038  20.483528 -1.674884
 5158 1 -52.635344  21.207967 -1.674884
 5159 1 -52.618613  22.627869 -1.674884
 5160 1 -51.380578  23.323331 -1.674884
 5161 1 -53.873379  20.512505 -1.674884
 5162 1 -55.094685  21.236945 -1.674884
 5163 1 -55.077955  22.656846 -1.674884
 5164 1 -53.839919  23.352308 -1.674884
 5165 1 -56.332721  20.541483 -1.674884
 5166 1 -57.554026  21.265923 -1.674884
 5167 1 -57.537296  22.685824 -1.674884
 5168 1 -56.299260  23.381286 -1.674884
 5169 1 -58.792062  20.570461 -1.674884
 5170 1 -60.013368  21.294900 -1.674884
 5171 1 -59.996638  22.714802 -1.674884
 5172 1 -58.758602  23.410264 -1.674884
 5173 1 -61.251404  20.599438 -1.674884
 5174 1 -62.472709  21.323878 -1.674884
 5175 1 -62.455979  22.743779 -1.674884
 5176 1 -61.217943  23.439241 -1.674884
 5177 1 -63.710745  20.628416 -1.674884
 5178 1 -64.932051  21.352855 -1.674884
 5179 1 -64.915321  22.772757 -1.674884
 5180 1 -63.677285  23.468219 -1.674884
 5181 1 -66.170087  20.657393 -1.674884
 5182 1 -67.391392  21.381833 -1.674884
 5183 1 -67.374662  22.801734 -1.674884
 5184 1 -66.136626  23.497196 -1.674884
 5185 1 -68.629428  20.686371 -1.674884
 5186 1 -69.850734  21.410810 -1.674884
 5187 1 -69.834003  22.830712 -1.674884
 5188 1 -68.595968  23.526174 -1.674884
 5189 1 -71.088769  20.715349 -1.674884
 5190 1 -72.310075  21.439788 -1.674884
 5191 1 -72.293345  22.859690 -1.674884
 5192 1 -71.055309  23.555151 -1.674884
 5193 1 -73.548111  20.744326 -1.674884
 5194 1 -74.769417  21.468766 -1.674884
 5195 1 -74.752686  22.888667 -1.674884
 5196 1 -73.514651  23.584129 -1.674884
 5197 1 -76.007452  20.773304 -1.674884
 5198 1 -77.228758  21.497743 -1.674884
 5199 1 -77.212028  22.917645 -1.674884
 5200 1 -75.973992  23.613107 -1.674884
 5201 1 -78.466794  20.802281 -1.674884
 5202 1 -79.688099  21.526721 -1.674884
 5203 1 -79.671369  22.946622 -1.674884
 5204 1 -78.433333  23.642084 -1.674884
 5205 1 -80.926135  20.831259 -1.674884
 5206 1 -82.147441  21.555698 -1.674884
 5207 1 -82.130711  22.975600 -1.674884
 5208 1 -80.892675  23.671062 -1.674884
 5209 1 -83.385477  20.860236 -1.674884
 5210 1 -84.606782  21.584676 -1.674884
 5211 1 -84.590052  23.004577 -1.674884
 5212 1 -83.352016  23.700039 -1.674884
 5213 1 -85.844818  20.889214 -1.674884
 5214 1 -87.066124  21.613654 -1.674884
 5215 1 -87.049394  23.033555 -1.674884
 5216 1 -85.811358  23.729017 -1.674884
 5217 1 -88.304160  20.918192 -1.674884
 5218 1 -89.525465  21.642631 -1.674884
 5219 1 -89.508735  23.062533 -1.674884
 5220 1 -88.270699  23.757994 -1.674884
 5221 1  90.056650  23.786972 -1.674884
 5222 1  90.073381  25.206874 -1.674884
 5223 1  88.818614  23.091510 -1.674884
 5224 1  87.597309  23.815950 -1.674884
 5225 1  87.614039  25.235851 -1.674884
 5226 1  88.852075  25.931313 -1.674884
 5227 1  86.359273  23.120488 -1.674884
 5228 1  85.137967  23.844927 -1.674884
 5229 1  85.154698  25.264829 -1.674884
 5230 1  86.392733  25.960291 -1.674884
 5231 1  83.899932  23.149465 -1.674884
 5232 1  82.678626  23.873905 -1.674884
 5233 1  82.695356  25.293806 -1.674884
 5234 1  83.933392  25.989268 -1.674884
 5235 1  81.440590  23.178443 -1.674884
 5236 1  80.219285  23.902882 -1.674884
 5237 1  80.236015  25.322784 -1.674884
 5238 1  81.474051  26.018246 -1.674884
 5239 1  78.981249  23.207420 -1.674884
 5240 1  77.759943  23.931860 -1.674884
 5241 1  77.776673  25.351761 -1.674884
 5242 1  79.014709  26.047223 -1.674884
 5243 1  76.521907  23.236398 -1.674884
 5244 1  75.300602  23.960838 -1.674884
 5245 1  75.317332  25.380739 -1.674884
 5246 1  76.555368  26.076201 -1.674884
 5247 1  74.062566  23.265376 -1.674884
 5248 1  72.841260  23.989815 -1.674884
 5249 1  72.857990  25.409717 -1.674884
 5250 1  74.096026  26.105179 -1.674884
 5251 1  71.603224  23.294353 -1.674884
 5252 1  70.381919  24.018793 -1.674884
 5253 1  70.398649  25.438694 -1.674884
 5254 1  71.636685  26.134156 -1.674884
 5255 1  69.143883  23.323331 -1.674884
 5256 1  67.922577  24.047770 -1.674884
 5257 1  67.939308  25.467672 -1.674884
 5258 1  69.177343  26.163134 -1.674884
 5259 1  66.684542  23.352308 -1.674884
 5260 1  65.463236  24.076748 -1.674884
 5261 1  65.479966  25.496649 -1.674884
 5262 1  66.718002  26.192111 -1.674884
 5263 1  64.225200  23.381286 -1.674884
 5264 1  63.003895  24.105725 -1.674884
 5265 1  63.020625  25.525627 -1.674884
 5266 1  64.258661  26.221089 -1.674884
 5267 1  61.765859  23.410264 -1.674884
 5268 1  60.544553  24.134703 -1.674884
 5269 1  60.561283  25.554604 -1.674884
 5270 1  61.799319  26.250066 -1.674884
 5271 1  59.306517  23.439241 -1.674884
 5272 1  58.085212  24.163681 -1.674884
 5273 1  58.101942  25.583582 -1.674884
 5274 1  59.339978  26.279044 -1.674884
 5275 1  56.847176  23.468219 -1.674884
 5276 1  55.625870  24.192658 -1.674884
 5277 1  55.642600  25.612560 -1.674884
 5278 1  56.880636  26.308022 -1.674884
 5279 1  54.387834  23.497196 -1.674884
 5280 1  53.166529  24.221636 -1.674884
 5281 1  53.183259  25.641537 -1.674884
 5282 1  54.421295  26.336999 -1.674884
 5283 1  51.928493  23.526174 -1.674884
 5284 1  50.707187  24.250613 -1.674884
 5285 1  50.723918  25.670515 -1.674884
 5286 1  51.961953  26.365977 -1.674884
 5287 1  49.469152  23.555151 -1.674884
 5288 1  48.247846  24.279591 -1.674884
 5289 1  48.264576  25.699492 -1.674884
 5290 1  49.502612  26.394954 -1.674884
 5291 1  47.009810  23.584129 -1.674884
 5292 1  45.788504  24.308569 -1.674884
 5293 1  45.805235  25.728470 -1.674884
 5294 1  47.043271  26.423932 -1.674884
 5295 1  44.550469  23.613107 -1.674884
 5296 1  43.329163  24.337546 -1.674884
 5297 1  43.345893  25.757448 -1.674884
 5298 1  44.583929  26.452909 -1.674884
 5299 1  42.091127  23.642084 -1.674884
 5300 1  40.869822  24.366524 -1.674884
 5301 1  40.886552  25.786425 -1.674884
 5302 1  42.124588  26.481887 -1.674884
 5303 1  39.631786  23.671062 -1.674884
 5304 1  38.410480  24.395501 -1.674884
 5305 1  38.427210  25.815403 -1.674884
 5306 1  39.665246  26.510865 -1.674884
 5307 1  37.172444  23.700039 -1.674884
 5308 1  35.951139  24.424479 -1.674884
 5309 1  35.967869  25.844380 -1.674884
 5310 1  37.205905  26.539842 -1.674884
 5311 1  34.713103  23.729017 -1.674884
 5312 1  33.491797  24.453456 -1.674884
 5313 1  33.508528  25.873358 -1.674884
 5314 1  34.746563  26.568820 -1.674884
 5315 1  32.253761  23.757994 -1.674884
 5316 1  31.032456  24.482434 -1.674884
 5317 1  31.049186  25.902335 -1.674884
 5318 1  32.287222  26.597797 -1.674884
 5319 1  29.794420  23.786972 -1.674884
 5320 1  28.573114  24.511412 -1.674884
 5321 1  28.589845  25.931313 -1.674884
 5322 1  29.827880  26.626775 -1.674884
 5323 1  27.335079  23.815950 -1.674884
 5324 1  26.113773  24.540389 -1.674884
 5325 1  26.130503  25.960291 -1.674884
 5326 1  27.368539  26.655753 -1.674884
 5327 1  24.875737  23.844927 -1.674884
 5328 1  23.654432  24.569367 -1.674884
 5329 1  23.671162  25.989268 -1.674884
 5330 1  24.909198  26.684730 -1.674884
 5331 1  22.416396  23.873905 -1.674884
 5332 1  21.195090  24.598344 -1.674884
 5333 1  21.211820  26.018246 -1.674884
 5334 1  22.449856  26.713708 -1.674884
 5335 1  19.957054  23.902882 -1.674884
 5336 1  18.735749  24.627322 -1.674884
 5337 1  18.752479  26.047223 -1.674884
 5338 1  19.990515  26.742685 -1.674884
 5339 1  17.497713  23.931860 -1.674884
 5340 1  16.276407  24.656299 -1.674884
 5341 1  16.293137  26.076201 -1.674884
 5342 1  17.531173  26.771663 -1.674884
 5343 1  15.038371  23.960838 -1.674884
 5344 1  13.817066  24.685277 -1.674884
 5345 1  13.833796  26.105179 -1.674884
 5346 1  15.071832  26.800640 -1.674884
 5347 1  12.579030  23.989815 -1.674884
 5348 1  11.357724  24.714255 -1.674884
 5349 1  11.374455  26.134156 -1.674884
 5350 1  12.612490  26.829618 -1.674884
 5351 1  10.119689  24.018793 -1.674884
 5352 1   8.898383  24.743232 -1.674884
 5353 1   8.915113  26.163134 -1.674884
 5354 1  10.153149  26.858596 -1.674884
 5355 1   7.660347  24.047770 -1.674884
 5356 1   6.439041  24.772210 -1.674884
 5357 1   6.455772  26.192111 -1.674884
 5358 1   7.693808  26.887573 -1.674884
 5359 1   5.201006  24.076748 -1.674884
 5360 1   3.979700  24.801187 -1.674884
 5361 1   3.996430  26.221089 -1.674884
 5362 1   5.234466  26.916551 -1.674884
 5363 1   2.741664  24.105725 -1.674884
 5364 1   1.520359  24.830165 -1.674884
 5365 1   1.537089  26.250066 -1.674884
 5366 1   2.775125  26.945528 -1.674884
 5367 1   0.282323  24.134703 -1.674884
 5368 1  -0.938983  24.859143 -1.674884
 5369 1  -0.922253  26.279044 -1.674884
 5370 1   0.315783  26.974506 -1.674884
 5371 1  -2.177019  24.163681 -1.674884
 5372 1  -3.398324  24.888120 -1.674884
 5373 1  -3.381594  26.308022 -1.674884
 5374 1  -2.143558  27.003484 -1.674884
 5375 1  -4.636360  24.192658 -1.674884
 5376 1  -5.857666  24.917098 -1.674884
 5377 1  -5.840935  26.336999 -1.674884
 5378 1  -4.602900  27.032461 -1.674884
 5379 1  -7.095702  24.221636 -1.674884
 5380 1  -8.317007  24.946075 -1.674884
 5381 1  -8.300277  26.365977 -1.674884
 5382 1  -7.062241  27.061439 -1.674884
 5383 1  -9.555043  24.250613 -1.674884
 5384 1 -10.776349  24.975053 -1.674884
 5385 1 -10.759618  26.394954 -1.674884
 5386 1  -9.521583  27.090416 -1.674884
 5387 1 -12.014384  24.279591 -1.674884
 5388 1 -13.235690  25.004030 -1.674884
 5389 1 -13.218960  26.423932 -1.674884
 5390 1 -11.980924  27.119394 -1.674884
 5391 1 -14.473726  24.308569 -1.674884
 5392 1 -15.695031  25.033008 -1.674884
 5393 1 -15.678301  26.452909 -1.674884
 5394 1 -14.440265  27.148371 -1.674884
 5395 1 -16.933067  24.337546 -1.674884
 5396 1 -18.154373  25.061986 -1.674884
 5397 1 -18.137643  26.481887 -1.674884
 5398 1 -16.899607  27.177349 -1.674884
 5399 1 -19.392409  24.366524 -1.674884
 5400 1 -20.613714  25.090963 -1.674884
 5401 1 -20.596984  26.510865 -1.674884
 5402 1 -19.358948  27.206327 -1.674884
 5403 1 -21.851750  24.395501 -1.674884
 5404 1 -23.073056  25.119941 -1.674884
 5405 1 -23.056326  26.539842 -1.674884
 5406 1 -21.818290  27.235304 -1.674884
 5407 1 -24.311092  24.424479 -1.674884
 5408 1 -25.532397  25.148918 -1.674884
 5409 1 -25.515667  26.568820 -1.674884
 5410 1 -24.277631  27.264282 -1.674884
 5411 1 -26.770433  24.453456 -1.674884
 5412 1 -27.991739  25.177896 -1.674884
 5413 1 -27.975008  26.597797 -1.674884
 5414 1 -26.736973  27.293259 -1.674884
 5415 1 -29.229774  24.482434 -1.674884
 5416 1 -30.451080  25.206874 -1.674884
 5417 1 -30.434350  26.626775 -1.674884
 5418 1 -29.196314  27.322237 -1.674884
 5419 1 -31.689116  24.511412 -1.674884
 5420 1 -32.910421  25.235851 -1.674884
 5421 1 -32.893691  26.655753 -1.674884
 5422 1 -31.655655  27.351214 -1.674884
 5423 1 -34.148457  24.540389 -1.674884
 5424 1 -35.369763  25.264829 -1.674884
 5425 1 -35.353033  26.684730 -1.674884
 5426 1 -34.114997  27.380192 -1.674884
 5427 1 -36.607799  24.569367 -1.674884
 5428 1 -37.829104  25.293806 -1.674884
 5429 1 -37.812374  26.713708 -1.674884
 5430 1 -36.574338  27.409170 -1.674884
 5431 1 -39.067140  24.598344 -1.674884
 5432 1 -40.288446  25.322784 -1.674884
 5433 1 -40.271716  26.742685 -1.674884
 5434 1 -39.033680  27.438147 -1.674884
 5435 1 -41.526482  24.627322 -1.674884
 5436 1 -42.747787  25.351761 -1.674884
 5437 1 -42.731057  26.771663 -1.674884
 5438 1 -41.493021  27.467125 -1.674884
 5439 1 -43.985823  24.656299 -1.674884
 5440 1 -45.207129  25.380739 -1.674884
 5441 1 -45.190398  26.800640 -1.674884
 5442 1 -43.952363  27.496102 -1.674884
 5443 1 -46.445164  24.685277 -1.674884
 5444 1 -47.666470  25.409717 -1.674884
 5445 1 -47.649740  26.829618 -1.674884
 5446 1 -46.411704  27.525080 -1.674884
 5447 1 -48.904506  24.714255 -1.674884
 5448 1 -50.125812  25.438694 -1.674884
 5449 1 -50.109081  26.858596 -1.674884
 5450 1 -48.871046  27.554058 -1.674884
 5451 1 -51.363847  24.743232 -1.674884
 5452 1 -52.585153  25.467672 -1.674884
 5453 1 -52.568423  26.887573 -1.674884
 5454 1 -51.330387  27.583035 -1.674884
 5455 1 -53.823189  24.772210 -1.674884
 5456 1 -55.044494  25.496649 -1.674884
 5457 1 -55.027764  26.916551 -1.674884
 5458 1 -53.789728  27.612013 -1.674884
 5459 1 -56.282530  24.801187 -1.674884
 5460 1 -57.503836  25.525627 -1.674884
 5461 1 -57.487106  26.945528 -1.674884
 5462 1 -56.249070  27.640990 -1.674884
 5463 1 -58.741872  24.830165 -1.674884
 5464 1 -59.963177  25.554604 -1.674884
 5465 1 -59.946447  26.974506 -1.674884
 5466 1 -58.708411  27.669968 -1.674884
 5467 1 -61.201213  24.859143 -1.674884
 5468 1 -62.422519  25.583582 -1.674884
 5469 1 -62.405789  27.003484 -1.674884
 5470 1 -61.167753  27.698945 -1.674884
 5471 1 -63.660555  24.888120 -1.674884
 5472 1 -64.881860  25.612560 -1.674884
 5473 1 -64.865130  27.032461 -1.674884
 5474 1 -63.627094  27.727923 -1.674884
 5475 1 -66.119896  24.917098 -1.674884
 5476 1 -67.341202  25.641537 -1.674884
 5477 1 -67.324471  27.061439 -1.674884
 5478 1 -66.086436  27.756901 -1.674884
 5479 1 -68.579237  24.946075 -1.674884
 5480 1 -69.800543  25.670515 -1.674884
 5481 1 -69.783813  27.090416 -1.674884
 5482 1 -68.545777  27.785878 -1.674884
 5483 1 -71.038579  24.975053 -1.674884
 5484 1 -72.259884  25.699492 -1.674884
 5485 1 -72.243154  27.119394 -1.674884
 5486 1 -71.005118  27.814856 -1.674884
 5487 1 -73.497920  25.004030 -1.674884
 5488 1 -74.719226  25.728470 -1.674884
 5489 1 -74.702496  27.148371 -1.674884
 5490 1 -73.464460  27.843833 -1.674884
 5491 1 -75.957262  25.033008 -1.674884
 5492 1 -77.178567  25.757448 -1.674884
 5493 1 -77.161837  27.177349 -1.674884
 5494 1 -75.923801  27.872811 -1.674884
 5495 1 -78.416603  25.061986 -1.674884
 5496 1 -79.637909  25.786425 -1.674884
 5497 1 -79.621179  27.206327 -1.674884
 5498 1 -78.383143  27.901788 -1.674884
 5499 1 -80.875945  25.090963 -1.674884
 5500 1 -82.097250  25.815403 -1.674884
 5501 1 -82.080520  27.235304 -1.674884
 5502 1 -80.842484  27.930766 -1.674884
 5503 1 -83.335286  25.119941 -1.674884
 5504 1 -84.556592  25.844380 -1.674884
 5505 1 -84.539861  27.264282 -1.674884
 5506 1 -83.301826  27.959744 -1.674884
 5507 1 -85.794627  25.148918 -1.674884
 5508 1 -87.015933  25.873358 -1.674884
 5509 1 -86.999203  27.293259 -1.674884
 5510 1 -85.761167  27.988721 -1.674884
 5511 1 -88.253969  25.177896 -1.674884
 5512 1 -89.475275  25.902335 -1.674884
 5513 1 -89.458544  27.322237 -1.674884
 5514 1 -88.220508  28.017699 -1.674884
 5515 1  90.106841  28.046676 -1.674884
 5516 1  90.123571  29.466578 -1.674884
 5517 1  88.868805  27.351214 -1.674884
 5518 1  87.647500  28.075654 -1.674884
 5519 1  87.664230  29.495555 -1.674884
 5520 1  88.902266  30.191017 -1.674884
 5521 1  86.409464  27.380192 -1.674884
 5522 1  85.188158  28.104632 -1.674884
 5523 1  85.204888  29.524533 -1.674884
 5524 1  86.442924  30.219995 -1.674884
 5525 1  83.950122  27.409170 -1.674884
 5526 1  82.728817  28.133609 -1.674884
 5527 1  82.745547  29.553511 -1.674884
 5528 1  83.983583  30.248973 -1.674884
 5529 1  81.490781  27.438147 -1.674884
 5530 1  80.269475  28.162587 -1.674884
 5531 1  80.286205  29.582488 -1.674884
 5532 1  81.524241  30.277950 -1.674884
 5533 1  79.031439  27.467125 -1.674884
 5534 1  77.810134  28.191564 -1.674884
 5535 1  77.826864  29.611466 -1.674884
 5536 1  79.064900  30.306928 -1.674884
 5537 1  76.572098  27.496102 -1.674884
 5538 1  75.350792  28.220542 -1.674884
 5539 1  75.367523  29.640443 -1.674884
 5540 1  76.605558  30.335905 -1.674884
 5541 1  74.112757  27.525080 -1.674884
 5542 1  72.891451  28.249519 -1.674884
 5543 1  72.908181  29.669421 -1.674884
 5544 1  74.146217  30.364883 -1.674884
 5545 1  71.653415  27.554058 -1.674884
 5546 1  70.432109  28.278497 -1.674884
 5547 1  70.448840  29.698398 -1.674884
 5548 1  71.686876  30.393860 -1.674884
 5549 1  69.194074  27.583035 -1.674884
 5550 1  67.972768  28.307475 -1.674884
 5551 1  67.989498  29.727376 -1.674884
 5552 1  69.227534  30.422838 -1.674884
 5553 1  66.734732  27.612013 -1.674884
 5554 1  65.513427  28.336452 -1.674884
 5555 1  65.530157  29.756354 -1.674884
 5556 1  66.768193  30.451816 -1.674884
 5557 1  64.275391  27.640990 -1.674884
 5558 1  63.054085  28.365430 -1.674884
 5559 1  63.070815  29.785331 -1.674884
 5560 1  64.308851  30.480793 -1.674884
 5561 1  61.816049  27.669968 -1.674884
 5562 1  60.594744  28.394407 -1.674884
 5563 1  60.611474  29.814309 -1.674884
 5564 1  61.849510  30.509771 -1.674884
 5565 1  59.356708  27.698945 -1.674884
 5566 1  58.135402  28.423385 -1.674884
 5567 1  58.152133  29.843286 -1.674884
 5568 1  59.390168  30.538748 -1.674884
 5569 1  56.897366  27.727923 -1.674884
 5570 1  55.676061  28.452363 -1.674884
 5571 1  55.692791  29.872264 -1.674884
 5572 1  56.930827  30.567726 -1.674884
 5573 1  54.438025  27.756901 -1.674884
 5574 1  53.216719  28.481340 -1.674884
 5575 1  53.233450  29.901242 -1.674884
 5576 1  54.471485  30.596703 -1.674884
 5577 1  51.978684  27.785878 -1.674884
 5578 1  50.757378  28.510318 -1.674884
 5579 1  50.774108  29.930219 -1.674884
 5580 1  52.012144  30.625681 -1.674884
 5581 1  49.519342  27.814856 -1.674884
 5582 1  48.298037  28.539295 -1.674884
 5583 1  48.314767  29.959197 -1.674884
 5584 1  49.552803  30.654659 -1.674884
 5585 1  47.060001  27.843833 -1.674884
 5586 1  45.838695  28.568273 -1.674884
 5587 1  45.855425  29.988174 -1.674884
 5588 1  47.093461  30.683636 -1.674884
 5589 1  44.600659  27.872811 -1.674884
 5590 1  43.379354  28.597250 -1.674884
 5591 1  43.396084  30.017152 -1.674884
 5592 1  44.634120  30.712614 -1.674884
 5593 1  42.141318  27.901788 -1.674884
 5594 1  40.920012  28.626228 -1.674884
 5595 1  40.936742  30.046129 -1.674884
 5596 1  42.174778  30.741591 -1.674884
 5597 1  39.681976  27.930766 -1.674884
 5598 1  38.460671  28.655206 -1.674884
 5599 1  38.477401  30.075107 -1.674884
 5600 1  39.715437  30.770569 -1.674884
 5601 1  37.222635  27.959744 -1.674884
 5602 1  36.001329  28.684183 -1.674884
 5603 1  36.018060  30.104085 -1.674884
 5604 1  37.256095  30.799547 -1.674884
 5605 1  34.763294  27.988721 -1.674884
 5606 1  33.541988  28.713161 -1.674884
 5607 1  33.558718  30.133062 -1.674884
 5608 1  34.796754  30.828524 -1.674884
 5609 1  32.303952  28.017699 -1.674884
 5610 1  31.082646  28.742138 -1.674884
 5611 1  31.099377  30.162040 -1.674884
 5612 1  32.337413  30.857502 -1.674884
 5613 1  29.844611  28.046676 -1.674884
 5614 1  28.623305  28.771116 -1.674884
 5615 1  28.640035  30.191017 -1.674884
 5616 1  29.878071  30.886479 -1.674884
 5617 1  27.385269  28.075654 -1.674884
 5618 1  26.163964  28.800093 -1.674884
 5619 1  26.180694  30.219995 -1.674884
 5620 1  27.418730  30.915457 -1.674884
 5621 1  24.925928  28.104632 -1.674884
 5622 1  23.704622  28.829071 -1.674884
 5623 1  23.721352  30.248973 -1.674884
 5624 1  24.959388  30.944434 -1.674884
 5625 1  22.466586  28.133609 -1.674884
 5626 1  21.245281  28.858049 -1.674884
 5627 1  21.262011  30.277950 -1.674884
 5628 1  22.500047  30.973412 -1.674884
 5629 1  20.007245  28.162587 -1.674884
 5630 1  18.785939  28.887026 -1.674884
 5631 1  18.802670  30.306928 -1.674884
 5632 1  20.040705  31.002390 -1.674884
 5633 1  17.547903  28.191564 -1.674884
 5634 1  16.326598  28.916004 -1.674884
 5635 1  16.343328  30.335905 -1.674884
 5636 1  17.581364  31.031367 -1.674884
 5637 1  15.088562  28.220542 -1.674884
 5638 1  13.867256  28.944981 -1.674884
 5639 1  13.883987  30.364883 -1.674884
 5640 1  15.122022  31.060345 -1.674884
 5641 1  12.629221  28.249519 -1.674884
 5642 1  11.407915  28.973959 -1.674884
 5643 1  11.424645  30.393860 -1.674884
 5644 1  12.662681  31.089322 -1.674884
 5645 1  10.169879  28.278497 -1.674884
 5646 1   8.948574  29.002937 -1.674884
 5647 1   8.965304  30.422838 -1.674884
 5648 1  10.203340  31.118300 -1.674884
 5649 1   7.710538  28.307475 -1.674884
 5650 1   6.489232  29.031914 -1.674884
 5651 1   6.505962  30.451816 -1.674884
 5652 1   7.743998  31.147278 -1.674884
 5653 1   5.251196  28.336452 -1.674884
 5654 1   4.029891  29.060892 -1.674884
 5655 1   4.046621  30.480793 -1.674884
 5656 1   5.284657  31.176255 -1.674884
 5657 1   2.791855  28.365430 -1.674884
 5658 1   1.570549  29.089869 -1.674884
 5659 1   1.587279  30.509771 -1.674884
 5660 1   2.825315  31.205233 -1.674884
 5661 1   0.332513  28.394407 -1.674884
 5662 1  -0.888792  29.118847 -1.674884
 5663 1  -0.872062  30.538748 -1.674884
 5664 1   0.365974  31.234210 -1.674884
 5665 1  -2.126828  28.423385 -1.674884
 5666 1  -3.348134  29.147824 -1.674884
 5667 1  -3.331403  30.567726 -1.674884
 5668 1  -2.093368  31.263188 -1.674884
 5669 1  -4.586169  28.452363 -1.674884
 5670 1  -5.807475  29.176802 -1.674884
 5671 1  -5.790745  30.596703 -1.674884
 5672 1  -4.552709  31.292165 -1.674884
 5673 1  -7.045511  28.481340 -1.674884
 5674 1  -8.266816  29.205780 -1.674884
 5675 1  -8.250086  30.625681 -1.674884
 5676 1  -7.012050  31.321143 -1.674884
 5677 1  -9.504852  28.510318 -1.674884
 5678 1 -10.726158  29.234757 -1.674884
 5679 1 -10.709428  30.654659 -1.674884
 5680 1  -9.471392  31.350121 -1.674884
 5681 1 -11.964194  28.539295 -1.674884
 5682 1 -13.185499  29.263735 -1.674884
 5683 1 -13.168769  30.683636 -1.674884
 5684 1 -11.930733  31.379098 -1.674884
 5685 1 -14.423535  28.568273 -1.674884
 5686 1 -15.644841  29.292712 -1.674884
 5687 1 -15.628111  30.712614 -1.674884
 5688 1 -14.390075  31.408076 -1.674884
 5689 1 -16.882877  28.597250 -1.674884
 5690 1 -18.104182  29.321690 -1.674884
 5691 1 -18.087452  30.741591 -1.674884
 5692 1 -16.849416  31.437053 -1.674884
 5693 1 -19.342218  28.626228 -1.674884
 5694 1 -20.563524  29.350668 -1.674884
 5695 1 -20.546793  30.770569 -1.674884
 5696 1 -19.308758  31.466031 -1.674884
 5697 1 -21.801559  28.655206 -1.674884
 5698 1 -23.022865  29.379645 -1.674884
 5699 1 -23.006135  30.799547 -1.674884
 5700 1 -21.768099  31.495008 -1.674884
 5701 1 -24.260901  28.684183 -1.674884
 5702 1 -25.482207  29.408623 -1.674884
 5703 1 -25.465476  30.828524 -1.674884
 5704 1 -24.227440  31.523986 -1.674884
 5705 1 -26.720242  28.713161 -1.674884
 5706 1 -27.941548  29.437600 -1.674884
 5707 1 -27.924818  30.857502 -1.674884
 5708 1 -26.686782  31.552964 -1.674884
 5709 1 -29.179584  28.742138 -1.674884
 5710 1 -30.400889  29.466578 -1.674884
 5711 1 -30.384159  30.886479 -1.674884
 5712 1 -29.146123  31.581941 -1.674884
 5713 1 -31.638925  28.771116 -1.674884
 5714 1 -32.860231  29.495555 -1.674884
 5715 1 -32.843501  30.915457 -1.674884
 5716 1 -31.605465  31.610919 -1.674884
 5717 1 -34.098267  28.800093 -1.674884
 5718 1 -35.319572  29.524533 -1.674884
 5719 1 -35.302842  30.944434 -1.674884
 5720 1 -34.064806  31.639896 -1.674884
 5721 1 -36.557608  28.829071 -1.674884
 5722 1 -37.778914  29.553511 -1.674884
 5723 1 -37.762184  30.973412 -1.674884
 5724 1 -36.524148  31.668874 -1.674884
 5725 1 -39.016950  28.858049 -1.674884
 5726 1 -40.238255  29.582488 -1.674884
 5727 1 -40.221525  31.002390 -1.674884
 5728 1 -38.983489  31.697852 -1.674884
 5729 1 -41.476291  28.887026 -1.674884
 5730 1 -42.697597  29.611466 -1.674884
 5731 1 -42.680866  31.031367 -1.674884
 5732 1 -41.442831  31.726829 -1.674884
 5733 1 -43.935632  28.916004 -1.674884
 5734 1 -45.156938  29.640443 -1.674884
 5735 1 -45.140208  31.060345 -1.674884
 5736 1 -43.902172  31.755807 -1.674884
 5737 1 -46.394974  28.944981 -1.674884
 5738 1 -47.616279  29.669421 -1.674884
 5739 1 -47.599549  31.089322 -1.674884
 5740 1 -46.361513  31.784784 -1.674884
 5741 1 -48.854315  28.973959 -1.674884
 5742 1 -50.075621  29.698398 -1.674884
 5743 1 -50.058891  31.118300 -1.674884
 5744 1 -48.820855  31.813762 -1.674884
 5745 1 -51.313657  29.002937 -1.674884
 5746 1 -52.534962  29.727376 -1.674884
 5747 1 -52.518232  31.147278 -1.674884
 5748 1 -51.280196  31.842739 -1.674884
 5749 1 -53.772998  29.031914 -1.674884
 5750 1 -54.994304  29.756354 -1.674884
 5751 1 -54.977574  31.176255 -1.674884
 5752 1 -53.739538  31.871717 -1.674884
 5753 1 -56.232340  29.060892 -1.674884
 5754 1 -57.453645  29.785331 -1.674884
 5755 1 -57.436915  31.205233 -1.674884
 5756 1 -56.198879  31.900695 -1.674884
 5757 1 -58.691681  29.089869 -1.674884
 5758 1 -59.912987  29.814309 -1.674884
 5759 1 -59.896256  31.234210 -1.674884
 5760 1 -58.658221  31.929672 -1.674884
 5761 1 -61.151022  29.118847 -1.674884
 5762 1 -62.372328  29.843286 -1.674884
 5763 1 -62.355598  31.263188 -1.674884
 5764 1 -61.117562  31.958650 -1.674884
 5765 1 -63.610364  29.147824 -1.674884
 5766 1 -64.831670  29.872264 -1.674884
 5767 1 -64.814939  31.292165 -1.674884
 5768 1 -63.576903  31.987627 -1.674884
 5769 1 -66.069705  29.176802 -1.674884
 5770 1 -67.291011  29.901242 -1.674884
 5771 1 -67.274281  31.321143 -1.674884
 5772 1 -66.036245  32.016605 -1.674884
 5773 1 -68.529047  29.205780 -1.674884
 5774 1 -69.750352  29.930219 -1.674884
 5775 1 -69.733622  31.350121 -1.674884
 5776 1 -68.495586  32.045582 -1.674884
 5777 1 -70.988388  29.234757 -1.674884
 5778 1 -72.209694  29.959197 -1.674884
 5779 1 -72.192964  31.379098 -1.674884
 5780 1 -70.954928  32.074560 -1.674884
 5781 1 -73.447730  29.263735 -1.674884
 5782 1 -74.669035  29.988174 -1.674884
 5783 1 -74.652305  31.408076 -1.674884
 5784 1 -73.414269  32.103538 -1.674884
 5785 1 -75.907071  29.292712 -1.674884
 5786 1 -77.128377  30.017152 -1.674884
 5787 1 -77.111646  31.437053 -1.674884
 5788 1 -75.873611  32.132515 -1.674884
 5789 1 -78.366413  29.321690 -1.674884
 5790 1 -79.587718  30.046129 -1.674884
 5791 1 -79.570988  31.466031 -1.674884
 5792 1 -78.332952  32.161493 -1.674884
 5793 1 -80.825754  29.350668 -1.674884
 5794 1 -82.047060  30.075107 -1.674884
 5795 1 -82.030329  31.495008 -1.674884
 5796 1 -80.792294  32.190470 -1.674884
 5797 1 -83.285095  29.379645 -1.674884
 5798 1 -84.506401  30.104085 -1.674884
 5799 1 -84.489671  31.523986 -1.674884
 5800 1 -83.251635  32.219448 -1.674884
 5801 1 -85.744437  29.408623 -1.674884
 5802 1 -86.965742  30.133062 -1.674884
 5803 1 -86.949012  31.552964 -1.674884
 5804 1 -85.710976  32.248426 -1.674884
 5805 1 -88.203778  29.437600 -1.674884
 5806 1 -89.425084  30.162040 -1.674884
 5807 1 -89.408354  31.581941 -1.674884
 5808 1 -88.170318  32.277403 -1.674884
 5809 1  90.157032  32.306381 -1.674884
 5810 1  90.173762  33.726282 -1.674884
 5811 1  88.918996  31.610919 -1.674884
 5812 1  87.697690  32.335358 -1.674884
 5813 1  87.714420  33.755260 -1.674884
 5814 1  88.952456  34.450722 -1.674884
 5815 1  86.459654  31.639896 -1.674884
 5816 1  85.238349  32.364336 -1.674884
 5817 1  85.255079  33.784237 -1.674884
 5818 1  86.493115  34.479699 -1.674884
 5819 1  84.000313  31.668874 -1.674884
 5820 1  82.779007  32.393313 -1.674884
 5821 1  82.795738  33.813215 -1.674884
 5822 1  84.033773  34.508677 -1.674884
 5823 1  81.540971  31.697852 -1.674884
 5824 1  80.319666  32.422291 -1.674884
 5825 1  80.336396  33.842192 -1.674884
 5826 1  81.574432  34.537654 -1.674884
 5827 1  79.081630  31.726829 -1.674884
 5828 1  77.860324  32.451269 -1.674884
 5829 1  77.877055  33.871170 -1.674884
 5830 1  79.115090  34.566632 -1.674884
 5831 1  76.622289  31.755807 -1.674884
 5832 1  75.400983  32.480246 -1.674884
 5833 1  75.417713  33.900148 -1.674884
 5834 1  76.655749  34.595610 -1.674884
 5835 1  74.162947  31.784784 -1.674884
 5836 1  72.941642  32.509224 -1.674884
 5837 1  72.958372  33.929125 -1.674884
 5838 1  74.196408  34.624587 -1.674884
 5839 1  71.703606  31.813762 -1.674884
 5840 1  70.482300  32.538201 -1.674884
 5841 1  70.499030  33.958103 -1.674884
 5842 1  71.737066  34.653565 -1.674884
 5843 1  69.244264  31.842739 -1.674884
 5844 1  68.022959  32.567179 -1.674884
 5845 1  68.039689  33.987080 -1.674884
 5846 1  69.277725  34.682542 -1.674884
 5847 1  66.784923  31.871717 -1.674884
 5848 1  65.563617  32.596157 -1.674884
 5849 1  65.580347  34.016058 -1.674884
 5850 1  66.818383  34.711520 -1.674884
 5851 1  64.325581  31.900695 -1.674884
 5852 1  63.104276  32.625134 -1.674884
 5853 1  63.121006  34.045036 -1.674884
 5854 1  64.359042  34.740497 -1.674884
 5855 1  61.866240  31.929672 -1.674884
 5856 1  60.644934  32.654112 -1.674884
 5857 1  60.661665  34.074013 -1.674884
 5858 1  61.899700  34.769475 -1.674884
 5859 1  59.406899  31.958650 -1.674884
 5860 1  58.185593  32.683089 -1.674884
 5861 1  58.202323  34.102991 -1.674884
 5862 1  59.440359  34.798453 -1.674884
 5863 1  56.947557  31.987627 -1.674884
 5864 1  55.726251  32.712067 -1.674884
 5865 1  55.742982  34.131968 -1.674884
 5866 1  56.981018  34.827430 -1.674884
 5867 1  54.488216  32.016605 -1.674884
 5868 1  53.266910  32.741044 -1.674884
 5869 1  53.283640  34.160946 -1.674884
 5870 1  54.521676  34.856408 -1.674884
 5871 1  52.028874  32.045582 -1.674884
 5872 1  50.807569  32.770022 -1.674884
 5873 1  50.824299  34.189923 -1.674884
 5874 1  52.062335  34.885385 -1.674884
 5875 1  49.569533  32.074560 -1.674884
 5876 1  48.348227  32.799000 -1.674884
 5877 1  48.364957  34.218901 -1.674884
 5878 1  49.602993  34.914363 -1.674884
 5879 1  47.110191  32.103538 -1.674884
 5880 1  45.888886  32.827977 -1.674884
 5881 1  45.905616  34.247879 -1.674884
 5882 1  47.143652  34.943341 -1.674884
 5883 1  44.650850  32.132515 -1.674884
 5884 1  43.429544  32.856955 -1.674884
 5885 1  43.446275  34.276856 -1.674884
 5886 1  44.684310  34.972318 -1.674884
 5887 1  42.191508  32.161493 -1.674884
 5888 1  40.970203  32.885932 -1.674884
 5889 1  40.986933  34.305834 -1.674884
 5890 1  42.224969  35.001296 -1.674884
 5891 1  39.732167  32.190470 -1.674884
 5892 1  38.510861  32.914910 -1.674884
 5893 1  38.527592  34.334811 -1.674884
 5894 1  39.765627  35.030273 -1.674884
 5895 1  37.272826  32.219448 -1.674884
 5896 1  36.051520  32.943887 -1.674884
 5897 1  36.068250  34.363789 -1.674884
 5898 1  37.306286  35.059251 -1.674884
 5899 1  34.813484  32.248426 -1.674884
 5900 1  33.592179  32.972865 -1.674884
 5901 1  33.608909  34.392767 -1.674884
 5902 1  34.846945  35.088228 -1.674884
 5903 1  32.354143  32.277403 -1.674884
 5904 1  31.132837  33.001843 -1.674884
 5905 1  31.149567  34.421744 -1.674884
 5906 1  32.387603  35.117206 -1.674884
 5907 1  29.894801  32.306381 -1.674884
 5908 1  28.673496  33.030820 -1.674884
 5909 1  28.690226  34.450722 -1.674884
 5910 1  29.928262  35.146184 -1.674884
 5911 1  27.435460  32.335358 -1.674884
 5912 1  26.214154  33.059798 -1.674884
 5913 1  26.230884  34.479699 -1.674884
 5914 1  27.468920  35.175161 -1.674884
 5915 1  24.976118  32.364336 -1.674884
 5916 1  23.754813  33.088775 -1.674884
 5917 1  23.771543  34.508677 -1.674884
 5918 1  25.009579  35.204139 -1.674884
 5919 1  22.516777  32.393313 -1.674884
 5920 1  21.295471  33.117753 -1.674884
 5921 1  21.312202  34.537654 -1.674884
 5922 1  22.550237  35.233116 -1.674884
 5923 1  20.057436  32.422291 -1.674884
 5924 1  18.836130  33.146731 -1.674884
 5925 1  18.852860  34.566632 -1.674884
 5926 1  20.090896  35.262094 -1.674884
 5927 1  17.598094  32.451269 -1.674884
 5928 1  16.376789  33.175708 -1.674884
 5929 1  16.393519  34.595610 -1.674884
 5930 1  17.631555  35.291071 -1.674884
 5931 1  15.138753  32.480246 -1.674884
 5932 1  13.917447  33.204686 -1.674884
 5933 1  13.934177  34.624587 -1.674884
 5934 1  15.172213  35.320049 -1.674884
 5935 1  12.679411  32.509224 -1.674884
 5936 1  11.458106  33.233663 -1.674884
 5937 1  11.474836  34.653565 -1.674884
 5938 1  12.712872  35.349027 -1.674884
 5939 1  10.220070  32.538201 -1.674884
 5940 1   8.998764  33.262641 -1.674884
 5941 1   9.015494  34.682542 -1.674884
 5942 1  10.253530  35.378004 -1.674884
 5943 1   7.760728  32.567179 -1.674884
 5944 1   6.539423  33.291618 -1.674884
 5945 1   6.556153  34.711520 -1.674884
 5946 1   7.794189  35.406982 -1.674884
 5947 1   5.301387  32.596157 -1.674884
 5948 1   4.080081  33.320596 -1.674884
 5949 1   4.096812  34.740497 -1.674884
 5950 1   5.334847  35.435959 -1.674884
 5951 1   2.842046  32.625134 -1.674884
 5952 1   1.620740  33.349574 -1.674884
 5953 1   1.637470  34.769475 -1.674884
 5954 1   2.875506  35.464937 -1.674884
 5955 1   0.382704  32.654112 -1.674884
 5956 1  -0.838602  33.378551 -1.674884
 5957 1  -0.821871  34.798453 -1.674884
 5958 1   0.416165  35.493915 -1.674884
 5959 1  -2.076637  32.683089 -1.674884
 5960 1  -3.297943  33.407529 -1.674884
 5961 1  -3.281213  34.827430 -1.674884
 5962 1  -2.043177  35.522892 -1.674884
 5963 1  -4.535979  32.712067 -1.674884
 5964 1  -5.757284  33.436506 -1.674884
 5965 1  -5.740554  34.856408 -1.674884
 5966 1  -4.502518  35.551870 -1.674884
 5967 1  -6.995320  32.741044 -1.674884
 5968 1  -8.216626  33.465484 -1.674884
 5969 1  -8.199896  34.885385 -1.674884
 5970 1  -6.961860  35.580847 -1.674884
 5971 1  -9.454662  32.770022 -1.674884
 5972 1 -10.675967  33.494462 -1.674884
 5973 1 -10.659237  34.914363 -1.674884
 5974 1  -9.421201  35.609825 -1.674884
 5975 1 -11.914003  32.799000 -1.674884
 5976 1 -13.135309  33.523439 -1.674884
 5977 1 -13.118579  34.943341 -1.674884
 5978 1 -11.880543  35.638802 -1.674884
 5979 1 -14.373345  32.827977 -1.674884
 5980 1 -15.594650  33.552417 -1.674884
 5981 1 -15.577920  34.972318 -1.674884
 5982 1 -14.339884  35.667780 -1.674884
 5983 1 -16.832686  32.856955 -1.674884
 5984 1 -18.053992  33.581394 -1.674884
 5985 1 -18.037261  35.001296 -1.674884
 5986 1 -16.799226  35.696758 -1.674884
 5987 1 -19.292027  32.885932 -1.674884
 5988 1 -20.513333  33.610372 -1.674884
 5989 1 -20.496603  35.030273 -1.674884
 5990 1 -19.258567  35.725735 -1.674884
 5991 1 -21.751369  32.914910 -1.674884
 5992 1 -22.972674  33.639349 -1.674884
 5993 1 -22.955944  35.059251 -1.674884
 5994 1 -21.717908  35.754713 -1.674884
 5995 1 -24.210710  32.943887 -1.674884
 5996 1 -25.432016  33.668327 -1.674884
 5997 1 -25.415286  35.088228 -1.674884
 5998 1 -24.177250  35.783690 -1.674884
 5999 1 -26.670052  32.972865 -1.674884
 6000 1 -27.891357  33.697305 -1.674884
 6001 1 -27.874627  35.117206 -1.674884
 6002 1 -26.636591  35.812668 -1.674884
 6003 1 -29.129393  33.001843 -1.674884
 6004 1 -30.350699  33.726282 -1.674884
 6005 1 -30.333969  35.146184 -1.674884
 6006 1 -29.095933  35.841646 -1.674884
 6007 1 -31.588735  33.030820 -1.674884
 6008 1 -32.810040  33.755260 -1.674884
 6009 1 -32.793310  35.175161 -1.674884
 6010 1 -31.555274  35.870623 -1.674884
 6011 1 -34.048076  33.059798 -1.674884
 6012 1 -35.269382  33.784237 -1.674884
 6013 1 -35.252651  35.204139 -1.674884
 6014 1 -34.014616  35.899601 -1.674884
 6015 1 -36.507417  33.088775 -1.674884
 6016 1 -37.728723  33.813215 -1.674884
 6017 1 -37.711993  35.233116 -1.674884
 6018 1 -36.473957  35.928578 -1.674884
 6019 1 -38.966759  33.117753 -1.674884
 6020 1 -40.188065  33.842192 -1.674884
 6021 1 -40.171334  35.262094 -1.674884
 6022 1 -38.933298  35.957556 -1.674884
 6023 1 -41.426100  33.146731 -1.674884
 6024 1 -42.647406  33.871170 -1.674884
 6025 1 -42.630676  35.291071 -1.674884
 6026 1 -41.392640  35.986533 -1.674884
 6027 1 -43.885442  33.175708 -1.674884
 6028 1 -45.106747  33.900148 -1.674884
 6029 1 -45.090017  35.320049 -1.674884
 6030 1 -43.851981  36.015511 -1.674884
 6031 1 -46.344783  33.204686 -1.674884
 6032 1 -47.566089  33.929125 -1.674884
 6033 1 -47.549359  35.349027 -1.674884
 6034 1 -46.311323  36.044489 -1.674884
 6035 1 -48.804125  33.233663 -1.674884
 6036 1 -50.025430  33.958103 -1.674884
 6037 1 -50.008700  35.378004 -1.674884
 6038 1 -48.770664  36.073466 -1.674884
 6039 1 -51.263466  33.262641 -1.674884
 6040 1 -52.484772  33.987080 -1.674884
 6041 1 -52.468041  35.406982 -1.674884
 6042 1 -51.230006  36.102444 -1.674884
 6043 1 -53.722808  33.291618 -1.674884
 6044 1 -54.944113  34.016058 -1.674884
 6045 1 -54.927383  35.435959 -1.674884
 6046 1 -53.689347  36.131421 -1.674884
 6047 1 -56.182149  33.320596 -1.674884
 6048 1 -57.403455  34.045036 -1.674884
 6049 1 -57.386724  35.464937 -1.674884
 6050 1 -56.148689  36.160399 -1.674884
 6051 1 -58.641490  33.349574 -1.674884
 6052 1 -59.862796  34.074013 -1.674884
 6053 1 -59.846066  35.493915 -1.674884
 6054 1 -58.608030  36.189376 -1.674884
 6055 1 -61.100832  33.378551 -1.674884
 6056 1 -62.322137  34.102991 -1.674884
 6057 1 -62.305407  35.522892 -1.674884
 6058 1 -61.067371  36.218354 -1.674884
 6059 1 -63.560173  33.407529 -1.674884
 6060 1 -64.781479  34.131968 -1.674884
 6061 1 -64.764749  35.551870 -1.674884
 6062 1 -63.526713  36.247332 -1.674884
 6063 1 -66.019515  33.436506 -1.674884
 6064 1 -67.240820  34.160946 -1.674884
 6065 1 -67.224090  35.580847 -1.674884
 6066 1 -65.986054  36.276309 -1.674884
 6067 1 -68.478856  33.465484 -1.674884
 6068 1 -69.700162  34.189923 -1.674884
 6069 1 -69.683432  35.609825 -1.674884
 6070 1 -68.445396  36.305287 -1.674884
 6071 1 -70.938198  33.494462 -1.674884
 6072 1 -72.159503  34.218901 -1.674884
 6073 1 -72.142773  35.638802 -1.674884
 6074 1 -70.904737  36.334264 -1.674884
 6075 1 -73.397539  33.523439 -1.674884
 6076 1 -74.618845  34.247879 -1.674884
 6077 1 -74.602114  35.667780 -1.674884
 6078 1 -73.364079  36.363242 -1.674884
 6079 1 -75.856880  33.552417 -1.674884
 6080 1 -77.078186  34.276856 -1.674884
 6081 1 -77.061456  35.696758 -1.674884
 6082 1 -75.823420  36.392220 -1.674884
 6083 1 -78.316222  33.581394 -1.674884
 6084 1 -79.537527  34.305834 -1.674884
 6085 1 -79.520797  35.725735 -1.674884
 6086 1 -78.282761  36.421197 -1.674884
 6087 1 -80.775563  33.610372 -1.674884
 6088 1 -81.996869  34.334811 -1.674884
 6089 1 -81.980139  35.754713 -1.674884
 6090 1 -80.742103  36.450175 -1.674884
 6091 1 -83.234905  33.639349 -1.674884
 6092 1 -84.456210  34.363789 -1.674884
 6093 1 -84.439480  35.783690 -1.674884
 6094 1 -83.201444  36.479152 -1.674884
 6095 1 -85.694246  33.668327 -1.674884
 6096 1 -86.915552  34.392767 -1.674884
 6097 1 -86.898822  35.812668 -1.674884
 6098 1 -85.660786  36.508130 -1.674884
 6099 1 -88.153588  33.697305 -1.674884
 6100 1 -89.374893  34.421744 -1.674884
 6101 1 -89.358163  35.841646 -1.674884
 6102 1 -88.120127  36.537107 -1.674884
 6103 1  90.207222  36.566085 -1.674884
 6104 1  90.223952  37.985986 -1.674884
 6105 1  88.969186  35.870623 -1.674884
 6106 1  87.747881  36.595063 -1.674884
 6107 1  87.764611  38.014964 -1.674884
 6108 1  89.002647  38.710426 -1.674884
 6109 1  86.509845  35.899601 -1.674884
 6110 1  85.288539  36.624040 -1.674884
 6111 1  85.305270  38.043942 -1.674884
 6112 1  86.543305  38.739404 -1.674884
 6113 1  84.050504  35.928578 -1.674884
 6114 1  82.829198  36.653018 -1.674884
 6115 1  82.845928  38.072919 -1.674884
 6116 1  84.083964  38.768381 -1.674884
 6117 1  81.591162  35.957556 -1.674884
 6118 1  80.369857  36.681995 -1.674884
 6119 1  80.386587  38.101897 -1.674884
 6120 1  81.624623  38.797359 -1.674884
 6121 1  79.131821  35.986533 -1.674884
 6122 1  77.910515  36.710973 -1.674884
 6123 1  77.927245  38.130874 -1.674884
 6124 1  79.165281  38.826336 -1.674884
 6125 1  76.672479  36.015511 -1.674884
 6126 1  75.451174  36.739951 -1.674884
 6127 1  75.467904  38.159852 -1.674884
 6128 1  76.705940  38.855314 -1.674884
 6129 1  74.213138  36.044489 -1.674884
 6130 1  72.991832  36.768928 -1.674884
 6131 1  73.008562  38.188830 -1.674884
 6132 1  74.246598  38.884291 -1.674884
 6133 1  71.753796  36.073466 -1.674884
 6134 1  70.532491  36.797906 -1.674884
 6135 1  70.549221  38.217807 -1.674884
 6136 1  71.787257  38.913269 -1.674884
 6137 1  69.294455  36.102444 -1.674884
 6138 1  68.073149  36.826883 -1.674884
 6139 1  68.089880  38.246785 -1.674884
 6140 1  69.327915  38.942247 -1.674884
 6141 1  66.835113  36.131421 -1.674884
 6142 1  65.613808  36.855861 -1.674884
 6143 1  65.630538  38.275762 -1.674884
 6144 1  66.868574  38.971224 -1.674884
 6145 1  64.375772  36.160399 -1.674884
 6146 1  63.154466  36.884838 -1.674884
 6147 1  63.171197  38.304740 -1.674884
 6148 1  64.409232  39.000202 -1.674884
 6149 1  61.916431  36.189376 -1.674884
 6150 1  60.695125  36.913816 -1.674884
 6151 1  60.711855  38.333717 -1.674884
 6152 1  61.949891  39.029179 -1.674884
 6153 1  59.457089  36.218354 -1.674884
 6154 1  58.235784  36.942794 -1.674884
 6155 1  58.252514  38.362695 -1.674884
 6156 1  59.490550  39.058157 -1.674884
 6157 1  56.997748  36.247332 -1.674884
 6158 1  55.776442  36.971771 -1.674884
 6159 1  55.793172  38.391673 -1.674884
 6160 1  57.031208  39.087135 -1.674884
 6161 1  54.538406  36.276309 -1.674884
 6162 1  53.317101  37.000749 -1.674884
 6163 1  53.333831  38.420650 -1.674884
 6164 1  54.571867  39.116112 -1.674884
 6165 1  52.079065  36.305287 -1.674884
 6166 1  50.857759  37.029726 -1.674884
 6167 1  50.874489  38.449628 -1.674884
 6168 1  52.112525  39.145090 -1.674884
 6169 1  49.619723  36.334264 -1.674884
 6170 1  48.398418  37.058704 -1.674884
 6171 1  48.415148  38.478605 -1.674884
 6172 1  49.653184  39.174067 -1.674884
 6173 1  47.160382  36.363242 -1.674884
 6174 1  45.939076  37.087681 -1.674884
 6175 1  45.955807  38.507583 -1.674884
 6176 1  47.193842  39.203045 -1.674884
 6177 1  44.701041  36.392220 -1.674884
 6178 1  43.479735  37.116659 -1.674884
 6179 1  43.496465  38.536561 -1.674884
 6180 1  44.734501  39.232022 -1.674884
 6181 1  42.241699  36.421197 -1.674884
 6182 1  41.020394  37.145637 -1.674884
 6183 1  41.037124  38.565538 -1.674884
 6184 1  42.275160  39.261000 -1.674884
 6185 1  39.782358  36.450175 -1.674884
 6186 1  38.561052  37.174614 -1.674884
 6187 1  38.577782  38.594516 -1.674884
 6188 1  39.815818  39.289978 -1.674884
 6189 1  37.323016  36.479152 -1.674884
 6190 1  36.101711  37.203592 -1.674884
 6191 1  36.118441  38.623493 -1.674884
 6192 1  37.356477  39.318955 -1.674884
 6193 1  34.863675  36.508130 -1.674884
 6194 1  33.642369  37.232569 -1.674884
 6195 1  33.659099  38.652471 -1.674884
 6196 1  34.897135  39.347933 -1.674884
 6197 1  32.404333  36.537107 -1.674884
 6198 1  31.183028  37.261547 -1.674884
 6199 1  31.199758  38.681448 -1.674884
 6200 1  32.437794  39.376910 -1.674884
 6201 1  29.944992  36.566085 -1.674884
 6202 1  28.723686  37.290525 -1.674884
 6203 1  28.740417  38.710426 -1.674884
 6204 1  29.978452  39.405888 -1.674884
 6205 1  27.485651  36.595063 -1.674884
 6206 1  26.264345  37.319502 -1.674884
 6207 1  26.281075  38.739404 -1.674884
 6208 1  27.519111  39.434865 -1.674884
 6209 1  25.026309  36.624040 -1.674884
 6210 1  23.805003  37.348480 -1.674884
 6211 1  23.821734  38.768381 -1.674884
 6212 1  25.059770  39.463843 -1.674884
 6213 1  22.566968  36.653018 -1.674884
 6214 1  21.345662  37.377457 -1.674884
 6215 1  21.362392  38.797359 -1.674884
 6216 1  22.600428  39.492821 -1.674884
 6217 1  20.107626  36.681995 -1.674884
 6218 1  18.886321  37.406435 -1.674884
 6219 1  18.903051  38.826336 -1.674884
 6220 1  20.141087  39.521798 -1.674884
 6221 1  17.648285  36.710973 -1.674884
 6222 1  16.426979  37.435412 -1.674884
 6223 1  16.443709  38.855314 -1.674884
 6224 1  17.681745  39.550776 -1.674884
 6225 1  15.188943  36.739951 -1.674884
 6226 1  13.967638  37.464390 -1.674884
 6227 1  13.984368  38.884291 -1.674884
 6228 1  15.222404  39.579753 -1.674884
 6229 1  12.729602  36.768928 -1.674884
 6230 1  11.508296  37.493368 -1.674884
 6231 1  11.525027  38.913269 -1.674884
 6232 1  12.763062  39.608731 -1.674884
 6233 1  10.270260  36.797906 -1.674884
 6234 1   9.048955  37.522345 -1.674884
 6235 1   9.065685  38.942247 -1.674884
 6236 1  10.303721  39.637709 -1.674884
 6237 1   7.810919  36.826883 -1.674884
 6238 1   6.589613  37.551323 -1.674884
 6239 1   6.606344  38.971224 -1.674884
 6240 1   7.844379  39.666686 -1.674884
 6241 1   5.351578  36.855861 -1.674884
 6242 1   4.130272  37.580300 -1.674884
 6243 1   4.147002  39.000202 -1.674884
 6244 1   5.385038  39.695664 -1.674884
 6245 1   2.892236  36.884838 -1.674884
 6246 1   1.670931  37.609278 -1.674884
 6247 1   1.687661  39.029179 -1.674884
 6248 1   2.925697  39.724641 -1.674884
 6249 1   0.432895  36.913816 -1.674884
 6250 1  -0.788411  37.638256 -1.674884
 6251 1  -0.771681  39.058157 -1.674884
 6252 1   0.466355  39.753619 -1.674884
 6253 1  -2.026447  36.942794 -1.674884
 6254 1  -3.247752  37.667233 -1.674884
 6255 1  -3.231022  39.087135 -1.674884
 6256 1  -1.992986  39.782596 -1.674884
 6257 1  -4.485788  36.971771 -1.674884
 6258 1  -5.707094  37.696211 -1.674884
 6259 1  -5.690364  39.116112 -1.674884
 6260 1  -4.452328  39.811574 -1.674884
 6261 1  -6.945130  37.000749 -1.674884
 6262 1  -8.166435  37.725188 -1.674884
 6263 1  -8.149705  39.145090 -1.674884
 6264 1  -6.911669  39.840552 -1.674884
 6265 1  -9.404471  37.029726 -1.674884
 6266 1 -10.625777  37.754166 -1.674884
 6267 1 -10.609046  39.174067 -1.674884
 6268 1  -9.371011  39.869529 -1.674884
 6269 1 -11.863812  37.058704 -1.674884
 6270 1 -13.085118  37.783143 -1.674884
 6271 1 -13.068388  39.203045 -1.674884
 6272 1 -11.830352  39.898507 -1.674884
 6273 1 -14.323154  37.087681 -1.674884
 6274 1 -15.544460  37.812121 -1.674884
 6275 1 -15.527729  39.232022 -1.674884
 6276 1 -14.289693  39.927484 -1.674884
 6277 1 -16.782495  37.116659 -1.674884
 6278 1 -18.003801  37.841099 -1.674884
 6279 1 -17.987071  39.261000 -1.674884
 6280 1 -16.749035  39.956462 -1.674884
 6281 1 -19.241837  37.145637 -1.674884
 6282 1 -20.463142  37.870076 -1.674884
 6283 1 -20.446412  39.289978 -1.674884
 6284 1 -19.208376  39.985440 -1.674884
 6285 1 -21.701178  37.174614 -1.674884
 6286 1 -22.922484  37.899054 -1.674884
 6287 1 -22.905754  39.318955 -1.674884
 6288 1 -21.667718  40.014417 -1.674884
 6289 1 -24.160520  37.203592 -1.674884
 6290 1 -25.381825  37.928031 -1.674884
 6291 1 -25.365095  39.347933 -1.674884
 6292 1 -24.127059  40.043395 -1.674884
 6293 1 -26.619861  37.232569 -1.674884
 6294 1 -27.841167  37.957009 -1.674884
 6295 1 -27.824436  39.376910 -1.674884
 6296 1 -26.586401  40.072372 -1.674884
 6297 1 -29.079203  37.261547 -1.674884
 6298 1 -30.300508  37.985986 -1.674884
 6299 1 -30.283778  39.405888 -1.674884
 6300 1 -29.045742  40.101350 -1.674884
 6301 1 -31.538544  37.290525 -1.674884
 6302 1 -32.759850  38.014964 -1.674884
 6303 1 -32.743119  39.434865 -1.674884
 6304 1 -31.505084  40.130327 -1.674884
 6305 1 -33.997885  37.319502 -1.674884
 6306 1 -35.219191  38.043942 -1.674884
 6307 1 -35.202461  39.463843 -1.674884
 6308 1 -33.964425  40.159305 -1.674884
 6309 1 -36.457227  37.348480 -1.674884
 6310 1 -37.678532  38.072919 -1.674884
 6311 1 -37.661802  39.492821 -1.674884
 6312 1 -36.423766  40.188283 -1.674884
 6313 1 -38.916568  37.377457 -1.674884
 6314 1 -40.137874  38.101897 -1.674884
 6315 1 -40.121144  39.521798 -1.674884
 6316 1 -38.883108  40.217260 -1.674884
 6317 1 -41.375910  37.406435 -1.674884
 6318 1 -42.597215  38.130874 -1.674884
 6319 1 -42.580485  39.550776 -1.674884
 6320 1 -41.342449  40.246238 -1.674884
 6321 1 -43.835251  37.435412 -1.674884
 6322 1 -45.056557  38.159852 -1.674884
 6323 1 -45.039827  39.579753 -1.674884
 6324 1 -43.801791  40.275215 -1.674884
 6325 1 -46.294593  37.464390 -1.674884
 6326 1 -47.515898  38.188830 -1.674884
 6327 1 -47.499168  39.608731 -1.674884
 6328 1 -46.261132  40.304193 -1.674884
 6329 1 -48.753934  37.493368 -1.674884
 6330 1 -49.975240  38.217807 -1.674884
 6331 1 -49.958509  39.637709 -1.674884
 6332 1 -48.720474  40.333170 -1.674884
 6333 1 -51.213275  37.522345 -1.674884
 6334 1 -52.434581  38.246785 -1.674884
 6335 1 -52.417851  39.666686 -1.674884
 6336 1 -51.179815  40.362148 -1.674884
 6337 1 -53.672617  37.551323 -1.674884
 6338 1 -54.893922  38.275762 -1.674884
 6339 1 -54.877192  39.695664 -1.674884
 6340 1 -53.639156  40.391126 -1.674884
 6341 1 -56.131958  37.580300 -1.674884
 6342 1 -57.353264  38.304740 -1.674884
 6343 1 -57.336534  39.724641 -1.674884
 6344 1 -56.098498  40.420103 -1.674884
 6345 1 -58.591300  37.609278 -1.674884
 6346 1 -59.812605  38.333717 -1.674884
 6347 1 -59.795875  39.753619 -1.674884
 6348 1 -58.557839  40.449081 -1.674884
 6349 1 -61.050641  37.638256 -1.674884
 6350 1 -62.271947  38.362695 -1.674884
 6351 1 -62.255217  39.782596 -1.674884
 6352 1 -61.017181  40.478058 -1.674884
 6353 1 -63.509983  37.667233 -1.674884
 6354 1 -64.731288  38.391673 -1.674884
 6355 1 -64.714558  39.811574 -1.674884
 6356 1 -63.476522  40.507036 -1.674884
 6357 1 -65.969324  37.696211 -1.674884
 6358 1 -67.190630  38.420650 -1.674884
 6359 1 -67.173899  39.840552 -1.674884
 6360 1 -65.935864  40.536014 -1.674884
 6361 1 -68.428665  37.725188 -1.674884
 6362 1 -69.649971  38.449628 -1.674884
 6363 1 -69.633241  39.869529 -1.674884
 6364 1 -68.395205  40.564991 -1.674884
 6365 1 -70.888007  37.754166 -1.674884
 6366 1 -72.109313  38.478605 -1.674884
 6367 1 -72.092582  39.898507 -1.674884
 6368 1 -70.854547  40.593969 -1.674884
 6369 1 -73.347348  37.783143 -1.674884
 6370 1 -74.568654  38.507583 -1.674884
 6371 1 -74.551924  39.927484 -1.674884
 6372 1 -73.313888  40.622946 -1.674884
 6373 1 -75.806690  37.812121 -1.674884
 6374 1 -77.027995  38.536561 -1.674884
 6375 1 -77.011265  39.956462 -1.674884
 6376 1 -75.773229  40.651924 -1.674884
 6377 1 -78.266031  37.841099 -1.674884
 6378 1 -79.487337  38.565538 -1.674884
 6379 1 -79.470607  39.985440 -1.674884
 6380 1 -78.232571  40.680901 -1.674884
 6381 1 -80.725373  37.870076 -1.674884
 6382 1 -81.946678  38.594516 -1.674884
 6383 1 -81.929948  40.014417 -1.674884
 6384 1 -80.691912  40.709879 -1.674884
 6385 1 -83.184714  37.899054 -1.674884
 6386 1 -84.406020  38.623493 -1.674884
 6387 1 -84.389290  40.043395 -1.674884
 6388 1 -83.151254  40.738857 -1.674884
 6389 1 -85.644056  37.928031 -1.674884
 6390 1 -86.865361  38.652471 -1.674884
 6391 1 -86.848631  40.072372 -1.674884
 6392 1 -85.610595  40.767834 -1.674884
 6393 1 -88.103397  37.957009 -1.674884
 6394 1 -89.324703  38.681448 -1.674884
 6395 1 -89.307972  40.101350 -1.674884
 6396 1 -88.069937  40.796812 -1.674884
 6397 1  90.257413  40.825789 -1.674884
 6398 1  90.274143  42.245691 -1.674884
 6399 1  89.019377  40.130327 -1.674884
 6400 1  87.798071  40.854767 -1.674884
 6401 1  87.814802  42.274668 -1.674884
 6402 1  89.052837  42.970130 -1.674884
 6403 1  86.560036  40.159305 -1.674884
 6404 1  85.338730  40.883745 -1.674884
 6405 1  85.355460  42.303646 -1.674884
 6406 1  86.593496  42.999108 -1.674884
 6407 1  84.100694  40.188283 -1.674884
 6408 1  82.879389  40.912722 -1.674884
 6409 1  82.896119  42.332624 -1.674884
 6410 1  84.134155  43.028085 -1.674884
 6411 1  81.641353  40.217260 -1.674884
 6412 1  80.420047  40.941700 -1.674884
 6413 1  80.436777  42.361601 -1.674884
 6414 1  81.674813  43.057063 -1.674884
 6415 1  79.182011  40.246238 -1.674884
 6416 1  77.960706  40.970677 -1.674884
 6417 1  77.977436  42.390579 -1.674884
 6418 1  79.215472  43.086041 -1.674884
 6419 1  76.722670  40.275215 -1.674884
 6420 1  75.501364  40.999655 -1.674884
 6421 1  75.518094  42.419556 -1.674884
 6422 1  76.756130  43.115018 -1.674884
 6423 1  74.263328  40.304193 -1.674884
 6424 1  73.042023  41.028632 -1.674884
 6425 1  73.058753  42.448534 -1.674884
 6426 1  74.296789  43.143996 -1.674884
 6427 1  71.803987  40.333170 -1.674884
 6428 1  70.582681  41.057610 -1.674884
 6429 1  70.599412  42.477511 -1.674884
 6430 1  71.837447  43.172973 -1.674884
 6431 1  69.344646  40.362148 -1.674884
 6432 1  68.123340  41.086588 -1.674884
 6433 1  68.140070  42.506489 -1.674884
 6434 1  69.378106  43.201951 -1.674884
 6435 1  66.885304  40.391126 -1.674884
 6436 1  65.663999  41.115565 -1.674884
 6437 1  65.680729  42.535467 -1.674884
 6438 1  66.918765  43.230929 -1.674884
 6439 1  64.425963  40.420103 -1.674884
 6440 1  63.204657  41.144543 -1.674884
 6441 1  63.221387  42.564444 -1.674884
 6442 1  64.459423  43.259906 -1.674884
 6443 1  61.966621  40.449081 -1.674884
 6444 1  60.745316  41.173520 -1.674884
 6445 1  60.762046  42.593422 -1.674884
 6446 1  62.000082  43.288884 -1.674884
 6447 1  59.507280  40.478058 -1.674884
 6448 1  58.285974  41.202498 -1.674884
 6449 1  58.302704  42.622399 -1.674884
 6450 1  59.540740  43.317861 -1.674884
 6451 1  57.047938  40.507036 -1.674884
 6452 1  55.826633  41.231475 -1.674884
 6453 1  55.843363  42.651377 -1.674884
 6454 1  57.081399  43.346839 -1.674884
 6455 1  54.588597  40.536014 -1.674884
 6456 1  53.367291  41.260453 -1.674884
 6457 1  53.384022  42.680355 -1.674884
 6458 1  54.622057  43.375816 -1.674884
 6459 1  52.129256  40.564991 -1.674884
 6460 1  50.907950  41.289431 -1.674884
 6461 1  50.924680  42.709332 -1.674884
 6462 1  52.162716  43.404794 -1.674884
 6463 1  49.669914  40.593969 -1.674884
 6464 1  48.448608  41.318408 -1.674884
 6465 1  48.465339  42.738310 -1.674884
 6466 1  49.703375  43.433772 -1.674884
 6467 1  47.210573  40.622946 -1.674884
 6468 1  45.989267  41.347386 -1.674884
 6469 1  46.005997  42.767287 -1.674884
 6470 1  47.244033  43.462749 -1.674884
 6471 1  44.751231  40.651924 -1.674884
 6472 1  43.529926  41.376363 -1.674884
 6473 1  43.546656  42.796265 -1.674884
 6474 1  44.784692  43.491727 -1.674884
 6475 1  42.291890  40.680901 -1.674884
 6476 1  41.070584  41.405341 -1.674884
 6477 1  41.087314  42.825242 -1.674884
 6478 1  42.325350  43.520704 -1.674884
 6479 1  39.832548  40.709879 -1.674884
 6480 1  38.611243  41.434319 -1.674884
 6481 1  38.627973  42.854220 -1.674884
 6482 1  39.866009  43.549682 -1.674884
 6483 1  37.373207  40.738857 -1.674884
 6484 1  36.151901  41.463296 -1.674884
 6485 1  36.168632  42.883198 -1.674884
 6486 1  37.406667  43.578659 -1.674884
 6487 1  34.913865  40.767834 -1.674884
 6488 1  33.692560  41.492274 -1.674884
 6489 1  33.709290  42.912175 -1.674884
 6490 1  34.947326  43.607637 -1.674884
 6491 1  32.454524  40.796812 -1.674884
 6492 1  31.233218  41.521251 -1.674884
 6493 1  31.249949  42.941153 -1.674884
 6494 1  32.487984  43.636615 -1.674884
 6495 1  29.995183  40.825789 -1.674884
 6496 1  28.773877  41.550229 -1.674884
 6497 1  28.790607  42.970130 -1.674884
 6498 1  30.028643  43.665592 -1.674884
 6499 1  27.535841  40.854767 -1.674884
 6500 1  26.314536  41.579206 -1.674884
 6501 1  26.331266  42.999108 -1.674884
 6502 1  27.569302  43.694570 -1.674884
 6503 1  25.076500  40.883745 -1.674884
 6504 1  23.855194  41.608184 -1.674884
 6505 1  23.871924  43.028085 -1.674884
 6506 1  25.109960  43.723547 -1.674884
 6507 1  22.617158  40.912722 -1.674884
 6508 1  21.395853  41.637162 -1.674884
 6509 1  21.412583  43.057063 -1.674884
 6510 1  22.650619  43.752525 -1.674884
 6511 1  20.157817  40.941700 -1.674884
 6512 1  18.936511  41.666139 -1.674884
 6513 1  18.953241  43.086041 -1.674884
 6514 1  20.191277  43.781503 -1.674884
 6515 1  17.698475  40.970677 -1.674884
 6516 1  16.477170  41.695117 -1.674884
 6517 1  16.493900  43.115018 -1.674884
 6518 1  17.731936  43.810480 -1.674884
 6519 1  15.239134  40.999655 -1.674884
 6520 1  14.017828  41.724094 -1.674884
 6521 1  14.034559  43.143996 -1.674884
 6522 1  15.272594  43.839458 -1.674884
 6523 1  12.779793  41.028632 -1.674884
 6524 1  11.558487  41.753072 -1.674884
 6525 1  11.575217  43.172973 -1.674884
 6526 1  12.813253  43.868435 -1.674884
 6527 1  10.320451  41.057610 -1.674884
 6528 1   9.099145  41.782050 -1.674884
 6529 1   9.115876  43.201951 -1.674884
 6530 1  10.353912  43.897413 -1.674884
 6531 1   7.861110  41.086588 -1.674884
 6532 1   6.639804  41.811027 -1.674884
 6533 1   6.656534  43.230929 -1.674884
 6534 1   7.894570  43.926390 -1.674884
 6535 1   5.401768  41.115565 -1.674884
 6536 1   4.180463  41.840005 -1.674884
 6537 1   4.197193  43.259906 -1.674884
 6538 1   5.435229  43.955368 -1.674884
 6539 1   2.942427  41.144543 -1.674884
 6540 1   1.721121  41.868982 -1.674884
 6541 1   1.737851  43.288884 -1.674884
 6542 1   2.975887  43.984346 -1.674884
 6543 1   0.483085  41.173520 -1.674884
 6544 1  -0.738220  41.897960 -1.674884
 6545 1  -0.721490  43.317861 -1.674884
 6546 1   0.516546  44.013323 -1.674884
 6547 1  -1.976256  41.202498 -1.674884
 6548 1  -3.197562  41.926937 -1.674884
 6549 1  -3.180831  43.346839 -1.674884
 6550 1  -1.942796  44.042301 -1.674884
 6551 1  -4.435598  41.231475 -1.674884
 6552 1  -5.656903  41.955915 -1.674884
 6553 1  -5.640173  43.375816 -1.674884
 6554 1  -4.402137  44.071278 -1.674884
 6555 1  -6.894939  41.260453 -1.674884
 6556 1  -8.116245  41.984893 -1.674884
 6557 1  -8.099514  43.404794 -1.674884
 6558 1  -6.861479  44.100256 -1.674884
 6559 1  -9.354280  41.289431 -1.674884
 6560 1 -10.575586  42.013870 -1.674884
 6561 1 -10.558856  43.433772 -1.674884
 6562 1  -9.320820  44.129234 -1.674884
 6563 1 -11.813622  41.318408 -1.674884
 6564 1 -13.034927  42.042848 -1.674884
 6565 1 -13.018197  43.462749 -1.674884
 6566 1 -11.780161  44.158211 -1.674884
 6567 1 -14.272963  41.347386 -1.674884
 6568 1 -15.494269  42.071825 -1.674884
 6569 1 -15.477539  43.491727 -1.674884
 6570 1 -14.239503  44.187189 -1.674884
 6571 1 -16.732305  41.376363 -1.674884
 6572 1 -17.953610  42.100803 -1.674884
 6573 1 -17.936880  43.520704 -1.674884
 6574 1 -16.698844  44.216166 -1.674884
 6575 1 -19.191646  41.405341 -1.674884
 6576 1 -20.412952  42.129780 -1.674884
 6577 1 -20.396222  43.549682 -1.674884
 6578 1 -19.158186  44.245144 -1.674884
 6579 1 -21.650988  41.434319 -1.674884
 6580 1 -22.872293  42.158758 -1.674884
 6581 1 -22.855563  43.578659 -1.674884
 6582 1 -21.617527  44.274121 -1.674884
 6583 1 -24.110329  41.463296 -1.674884
 6584 1 -25.331635  42.187736 -1.674884
 6585 1 -25.314904  43.607637 -1.674884
 6586 1 -24.076869  44.303099 -1.674884
 6587 1 -26.569670  41.492274 -1.674884
 6588 1 -27.790976  42.216713 -1.674884
 6589 1 -27.774246  43.636615 -1.674884
 6590 1 -26.536210  44.332077 -1.674884
 6591 1 -29.029012  41.521251 -1.674884
 6592 1 -30.250317  42.245691 -1.674884
 6593 1 -30.233587  43.665592 -1.674884
 6594 1 -28.995551  44.361054 -1.674884
 6595 1 -31.488353  41.550229 -1.674884
 6596 1 -32.709659  42.274668 -1.674884
 6597 1 -32.692929  43.694570 -1.674884
 6598 1 -31.454893  44.390032 -1.674884
 6599 1 -33.947695  41.579206 -1.674884
 6600 1 -35.169000  42.303646 -1.674884
 6601 1 -35.152270  43.723547 -1.674884
 6602 1 -33.914234  44.419009 -1.674884
 6603 1 -36.407036  41.608184 -1.674884
 6604 1 -37.628342  42.332624 -1.674884
 6605 1 -37.611612  43.752525 -1.674884
 6606 1 -36.373576  44.447987 -1.674884
 6607 1 -38.866378  41.637162 -1.674884
 6608 1 -40.087683  42.361601 -1.674884
 6609 1 -40.070953  43.781503 -1.674884
 6610 1 -38.832917  44.476964 -1.674884
 6611 1 -41.325719  41.666139 -1.674884
 6612 1 -42.547025  42.390579 -1.674884
 6613 1 -42.530294  43.810480 -1.674884
 6614 1 -41.292259  44.505942 -1.674884
 6615 1 -43.785060  41.695117 -1.674884
 6616 1 -45.006366  42.419556 -1.674884
 6617 1 -44.989636  43.839458 -1.674884
 6618 1 -43.751600  44.534920 -1.674884
 6619 1 -46.244402  41.724094 -1.674884
 6620 1 -47.465708  42.448534 -1.674884
 6621 1 -47.448977  43.868435 -1.674884
 6622 1 -46.210941  44.563897 -1.674884
 6623 1 -48.703743  41.753072 -1.674884
 6624 1 -49.925049  42.477511 -1.674884
 6625 1 -49.908319  43.897413 -1.674884
 6626 1 -48.670283  44.592875 -1.674884
 6627 1 -51.163085  41.782050 -1.674884
 6628 1 -52.384390  42.506489 -1.674884
 6629 1 -52.367660  43.926390 -1.674884
 6630 1 -51.129624  44.621852 -1.674884
 6631 1 -53.622426  41.811027 -1.674884
 6632 1 -54.843732  42.535467 -1.674884
 6633 1 -54.827002  43.955368 -1.674884
 6634 1 -53.588966  44.650830 -1.674884
 6635 1 -56.081768  41.840005 -1.674884
 6636 1 -57.303073  42.564444 -1.674884
 6637 1 -57.286343  43.984346 -1.674884
 6638 1 -56.048307  44.679808 -1.674884
 6639 1 -58.541109  41.868982 -1.674884
 6640 1 -59.762415  42.593422 -1.674884
 6641 1 -59.745685  44.013323 -1.674884
 6642 1 -58.507649  44.708785 -1.674884
 6643 1 -61.000451  41.897960 -1.674884
 6644 1 -62.221756  42.622399 -1.674884
 6645 1 -62.205026  44.042301 -1.674884
 6646 1 -60.966990  44.737763 -1.674884
 6647 1 -63.459792  41.926937 -1.674884
 6648 1 -64.681098  42.651377 -1.674884
 6649 1 -64.664367  44.071278 -1.674884
 6650 1 -63.426332  44.766740 -1.674884
 6651 1 -65.919133  41.955915 -1.674884
 6652 1 -67.140439  42.680355 -1.674884
 6653 1 -67.123709  44.100256 -1.674884
 6654 1 -65.885673  44.795718 -1.674884
 6655 1 -68.378475  41.984893 -1.674884
 6656 1 -69.599780  42.709332 -1.674884
 6657 1 -69.583050  44.129234 -1.674884
 6658 1 -68.345014  44.824695 -1.674884
 6659 1 -70.837816  42.013870 -1.674884
 6660 1 -72.059122  42.738310 -1.674884
 6661 1 -72.042392  44.158211 -1.674884
 6662 1 -70.804356  44.853673 -1.674884
 6663 1 -73.297158  42.042848 -1.674884
 6664 1 -74.518463  42.767287 -1.674884
 6665 1 -74.501733  44.187189 -1.674884
 6666 1 -73.263697  44.882651 -1.674884
 6667 1 -75.756499  42.071825 -1.674884
 6668 1 -76.977805  42.796265 -1.674884
 6669 1 -76.961075  44.216166 -1.674884
 6670 1 -75.723039  44.911628 -1.674884
 6671 1 -78.215841  42.100803 -1.674884
 6672 1 -79.437146  42.825242 -1.674884
 6673 1 -79.420416  44.245144 -1.674884
 6674 1 -78.182380  44.940606 -1.674884
 6675 1 -80.675182  42.129780 -1.674884
 6676 1 -81.896488  42.854220 -1.674884
 6677 1 -81.879757  44.274121 -1.674884
 6678 1 -80.641722  44.969583 -1.674884
 6679 1 -83.134523  42.158758 -1.674884
 6680 1 -84.355829  42.883198 -1.674884
 6681 1 -84.339099  44.303099 -1.674884
 6682 1 -83.101063  44.998561 -1.674884
 6683 1 -85.593865  42.187736 -1.674884
 6684 1 -86.815171  42.912175 -1.674884
 6685 1 -86.798440  44.332077 -1.674884
 6686 1 -85.560404  45.027539 -1.674884
 6687 1 -88.053206  42.216713 -1.674884
 6688 1 -89.274512  42.941153 -1.674884
 6689 1 -89.257782  44.361054 -1.674884
 6690 1 -88.019746  45.056516 -1.674884
 6691 1  90.307604  45.085494 -1.674884
 6692 1  90.324334  46.505395 -1.674884
 6693 1  89.069568  44.390032 -1.674884
 6694 1  87.848262  45.114471 -1.674884
 6695 1  87.864992  46.534373 -1.674884
 6696 1  89.103028  47.229835 -1.674884
 6697 1  86.610226  44.419009 -1.674884
 6698 1  85.388921  45.143449 -1.674884
 6699 1  85.405651  46.563350 -1.674884
 6700 1  86.643687  47.258812 -1.674884
 6701 1  84.150885  44.447987 -1.674884
 6702 1  82.929579  45.172426 -1.674884
 6703 1  82.946309  46.592328 -1.674884
 6704 1  84.184345  47.287790 -1.674884
 6705 1  81.691543  44.476964 -1.674884
 6706 1  80.470238  45.201404 -1.674884
 6707 1  80.486968  46.621305 -1.674884
 6708 1  81.725004  47.316767 -1.674884
 6709 1  79.232202  44.505942 -1.674884
 6710 1  78.010896  45.230382 -1.674884
 6711 1  78.027627  46.650283 -1.674884
 6712 1  79.265662  47.345745 -1.674884
 6713 1  76.772861  44.534920 -1.674884
 6714 1  75.551555  45.259359 -1.674884
 6715 1  75.568285  46.679261 -1.674884
 6716 1  76.806321  47.374723 -1.674884
 6717 1  74.313519  44.563897 -1.674884
 6718 1  73.092213  45.288337 -1.674884
 6719 1  73.108944  46.708238 -1.674884
 6720 1  74.346980  47.403700 -1.674884
 6721 1  71.854178  44.592875 -1.674884
 6722 1  70.632872  45.317314 -1.674884
 6723 1  70.649602  46.737216 -1.674884
 6724 1  71.887638  47.432678 -1.674884
 6725 1  69.394836  44.621852 -1.674884
 6726 1  68.173531  45.346292 -1.674884
 6727 1  68.190261  46.766193 -1.674884
 6728 1  69.428297  47.461655 -1.674884
 6729 1  66.935495  44.650830 -1.674884
 6730 1  65.714189  45.375269 -1.674884
 6731 1  65.730919  46.795171 -1.674884
 6732 1  66.968955  47.490633 -1.674884
 6733 1  64.476153  44.679808 -1.674884
 6734 1  63.254848  45.404247 -1.674884
 6735 1  63.271578  46.824149 -1.674884
 6736 1  64.509614  47.519610 -1.674884
 6737 1  62.016812  44.708785 -1.674884
 6738 1  60.795506  45.433225 -1.674884
 6739 1  60.812237  46.853126 -1.674884
 6740 1  62.050272  47.548588 -1.674884
 6741 1  59.557470  44.737763 -1.674884
 6742 1  58.336165  45.462202 -1.674884
 6743 1  58.352895  46.882104 -1.674884
 6744 1  59.590931  47.577566 -1.674884
 6745 1  57.098129  44.766740 -1.674884
 6746 1  55.876823  45.491180 -1.674884
 6747 1  55.893554  46.911081 -1.674884
 6748 1  57.131589  47.606543 -1.674884
 6749 1  54.638788  44.795718 -1.674884
 6750 1  53.417482  45.520157 -1.674884
 6751 1  53.434212  46.940059 -1.674884
 6752 1  54.672248  47.635521 -1.674884
 6753 1  52.179446  44.824695 -1.674884
 6754 1  50.958141  45.549135 -1.674884
 6755 1  50.974871  46.969036 -1.674884
 6756 1  52.212907  47.664498 -1.674884
 6757 1  49.720105  44.853673 -1.674884
 6758 1  48.498799  45.578113 -1.674884
 6759 1  48.515529  46.998014 -1.674884
 6760 1  49.753565  47.693476 -1.674884
 6761 1  47.260763  44.882651 -1.674884
 6762 1  46.039458  45.607090 -1.674884
 6763 1  46.056188  47.026992 -1.674884
 6764 1  47.294224  47.722453 -1.674884
 6765 1  44.801422  44.911628 -1.674884
 6766 1  43.580116  45.636068 -1.674884
 6767 1  43.596846  47.055969 -1.674884
 6768 1  44.834882  47.751431 -1.674884
 6769 1  42.342080  44.940606 -1.674884
 6770 1  41.120775  45.665045 -1.674884
 6771 1  41.137505  47.084947 -1.674884
 6772 1  42.375541  47.780409 -1.674884
 6773 1  39.882739  44.969583 -1.674884
 6774 1  38.661433  45.694023 -1.674884
 6775 1  38.678164  47.113924 -1.674884
 6776 1  39.916199  47.809386 -1.674884
 6777 1  37.423398  44.998561 -1.674884
 6778 1  36.202092  45.723000 -1.674884
 6779 1  36.218822  47.142902 -1.674884
 6780 1  37.456858  47.838364 -1.674884
 6781 1  34.964056  45.027539 -1.674884
 6782 1  33.742750  45.751978 -1.674884
 6783 1  33.759481  47.171879 -1.674884
 6784 1  34.997517  47.867341 -1.674884
 6785 1  32.504715  45.056516 -1.674884
 6786 1  31.283409  45.780956 -1.674884
 6787 1  31.300139  47.200857 -1.674884
 6788 1  32.538175  47.896319 -1.674884
 6789 1  30.045373  45.085494 -1.674884
 6790 1  28.824068  45.809933 -1.674884
 6791 1  28.840798  47.229835 -1.674884
 6792 1  30.078834  47.925297 -1.674884
 6793 1  27.586032  45.114471 -1.674884
 6794 1  26.364726  45.838911 -1.674884
 6795 1  26.381456  47.258812 -1.674884
 6796 1  27.619492  47.954274 -1.674884
 6797 1  25.126690  45.143449 -1.674884
 6798 1  23.905385  45.867888 -1.674884
 6799 1  23.922115  47.287790 -1.674884
 6800 1  25.160151  47.983252 -1.674884
 6801 1  22.667349  45.172426 -1.674884
 6802 1  21.446043  45.896866 -1.674884
 6803 1  21.462774  47.316767 -1.674884
 6804 1  22.700809  48.012229 -1.674884
 6805 1  20.208007  45.201404 -1.674884
 6806 1  18.986702  45.925844 -1.674884
 6807 1  19.003432  47.345745 -1.674884
 6808 1  20.241468  48.041207 -1.674884
 6809 1  17.748666  45.230382 -1.674884
 6810 1  16.527360  45.954821 -1.674884
 6811 1  16.544091  47.374723 -1.674884
 6812 1  17.782126  48.070184 -1.674884
 6813 1  15.289325  45.259359 -1.674884
 6814 1  14.068019  45.983799 -1.674884
 6815 1  14.084749  47.403700 -1.674884
 6816 1  15.322785  48.099162 -1.674884
 6817 1  12.829983  45.288337 -1.674884
 6818 1  11.608678  46.012776 -1.674884
 6819 1  11.625408  47.432678 -1.674884
 6820 1  12.863444  48.128140 -1.674884
 6821 1  10.370642  45.317314 -1.674884
 6822 1   9.149336  46.041754 -1.674884
 6823 1   9.166066  47.461655 -1.674884
 6824 1  10.404102  48.157117 -1.674884
 6825 1   7.911300  45.346292 -1.674884
 6826 1   6.689995  46.070731 -1.674884
 6827 1   6.706725  47.490633 -1.674884
 6828 1   7.944761  48.186095 -1.674884
 6829 1   5.451959  45.375269 -1.674884
 6830 1   4.230653  46.099709 -1.674884
 6831 1   4.247383  47.519610 -1.674884
 6832 1   5.485419  48.215072 -1.674884
 6833 1   2.992617  45.404247 -1.674884
 6834 1   1.771312  46.128687 -1.674884
 6835 1   1.788042  47.548588 -1.674884
 6836 1   3.026078  48.244050 -1.674884
 6837 1   0.533276  45.433225 -1.674884
 6838 1  -0.688030  46.157664 -1.674884
 6839 1  -0.671299  47.577566 -1.674884
 6840 1   0.566736  48.273028 -1.674884
 6841 1  -1.926065  45.462202 -1.674884
 6842 1  -3.147371  46.186642 -1.674884
 6843 1  -3.130641  47.606543 -1.674884
 6844 1  -1.892605  48.302005 -1.674884
 6845 1  -4.385407  45.491180 -1.674884
 6846 1  -5.606712  46.215619 -1.674884
 6847 1  -5.589982  47.635521 -1.674884
 6848 1  -4.351946  48.330983 -1.674884
 6849 1  -6.844748  45.520157 -1.674884
 6850 1  -8.066054  46.244597 -1.674884
 6851 1  -8.049324  47.664498 -1.674884
 6852 1  -6.811288  48.359960 -1.674884
 6853 1  -9.304090  45.549135 -1.674884
 6854 1 -10.525395  46.273574 -1.674884
 6855 1 -10.508665  47.693476 -1.674884
 6856 1  -9.270629  48.388938 -1.674884
 6857 1 -11.763431  45.578113 -1.674884
 6858 1 -12.984737  46.302552 -1.674884
 6859 1 -12.968007  47.722453 -1.674884
 6860 1 -11.729971  48.417915 -1.674884
 6861 1 -14.222773  45.607090 -1.674884
 6862 1 -15.444078  46.331530 -1.674884
 6863 1 -15.427348  47.751431 -1.674884
 6864 1 -14.189312  48.446893 -1.674884
 6865 1 -16.682114  45.636068 -1.674884
 6866 1 -17.903420  46.360507 -1.674884
 6867 1 -17.886689  47.780409 -1.674884
 6868 1 -16.648654  48.475871 -1.674884
 6869 1 -19.141455  45.665045 -1.674884
 6870 1 -20.362761  46.389485 -1.674884
 6871 1 -20.346031  47.809386 -1.674884
 6872 1 -19.107995  48.504848 -1.674884
 6873 1 -21.600797  45.694023 -1.674884
 6874 1 -22.822103  46.418462 -1.674884
 6875 1 -22.805372  47.838364 -1.674884
 6876 1 -21.567336  48.533826 -1.674884
 6877 1 -24.060138  45.723000 -1.674884
 6878 1 -25.281444  46.447440 -1.674884
 6879 1 -25.264714  47.867341 -1.674884
 6880 1 -24.026678  48.562803 -1.674884
 6881 1 -26.519480  45.751978 -1.674884
 6882 1 -27.740785  46.476418 -1.674884
 6883 1 -27.724055  47.896319 -1.674884
 6884 1 -26.486019  48.591781 -1.674884
 6885 1 -28.978821  45.780956 -1.674884
 6886 1 -30.200127  46.505395 -1.674884
 6887 1 -30.183397  47.925297 -1.674884
 6888 1 -28.945361  48.620758 -1.674884
 6889 1 -31.438163  45.809933 -1.674884
 6890 1 -32.659468  46.534373 -1.674884
 6891 1 -32.642738  47.954274 -1.674884
 6892 1 -31.404702  48.649736 -1.674884
 6893 1 -33.897504  45.838911 -1.674884
 6894 1 -35.118810  46.563350 -1.674884
 6895 1 -35.102080  47.983252 -1.674884
 6896 1 -33.864044  48.678714 -1.674884
 6897 1 -36.356846  45.867888 -1.674884
 6898 1 -37.578151  46.592328 -1.674884
 6899 1 -37.561421  48.012229 -1.674884
 6900 1 -36.323385  48.707691 -1.674884
 6901 1 -38.816187  45.896866 -1.674884
 6902 1 -40.037493  46.621305 -1.674884
 6903 1 -40.020762  48.041207 -1.674884
 6904 1 -38.782727  48.736669 -1.674884
 6905 1 -41.275528  45.925844 -1.674884
 6906 1 -42.496834  46.650283 -1.674884
 6907 1 -42.480104  48.070184 -1.674884
 6908 1 -41.242068  48.765646 -1.674884
 6909 1 -43.734870  45.954821 -1.674884
 6910 1 -44.956175  46.679261 -1.674884
 6911 1 -44.939445  48.099162 -1.674884
 6912 1 -43.701409  48.794624 -1.674884
 6913 1 -46.194211  45.983799 -1.674884
 6914 1 -47.415517  46.708238 -1.674884
 6915 1 -47.398787  48.128140 -1.674884
 6916 1 -46.160751  48.823602 -1.674884
 6917 1 -48.653553  46.012776 -1.674884
 6918 1 -49.874858  46.737216 -1.674884
 6919 1 -49.858128  48.157117 -1.674884
 6920 1 -48.620092  48.852579 -1.674884
 6921 1 -51.112894  46.041754 -1.674884
 6922 1 -52.334200  46.766193 -1.674884
 6923 1 -52.317470  48.186095 -1.674884
 6924 1 -51.079434  48.881557 -1.674884
 6925 1 -53.572236  46.070731 -1.674884
 6926 1 -54.793541  46.795171 -1.674884
 6927 1 -54.776811  48.215072 -1.674884
 6928 1 -53.538775  48.910534 -1.674884
 6929 1 -56.031577  46.099709 -1.674884
 6930 1 -57.252883  46.824149 -1.674884
 6931 1 -57.236152  48.244050 -1.674884
 6932 1 -55.998117  48.939512 -1.674884
 6933 1 -58.490918  46.128687 -1.674884
 6934 1 -59.712224  46.853126 -1.674884
 6935 1 -59.695494  48.273028 -1.674884
 6936 1 -58.457458  48.968489 -1.674884
 6937 1 -60.950260  46.157664 -1.674884
 6938 1 -62.171566  46.882104 -1.674884
 6939 1 -62.154835  48.302005 -1.674884
 6940 1 -60.916799  48.997467 -1.674884
 6941 1 -63.409601  46.186642 -1.674884
 6942 1 -64.630907  46.911081 -1.674884
 6943 1 -64.614177  48.330983 -1.674884
 6944 1 -63.376141  49.026445 -1.674884
 6945 1 -65.868943  46.215619 -1.674884
 6946 1 -67.090248  46.940059 -1.674884
 6947 1 -67.073518  48.359960 -1.674884
 6948 1 -65.835482  49.055422 -1.674884
 6949 1 -68.328284  46.244597 -1.674884
 6950 1 -69.549590  46.969036 -1.674884
 6951 1 -69.532860  48.388938 -1.674884
 6952 1 -68.294824  49.084400 -1.674884
 6953 1 -70.787626  46.273574 -1.674884
 6954 1 -72.008931  46.998014 -1.674884
 6955 1 -71.992201  48.417915 -1.674884
 6956 1 -70.754165  49.113377 -1.674884
 6957 1 -73.246967  46.302552 -1.674884
 6958 1 -74.468273  47.026992 -1.674884
 6959 1 -74.451542  48.446893 -1.674884
 6960 1 -73.213507  49.142355 -1.674884
 6961 1 -75.706309  46.331530 -1.674884
 6962 1 -76.927614  47.055969 -1.674884
 6963 1 -76.910884  48.475871 -1.674884
 6964 1 -75.672848  49.171333 -1.674884
 6965 1 -78.165650  46.360507 -1.674884
 6966 1 -79.386956  47.084947 -1.674884
 6967 1 -79.370225  48.504848 -1.674884
 6968 1 -78.132190  49.200310 -1.674884
 6969 1 -80.624991  46.389485 -1.674884
 6970 1 -81.846297  47.113924 -1.674884
 6971 1 -81.829567  48.533826 -1.674884
 6972 1 -80.591531  49.229288 -1.674884
 6973 1 -83.084333  46.418462 -1.674884
 6974 1 -84.305638  47.142902 -1.674884
 6975 1 -84.288908  48.562803 -1.674884
 6976 1 -83.050872  49.258265 -1.674884
 6977 1 -85.543674  46.447440 -1.674884
 6978 1 -86.764980  47.171879 -1.674884
 6979 1 -86.748250  48.591781 -1.674884
 6980 1 -85.510214  49.287243 -1.674884
 6981 1 -88.003016  46.476418 -1.674884
 6982 1 -89.224321  47.200857 -1.674884
 6983 1 -89.207591  48.620758 -1.674884
 6984 1 -87.969555  49.316220 -1.674884
 6985 1  90.357794  49.345198 -1.674884
 6986 1  90.374524  50.765099 -1.674884
 6987 1  89.119758  48.649736 -1.674884
 6988 1  87.898453  49.374176 -1.674884
 6989 1  87.915183  50.794077 -1.674884
 6990 1  89.153219  51.489539 -1.674884
 6991 1  86.660417  48.678714 -1.674884
 6992 1  85.439111  49.403153 -1.674884
 6993 1  85.455842  50.823055 -1.674884
 6994 1  86.693877  51.518517 -1.674884
 6995 1  84.201075  48.707691 -1.674884
 6996 1  82.979770  49.432131 -1.674884
 6997 1  82.996500  50.852032 -1.674884
 6998 1  84.234536  51.547494 -1.674884
 6999 1  81.741734  48.736669 -1.674884
 7000 1  80.520428  49.461108 -1.674884
 7001 1  80.537159  50.881010 -1.674884
 7002 1  81.775194  51.576472 -1.674884
 7003 1  79.282393  48.765646 -1.674884
 7004 1  78.061087  49.490086 -1.674884
 7005 1  78.077817  50.909987 -1.674884
 7006 1  79.315853  51.605449 -1.674884
 7007 1  76.823051  48.794624 -1.674884
 7008 1  75.601746  49.519063 -1.674884
 7009 1  75.618476  50.938965 -1.674884
 7010 1  76.856512  51.634427 -1.674884
 7011 1  74.363710  48.823602 -1.674884
 7012 1  73.142404  49.548041 -1.674884
 7013 1  73.159134  50.967943 -1.674884
 7014 1  74.397170  51.663404 -1.674884
 7015 1  71.904368  48.852579 -1.674884
 7016 1  70.683063  49.577019 -1.674884
 7017 1  70.699793  50.996920 -1.674884
 7018 1  71.937829  51.692382 -1.674884
 7019 1  69.445027  48.881557 -1.674884
 7020 1  68.223721  49.605996 -1.674884
 7021 1  68.240451  51.025898 -1.674884
 7022 1  69.478487  51.721360 -1.674884
 7023 1  66.985685  48.910534 -1.674884
 7024 1  65.764380  49.634974 -1.674884
 7025 1  65.781110  51.054875 -1.674884
 7026 1  67.019146  51.750337 -1.674884
 7027 1  64.526344  48.939512 -1.674884
 7028 1  63.305038  49.663951 -1.674884
 7029 1  63.321769  51.083853 -1.674884
 7030 1  64.559804  51.779315 -1.674884
 7031 1  62.067003  48.968489 -1.674884
 7032 1  60.845697  49.692929 -1.674884
 7033 1  60.862427  51.112830 -1.674884
 7034 1  62.100463  51.808292 -1.674884
 7035 1  59.607661  48.997467 -1.674884
 7036 1  58.386356  49.721907 -1.674884
 7037 1  58.403086  51.141808 -1.674884
 7038 1  59.641122  51.837270 -1.674884
 7039 1  57.148320  49.026445 -1.674884
 7040 1  55.927014  49.750884 -1.674884
 7041 1  55.943744  51.170786 -1.674884
 7042 1  57.181780  51.866247 -1.674884
 7043 1  54.688978  49.055422 -1.674884
 7044 1  53.467673  49.779862 -1.674884
 7045 1  53.484403  51.199763 -1.674884
 7046 1  54.722439  51.895225 -1.674884
 7047 1  52.229637  49.084400 -1.674884
 7048 1  51.008331  49.808839 -1.674884
 7049 1  51.025061  51.228741 -1.674884
 7050 1  52.263097  51.924203 -1.674884
 7051 1  49.770295  49.113377 -1.674884
 7052 1  48.548990  49.837817 -1.674884
 7053 1  48.565720  51.257718 -1.674884
 7054 1  49.803756  51.953180 -1.674884
 7055 1  47.310954  49.142355 -1.674884
 7056 1  46.089648  49.866794 -1.674884
 7057 1  46.106379  51.286696 -1.674884
 7058 1  47.344414  51.982158 -1.674884
 7059 1  44.851612  49.171333 -1.674884
 7060 1  43.630307  49.895772 -1.674884
 7061 1  43.647037  51.315673 -1.674884
 7062 1  44.885073  52.011135 -1.674884
 7063 1  42.392271  49.200310 -1.674884
 7064 1  41.170965  49.924750 -1.674884
 7065 1  41.187696  51.344651 -1.674884
 7066 1  42.425731  52.040113 -1.674884
 7067 1  39.932930  49.229288 -1.674884
 7068 1  38.711624  49.953727 -1.674884
 7069 1  38.728354  51.373629 -1.674884
 7070 1  39.966390  52.069091 -1.674884
 7071 1  37.473588  49.258265 -1.674884
 7072 1  36.252283  49.982705 -1.674884
 7073 1  36.269013  51.402606 -1.674884
 7074 1  37.507049  52.098068 -1.674884
 7075 1  35.014247  49.287243 -1.674884
 7076 1  33.792941  50.011682 -1.674884
 7077 1  33.809671  51.431584 -1.674884
 7078 1  35.047707  52.127046 -1.674884
 7079 1  32.554905  49.316220 -1.674884
 7080 1  31.333600  50.040660 -1.674884
 7081 1  31.350330  51.460561 -1.674884
 7082 1  32.588366  52.156023 -1.674884
 7083 1  30.095564  49.345198 -1.674884
 7084 1  28.874258  50.069638 -1.674884
 7085 1  28.890988  51.489539 -1.674884
 7086 1  30.129024  52.185001 -1.674884
 7087 1  27.636222  49.374176 -1.674884
 7088 1  26.414917  50.098615 -1.674884
 7089 1  26.431647  51.518517 -1.674884
 7090 1  25.176881  49.403153 -1.674884
 7091 1  23.955575  50.127593 -1.674884
 7092 1  23.972306  51.547494 -1.674884
 7093 1  22.717540  49.432131 -1.674884
 7094 1  21.496234  50.156570 -1.674884
 7095 1  21.512964  51.576472 -1.674884
 7096 1  20.258198  49.461108 -1.674884
 7097 1  19.036893  50.185548 -1.674884
 7098 1  19.053623  51.605449 -1.674884
 7099 1  17.798857  49.490086 -1.674884
 7100 1  16.577551  50.214525 -1.674884
 7101 1  16.594281  51.634427 -1.674884
 7102 1  15.339515  49.519063 -1.674884
 7103 1  14.118210  50.243503 -1.674884
 7104 1  14.134940  51.663404 -1.674884
 7105 1  12.880174  49.548041 -1.674884
 7106 1  11.658868  50.272481 -1.674884
 7107 1  11.675598  51.692382 -1.674884
 7108 1  10.420832  49.577019 -1.674884
 7109 1   9.199527  50.301458 -1.674884
 7110 1   9.216257  51.721360 -1.674884
 7111 1   7.961491  49.605996 -1.674884
 7112 1   6.740185  50.330436 -1.674884
 7113 1   6.756916  51.750337 -1.674884
 7114 1   5.502150  49.634974 -1.674884
 7115 1   4.280844  50.359413 -1.674884
 7116 1   4.297574  51.779315 -1.674884
 7117 1   3.042808  49.663951 -1.674884
 7118 1   1.821502  50.388391 -1.674884
 7119 1   1.838233  51.808292 -1.674884
 7120 1   0.583467  49.692929 -1.674884
 7121 1  -0.637839  50.417368 -1.674884
 7122 1  -0.621109  51.837270 -1.674884
 7123 1  -1.875875  49.721907 -1.674884
 7124 1  -3.097180  50.446346 -1.674884
 7125 1  -3.080450  51.866247 -1.674884
 7126 1  -4.335216  49.750884 -1.674884
 7127 1  -5.556522  50.475324 -1.674884
 7128 1  -5.539792  51.895225 -1.674884
 7129 1  -6.794558  49.779862 -1.674884
 7130 1  -8.015863  50.504301 -1.674884
 7131 1  -7.999133  51.924203 -1.674884
 7132 1  -9.253899  49.808839 -1.674884
 7133 1 -10.475205  50.533279 -1.674884
 7134 1 -10.458474  51.953180 -1.674884
 7135 1 -11.713241  49.837817 -1.674884
 7136 1 -12.934546  50.562256 -1.674884
 7137 1 -12.917816  51.982158 -1.674884
 7138 1 -14.172582  49.866794 -1.674884
 7139 1 -15.393888  50.591234 -1.674884
 7140 1 -15.377157  52.011135 -1.674884
 7141 1 -16.631923  49.895772 -1.674884
 7142 1 -17.853229  50.620212 -1.674884
 7143 1 -17.836499  52.040113 -1.674884
 7144 1 -19.091265  49.924750 -1.674884
 7145 1 -20.312570  50.649189 -1.674884
 7146 1 -20.295840  52.069091 -1.674884
 7147 1 -21.550606  49.953727 -1.674884
 7148 1 -22.771912  50.678167 -1.674884
 7149 1 -22.755182  52.098068 -1.674884
 7150 1 -24.009948  49.982705 -1.674884
 7151 1 -25.231253  50.707144 -1.674884
 7152 1 -25.214523  52.127046 -1.674884
 7153 1 -26.469289  50.011682 -1.674884
 7154 1 -27.690595  50.736122 -1.674884
 7155 1 -27.673865  52.156023 -1.674884
 7156 1 -28.928631  50.040660 -1.674884
 7157 1 -30.149936  50.765099 -1.674884
 7158 1 -30.133206  52.185001 -1.674884
 7159 1 -31.387972  50.069638 -1.674884
 7160 1 -32.609278  50.794077 -1.674884
 7161 1 -33.847313  50.098615 -1.674884
 7162 1 -35.068619  50.823055 -1.674884
 7163 1 -36.306655  50.127593 -1.674884
 7164 1 -37.527961  50.852032 -1.674884
 7165 1 -38.765996  50.156570 -1.674884
 7166 1 -39.987302  50.881010 -1.674884
 7167 1 -41.225338  50.185548 -1.674884
 7168 1 -42.446643  50.909987 -1.674884
 7169 1 -43.684679  50.214525 -1.674884
 7170 1 -44.905985  50.938965 -1.674884
 7171 1 -46.144021  50.243503 -1.674884
 7172 1 -47.365326  50.967943 -1.674884
 7173 1 -48.603362  50.272481 -1.674884
 7174 1 -49.824668  50.996920 -1.674884
 7175 1 -51.062704  50.301458 -1.674884
 7176 1 -52.284009  51.025898 -1.674884
 7177 1 -53.522045  50.330436 -1.674884
 7178 1 -54.743351  51.054875 -1.674884
 7179 1 -55.981386  50.359413 -1.674884
 7180 1 -57.202692  51.083853 -1.674884
 7181 1 -58.440728  50.388391 -1.674884
 7182 1 -59.662033  51.112830 -1.674884
 7183 1 -60.900069  50.417368 -1.674884
 7184 1 -62.121375  51.141808 -1.674884
 7185 1 -63.359411  50.446346 -1.674884
 7186 1 -64.580716  51.170786 -1.674884
 7187 1 -65.818752  50.475324 -1.674884
 7188 1 -67.040058  51.199763 -1.674884
 7189 1 -68.278094  50.504301 -1.674884
 7190 1 -69.499399  51.228741 -1.674884
 7191 1 -70.737435  50.533279 -1.674884
 7192 1 -71.958741  51.257718 -1.674884
 7193 1 -73.196776  50.562256 -1.674884
 7194 1 -74.418082  51.286696 -1.674884
 7195 1 -75.656118  50.591234 -1.674884
 7196 1 -76.877423  51.315673 -1.674884
 7197 1 -78.115459  50.620212 -1.674884
 7198 1 -79.336765  51.344651 -1.674884
 7199 1 -80.574801  50.649189 -1.674884
 7200 1 -81.796106  51.373629 -1.674884
 7201 1 -83.034142  50.678167 -1.674884
 7202 1 -84.255448  51.402606 -1.674884
 7203 1 -85.493484  50.707144 -1.674884
 7204 1 -86.714789  51.431584 -1.674884
 7205 1 -87.952825  50.736122 -1.674884
 7206 1 -89.174131  51.460561 -1.674884
 7207 1  90.374524 -50.772342  1.675116
 7208 1  90.357794 -49.352441  1.675116
 7209 1  89.153219 -51.496782  1.675116
 7210 1  87.915183 -50.801320  1.675116
 7211 1  87.898453 -49.381418  1.675116
 7212 1  89.119758 -48.656979  1.675116
 7213 1  86.693877 -51.525759  1.675116
 7214 1  85.455842 -50.830297  1.675116
 7215 1  85.439111 -49.410396  1.675116
 7216 1  86.660417 -48.685957  1.675116
 7217 1  84.234536 -51.554737  1.675116
 7218 1  82.996500 -50.859275  1.675116
 7219 1  82.979770 -49.439374  1.675116
 7220 1  84.201075 -48.714934  1.675116
 7221 1  81.775194 -51.583715  1.675116
 7222 1  80.537159 -50.888253  1.675116
 7223 1  80.520428 -49.468351  1.675116
 7224 1  81.741734 -48.743912  1.675116
 7225 1  79.315853 -51.612692  1.675116
 7226 1  78.077817 -50.917230  1.675116
 7227 1  78.061087 -49.497329  1.675116
 7228 1  79.282393 -48.772889  1.675116
 7229 1  76.856512 -51.641670  1.675116
 7230 1  75.618476 -50.946208  1.675116
 7231 1  75.601746 -49.526306  1.675116
 7232 1  76.823051 -48.801867  1.675116
 7233 1  74.397170 -51.670647  1.675116
 7234 1  73.159134 -50.975185  1.675116
 7235 1  73.142404 -49.555284  1.675116
 7236 1  74.363710 -48.830844  1.675116
 7237 1  71.937829 -51.699625  1.675116
 7238 1  70.699793 -51.004163  1.675116
 7239 1  70.683063 -49.584262  1.675116
 7240 1  71.904368 -48.859822  1.675116
 7241 1  69.478487 -51.728602  1.675116
 7242 1  68.240451 -51.033141  1.675116
 7243 1  68.223721 -49.613239  1.675116
 7244 1  69.445027 -48.888800  1.675116
 7245 1  67.019146 -51.757580  1.675116
 7246 1  65.781110 -51.062118  1.675116
 7247 1  65.764380 -49.642217  1.675116
 7248 1  66.985685 -48.917777  1.675116
 7249 1  64.559804 -51.786558  1.675116
 7250 1  63.321769 -51.091096  1.675116
 7251 1  63.305038 -49.671194  1.675116
 7252 1  64.526344 -48.946755  1.675116
 7253 1  62.100463 -51.815535  1.675116
 7254 1  60.862427 -51.120073  1.675116
 7255 1  60.845697 -49.700172  1.675116
 7256 1  62.067003 -48.975732  1.675116
 7257 1  59.641122 -51.844513  1.675116
 7258 1  58.403086 -51.149051  1.675116
 7259 1  58.386356 -49.729149  1.675116
 7260 1  59.607661 -49.004710  1.675116
 7261 1  57.181780 -51.873490  1.675116
 7262 1  55.943744 -51.178028  1.675116
 7263 1  55.927014 -49.758127  1.675116
 7264 1  57.148320 -49.033688  1.675116
 7265 1  54.722439 -51.902468  1.675116
 7266 1  53.484403 -51.207006  1.675116
 7267 1  53.467673 -49.787105  1.675116
 7268 1  54.688978 -49.062665  1.675116
 7269 1  52.263097 -51.931446  1.675116
 7270 1  51.025061 -51.235984  1.675116
 7271 1  51.008331 -49.816082  1.675116
 7272 1  52.229637 -49.091643  1.675116
 7273 1  49.803756 -51.960423  1.675116
 7274 1  48.565720 -51.264961  1.675116
 7275 1  48.548990 -49.845060  1.675116
 7276 1  49.770295 -49.120620  1.675116
 7277 1  47.344414 -51.989401  1.675116
 7278 1  46.106379 -51.293939  1.675116
 7279 1  46.089648 -49.874037  1.675116
 7280 1  47.310954 -49.149598  1.675116
 7281 1  44.885073 -52.018378  1.675116
 7282 1  43.647037 -51.322916  1.675116
 7283 1  43.630307 -49.903015  1.675116
 7284 1  44.851612 -49.178575  1.675116
 7285 1  42.425731 -52.047356  1.675116
 7286 1  41.187696 -51.351894  1.675116
 7287 1  41.170965 -49.931992  1.675116
 7288 1  42.392271 -49.207553  1.675116
 7289 1  39.966390 -52.076333  1.675116
 7290 1  38.728354 -51.380872  1.675116
 7291 1  38.711624 -49.960970  1.675116
 7292 1  39.932930 -49.236531  1.675116
 7293 1  37.507049 -52.105311  1.675116
 7294 1  36.269013 -51.409849  1.675116
 7295 1  36.252283 -49.989948  1.675116
 7296 1  37.473588 -49.265508  1.675116
 7297 1  35.047707 -52.134289  1.675116
 7298 1  33.809671 -51.438827  1.675116
 7299 1  33.792941 -50.018925  1.675116
 7300 1  35.014247 -49.294486  1.675116
 7301 1  32.588366 -52.163266  1.675116
 7302 1  31.350330 -51.467804  1.675116
 7303 1  31.333600 -50.047903  1.675116
 7304 1  32.554905 -49.323463  1.675116
 7305 1  30.129024 -52.192244  1.675116
 7306 1  28.890988 -51.496782  1.675116
 7307 1  28.874258 -50.076880  1.675116
 7308 1  30.095564 -49.352441  1.675116
 7309 1  26.431647 -51.525759  1.675116
 7310 1  26.414917 -50.105858  1.675116
 7311 1  27.636222 -49.381418  1.675116
 7312 1  23.972306 -51.554737  1.675116
 7313 1  23.955575 -50.134836  1.675116
 7314 1  25.176881 -49.410396  1.675116
 7315 1  21.512964 -51.583715  1.675116
 7316 1  21.496234 -50.163813  1.675116
 7317 1  22.717540 -49.439374  1.675116
 7318 1  19.053623 -51.612692  1.675116
 7319 1  19.036893 -50.192791  1.675116
 7320 1  20.258198 -49.468351  1.675116
 7321 1  16.594281 -51.641670  1.675116
 7322 1  16.577551 -50.221768  1.675116
 7323 1  17.798857 -49.497329  1.675116
 7324 1  14.134940 -51.670647  1.675116
 7325 1  14.118210 -50.250746  1.675116
 7326 1  15.339515 -49.526306  1.675116
 7327 1  11.675598 -51.699625  1.675116
 7328 1  11.658868 -50.279723  1.675116
 7329 1  12.880174 -49.555284  1.675116
 7330 1   9.216257 -51.728602  1.675116
 7331 1   9.199527 -50.308701  1.675116
 7332 1  10.420832 -49.584262  1.675116
 7333 1   6.756916 -51.757580  1.675116
 7334 1   6.740185 -50.337679  1.675116
 7335 1   7.961491 -49.613239  1.675116
 7336 1   4.297574 -51.786558  1.675116
 7337 1   4.280844 -50.366656  1.675116
 7338 1   5.502150 -49.642217  1.675116
 7339 1   1.838233 -51.815535  1.675116
 7340 1   1.821502 -50.395634  1.675116
 7341 1   3.042808 -49.671194  1.675116
 7342 1  -0.621109 -51.844513  1.675116
 7343 1  -0.637839 -50.424611  1.675116
 7344 1   0.583467 -49.700172  1.675116
 7345 1  -3.080450 -51.873490  1.675116
 7346 1  -3.097180 -50.453589  1.675116
 7347 1  -1.875875 -49.729149  1.675116
 7348 1  -5.539792 -51.902468  1.675116
 7349 1  -5.556522 -50.482567  1.675116
 7350 1  -4.335216 -49.758127  1.675116
 7351 1  -7.999133 -51.931446  1.675116
 7352 1  -8.015863 -50.511544  1.675116
 7353 1  -6.794558 -49.787105  1.675116
 7354 1 -10.458474 -51.960423  1.675116
 7355 1 -10.475205 -50.540522  1.675116
 7356 1  -9.253899 -49.816082  1.675116
 7357 1 -12.917816 -51.989401  1.675116
 7358 1 -12.934546 -50.569499  1.675116
 7359 1 -11.713241 -49.845060  1.675116
 7360 1 -15.377157 -52.018378  1.675116
 7361 1 -15.393888 -50.598477  1.675116
 7362 1 -14.172582 -49.874037  1.675116
 7363 1 -17.836499 -52.047356  1.675116
 7364 1 -17.853229 -50.627454  1.675116
 7365 1 -16.631923 -49.903015  1.675116
 7366 1 -20.295840 -52.076333  1.675116
 7367 1 -20.312570 -50.656432  1.675116
 7368 1 -19.091265 -49.931992  1.675116
 7369 1 -22.755182 -52.105311  1.675116
 7370 1 -22.771912 -50.685410  1.675116
 7371 1 -21.550606 -49.960970  1.675116
 7372 1 -25.214523 -52.134289  1.675116
 7373 1 -25.231253 -50.714387  1.675116
 7374 1 -24.009948 -49.989948  1.675116
 7375 1 -27.673865 -52.163266  1.675116
 7376 1 -27.690595 -50.743365  1.675116
 7377 1 -26.469289 -50.018925  1.675116
 7378 1 -30.149936 -50.772342  1.675116
 7379 1 -28.928631 -50.047903  1.675116
 7380 1 -32.609278 -50.801320  1.675116
 7381 1 -31.387972 -50.076880  1.675116
 7382 1 -35.068619 -50.830297  1.675116
 7383 1 -33.847313 -50.105858  1.675116
 7384 1 -37.527961 -50.859275  1.675116
 7385 1 -36.306655 -50.134836  1.675116
 7386 1 -39.987302 -50.888253  1.675116
 7387 1 -38.765996 -50.163813  1.675116
 7388 1 -42.446643 -50.917230  1.675116
 7389 1 -41.225338 -50.192791  1.675116
 7390 1 -44.905985 -50.946208  1.675116
 7391 1 -43.684679 -50.221768  1.675116
 7392 1 -47.365326 -50.975185  1.675116
 7393 1 -46.144021 -50.250746  1.675116
 7394 1 -49.824668 -51.004163  1.675116
 7395 1 -48.603362 -50.279723  1.675116
 7396 1 -52.284009 -51.033141  1.675116
 7397 1 -51.062704 -50.308701  1.675116
 7398 1 -54.743351 -51.062118  1.675116
 7399 1 -53.522045 -50.337679  1.675116
 7400 1 -57.202692 -51.091096  1.675116
 7401 1 -55.981386 -50.366656  1.675116
 7402 1 -59.662033 -51.120073  1.675116
 7403 1 -58.440728 -50.395634  1.675116
 7404 1 -62.121375 -51.149051  1.675116
 7405 1 -60.900069 -50.424611  1.675116
 7406 1 -64.580716 -51.178028  1.675116
 7407 1 -63.359411 -50.453589  1.675116
 7408 1 -67.040058 -51.207006  1.675116
 7409 1 -65.818752 -50.482567  1.675116
 7410 1 -69.499399 -51.235984  1.675116
 7411 1 -68.278094 -50.511544  1.675116
 7412 1 -71.958741 -51.264961  1.675116
 7413 1 -70.737435 -50.540522  1.675116
 7414 1 -74.418082 -51.293939  1.675116
 7415 1 -73.196776 -50.569499  1.675116
 7416 1 -76.877423 -51.322916  1.675116
 7417 1 -75.656118 -50.598477  1.675116
 7418 1 -79.336765 -51.351894  1.675116
 7419 1 -78.115459 -50.627454  1.675116
 7420 1 -81.796106 -51.380872  1.675116
 7421 1 -80.574801 -50.656432  1.675116
 7422 1 -84.255448 -51.409849  1.675116
 7423 1 -83.034142 -50.685410  1.675116
 7424 1 -86.714789 -51.438827  1.675116
 7425 1 -85.493484 -50.714387  1.675116
 7426 1 -89.174131 -51.467804  1.675116
 7427 1 -87.952825 -50.743365  1.675116
 7428 1  90.324334 -46.512638  1.675116
 7429 1  90.307604 -45.092737  1.675116
 7430 1  89.103028 -47.237078  1.675116
 7431 1  87.864992 -46.541616  1.675116
 7432 1  87.848262 -45.121714  1.675116
 7433 1  89.069568 -44.397275  1.675116
 7434 1  86.643687 -47.266055  1.675116
 7435 1  85.405651 -46.570593  1.675116
 7436 1  85.388921 -45.150692  1.675116
 7437 1  86.610226 -44.426252  1.675116
 7438 1  84.184345 -47.295033  1.675116
 7439 1  82.946309 -46.599571  1.675116
 7440 1  82.929579 -45.179669  1.675116
 7441 1  84.150885 -44.455230  1.675116
 7442 1  81.725004 -47.324010  1.675116
 7443 1  80.486968 -46.628548  1.675116
 7444 1  80.470238 -45.208647  1.675116
 7445 1  81.691543 -44.484207  1.675116
 7446 1  79.265662 -47.352988  1.675116
 7447 1  78.027627 -46.657526  1.675116
 7448 1  78.010896 -45.237624  1.675116
 7449 1  79.232202 -44.513185  1.675116
 7450 1  76.806321 -47.381965  1.675116
 7451 1  75.568285 -46.686503  1.675116
 7452 1  75.551555 -45.266602  1.675116
 7453 1  76.772861 -44.542163  1.675116
 7454 1  74.346980 -47.410943  1.675116
 7455 1  73.108944 -46.715481  1.675116
 7456 1  73.092213 -45.295580  1.675116
 7457 1  74.313519 -44.571140  1.675116
 7458 1  71.887638 -47.439921  1.675116
 7459 1  70.649602 -46.744459  1.675116
 7460 1  70.632872 -45.324557  1.675116
 7461 1  71.854178 -44.600118  1.675116
 7462 1  69.428297 -47.468898  1.675116
 7463 1  68.190261 -46.773436  1.675116
 7464 1  68.173531 -45.353535  1.675116
 7465 1  69.394836 -44.629095  1.675116
 7466 1  66.968955 -47.497876  1.675116
 7467 1  65.730919 -46.802414  1.675116
 7468 1  65.714189 -45.382512  1.675116
 7469 1  66.935495 -44.658073  1.675116
 7470 1  64.509614 -47.526853  1.675116
 7471 1  63.271578 -46.831391  1.675116
 7472 1  63.254848 -45.411490  1.675116
 7473 1  64.476153 -44.687050  1.675116
 7474 1  62.050272 -47.555831  1.675116
 7475 1  60.812237 -46.860369  1.675116
 7476 1  60.795506 -45.440468  1.675116
 7477 1  62.016812 -44.716028  1.675116
 7478 1  59.590931 -47.584808  1.675116
 7479 1  58.352895 -46.889347  1.675116
 7480 1  58.336165 -45.469445  1.675116
 7481 1  59.557470 -44.745006  1.675116
 7482 1  57.131589 -47.613786  1.675116
 7483 1  55.893554 -46.918324  1.675116
 7484 1  55.876823 -45.498423  1.675116
 7485 1  57.098129 -44.773983  1.675116
 7486 1  54.672248 -47.642764  1.675116
 7487 1  53.434212 -46.947302  1.675116
 7488 1  53.417482 -45.527400  1.675116
 7489 1  54.638788 -44.802961  1.675116
 7490 1  52.212907 -47.671741  1.675116
 7491 1  50.974871 -46.976279  1.675116
 7492 1  50.958141 -45.556378  1.675116
 7493 1  52.179446 -44.831938  1.675116
 7494 1  49.753565 -47.700719  1.675116
 7495 1  48.515529 -47.005257  1.675116
 7496 1  48.498799 -45.585355  1.675116
 7497 1  49.720105 -44.860916  1.675116
 7498 1  47.294224 -47.729696  1.675116
 7499 1  46.056188 -47.034234  1.675116
 7500 1  46.039458 -45.614333  1.675116
 7501 1  47.260763 -44.889894  1.675116
 7502 1  44.834882 -47.758674  1.675116
 7503 1  43.596846 -47.063212  1.675116
 7504 1  43.580116 -45.643311  1.675116
 7505 1  44.801422 -44.918871  1.675116
 7506 1  42.375541 -47.787652  1.675116
 7507 1  41.137505 -47.092190  1.675116
 7508 1  41.120775 -45.672288  1.675116
 7509 1  42.342080 -44.947849  1.675116
 7510 1  39.916199 -47.816629  1.675116
 7511 1  38.678164 -47.121167  1.675116
 7512 1  38.661433 -45.701266  1.675116
 7513 1  39.882739 -44.976826  1.675116
 7514 1  37.456858 -47.845607  1.675116
 7515 1  36.218822 -47.150145  1.675116
 7516 1  36.202092 -45.730243  1.675116
 7517 1  37.423398 -45.005804  1.675116
 7518 1  34.997517 -47.874584  1.675116
 7519 1  33.759481 -47.179122  1.675116
 7520 1  33.742750 -45.759221  1.675116
 7521 1  34.964056 -45.034781  1.675116
 7522 1  32.538175 -47.903562  1.675116
 7523 1  31.300139 -47.208100  1.675116
 7524 1  31.283409 -45.788198  1.675116
 7525 1  32.504715 -45.063759  1.675116
 7526 1  30.078834 -47.932539  1.675116
 7527 1  28.840798 -47.237078  1.675116
 7528 1  28.824068 -45.817176  1.675116
 7529 1  30.045373 -45.092737  1.675116
 7530 1  27.619492 -47.961517  1.675116
 7531 1  26.381456 -47.266055  1.675116
 7532 1  26.364726 -45.846154  1.675116
 7533 1  27.586032 -45.121714  1.675116
 7534 1  25.160151 -47.990495  1.675116
 7535 1  23.922115 -47.295033  1.675116
 7536 1  23.905385 -45.875131  1.675116
 7537 1  25.126690 -45.150692  1.675116
 7538 1  22.700809 -48.019472  1.675116
 7539 1  21.462774 -47.324010  1.675116
 7540 1  21.446043 -45.904109  1.675116
 7541 1  22.667349 -45.179669  1.675116
 7542 1  20.241468 -48.048450  1.675116
 7543 1  19.003432 -47.352988  1.675116
 7544 1  18.986702 -45.933086  1.675116
 7545 1  20.208007 -45.208647  1.675116
 7546 1  17.782126 -48.077427  1.675116
 7547 1  16.544091 -47.381965  1.675116
 7548 1  16.527360 -45.962064  1.675116
 7549 1  17.748666 -45.237624  1.675116
 7550 1  15.322785 -48.106405  1.675116
 7551 1  14.084749 -47.410943  1.675116
 7552 1  14.068019 -45.991042  1.675116
 7553 1  15.289325 -45.266602  1.675116
 7554 1  12.863444 -48.135383  1.675116
 7555 1  11.625408 -47.439921  1.675116
 7556 1  11.608678 -46.020019  1.675116
 7557 1  12.829983 -45.295580  1.675116
 7558 1  10.404102 -48.164360  1.675116
 7559 1   9.166066 -47.468898  1.675116
 7560 1   9.149336 -46.048997  1.675116
 7561 1  10.370642 -45.324557  1.675116
 7562 1   7.944761 -48.193338  1.675116
 7563 1   6.706725 -47.497876  1.675116
 7564 1   6.689995 -46.077974  1.675116
 7565 1   7.911300 -45.353535  1.675116
 7566 1   5.485419 -48.222315  1.675116
 7567 1   4.247383 -47.526853  1.675116
 7568 1   4.230653 -46.106952  1.675116
 7569 1   5.451959 -45.382512  1.675116
 7570 1   3.026078 -48.251293  1.675116
 7571 1   1.788042 -47.555831  1.675116
 7572 1   1.771312 -46.135929  1.675116
 7573 1   2.992617 -45.411490  1.675116
 7574 1   0.566736 -48.280270  1.675116
 7575 1  -0.671299 -47.584808  1.675116
 7576 1  -0.688030 -46.164907  1.675116
 7577 1   0.533276 -45.440468  1.675116
 7578 1  -1.892605 -48.309248  1.675116
 7579 1  -3.130641 -47.613786  1.675116
 7580 1  -3.147371 -46.193885  1.675116
 7581 1  -1.926065 -45.469445  1.675116
 7582 1  -4.351946 -48.338226  1.675116
 7583 1  -5.589982 -47.642764  1.675116
 7584 1  -5.606712 -46.222862  1.675116
 7585 1  -4.385407 -45.498423  1.675116
 7586 1  -6.811288 -48.367203  1.675116
 7587 1  -8.049324 -47.671741  1.675116
 7588 1  -8.066054 -46.251840  1.675116
 7589 1  -6.844748 -45.527400  1.675116
 7590 1  -9.270629 -48.396181  1.675116
 7591 1 -10.508665 -47.700719  1.675116
 7592 1 -10.525395 -46.280817  1.675116
 7593 1  -9.304090 -45.556378  1.675116
 7594 1 -11.729971 -48.425158  1.675116
 7595 1 -12.968007 -47.729696  1.675116
 7596 1 -12.984737 -46.309795  1.675116
 7597 1 -11.763431 -45.585355  1.675116
 7598 1 -14.189312 -48.454136  1.675116
 7599 1 -15.427348 -47.758674  1.675116
 7600 1 -15.444078 -46.338773  1.675116
 7601 1 -14.222773 -45.614333  1.675116
 7602 1 -16.648654 -48.483113  1.675116
 7603 1 -17.886689 -47.787652  1.675116
 7604 1 -17.903420 -46.367750  1.675116
 7605 1 -16.682114 -45.643311  1.675116
 7606 1 -19.107995 -48.512091  1.675116
 7607 1 -20.346031 -47.816629  1.675116
 7608 1 -20.362761 -46.396728  1.675116
 7609 1 -19.141455 -45.672288  1.675116
 7610 1 -21.567336 -48.541069  1.675116
 7611 1 -22.805372 -47.845607  1.675116
 7612 1 -22.822103 -46.425705  1.675116
 7613 1 -21.600797 -45.701266  1.675116
 7614 1 -24.026678 -48.570046  1.675116
 7615 1 -25.264714 -47.874584  1.675116
 7616 1 -25.281444 -46.454683  1.675116
 7617 1 -24.060138 -45.730243  1.675116
 7618 1 -26.486019 -48.599024  1.675116
 7619 1 -27.724055 -47.903562  1.675116
 7620 1 -27.740785 -46.483660  1.675116
 7621 1 -26.519480 -45.759221  1.675116
 7622 1 -28.945361 -48.628001  1.675116
 7623 1 -30.183397 -47.932539  1.675116
 7624 1 -30.200127 -46.512638  1.675116
 7625 1 -28.978821 -45.788198  1.675116
 7626 1 -31.404702 -48.656979  1.675116
 7627 1 -32.642738 -47.961517  1.675116
 7628 1 -32.659468 -46.541616  1.675116
 7629 1 -31.438163 -45.817176  1.675116
 7630 1 -33.864044 -48.685957  1.675116
 7631 1 -35.102080 -47.990495  1.675116
 7632 1 -35.118810 -46.570593  1.675116
 7633 1 -33.897504 -45.846154  1.675116
 7634 1 -36.323385 -48.714934  1.675116
 7635 1 -37.561421 -48.019472  1.675116
 7636 1 -37.578151 -46.599571  1.675116
 7637 1 -36.356846 -45.875131  1.675116
 7638 1 -38.782727 -48.743912  1.675116
 7639 1 -40.020762 -48.048450  1.675116
 7640 1 -40.037493 -46.628548  1.675116
 7641 1 -38.816187 -45.904109  1.675116
 7642 1 -41.242068 -48.772889  1.675116
 7643 1 -42.480104 -48.077427  1.675116
 7644 1 -42.496834 -46.657526  1.675116
 7645 1 -41.275528 -45.933086  1.675116
 7646 1 -43.701409 -48.801867  1.675116
 7647 1 -44.939445 -48.106405  1.675116
 7648 1 -44.956175 -46.686503  1.675116
 7649 1 -43.734870 -45.962064  1.675116
 7650 1 -46.160751 -48.830844  1.675116
 7651 1 -47.398787 -48.135383  1.675116
 7652 1 -47.415517 -46.715481  1.675116
 7653 1 -46.194211 -45.991042  1.675116
 7654 1 -48.620092 -48.859822  1.675116
 7655 1 -49.858128 -48.164360  1.675116
 7656 1 -49.874858 -46.744459  1.675116
 7657 1 -48.653553 -46.020019  1.675116
 7658 1 -51.079434 -48.888800  1.675116
 7659 1 -52.317470 -48.193338  1.675116
 7660 1 -52.334200 -46.773436  1.675116
 7661 1 -51.112894 -46.048997  1.675116
 7662 1 -53.538775 -48.917777  1.675116
 7663 1 -54.776811 -48.222315  1.675116
 7664 1 -54.793541 -46.802414  1.675116
 7665 1 -53.572236 -46.077974  1.675116
 7666 1 -55.998117 -48.946755  1.675116
 7667 1 -57.236152 -48.251293  1.675116
 7668 1 -57.252883 -46.831391  1.675116
 7669 1 -56.031577 -46.106952  1.675116
 7670 1 -58.457458 -48.975732  1.675116
 7671 1 -59.695494 -48.280270  1.675116
 7672 1 -59.712224 -46.860369  1.675116
 7673 1 -58.490918 -46.135929  1.675116
 7674 1 -60.916799 -49.004710  1.675116
 7675 1 -62.154835 -48.309248  1.675116
 7676 1 -62.171566 -46.889347  1.675116
 7677 1 -60.950260 -46.164907  1.675116
 7678 1 -63.376141 -49.033688  1.675116
 7679 1 -64.614177 -48.338226  1.675116
 7680 1 -64.630907 -46.918324  1.675116
 7681 1 -63.409601 -46.193885  1.675116
 7682 1 -65.835482 -49.062665  1.675116
 7683 1 -67.073518 -48.367203  1.675116
 7684 1 -67.090248 -46.947302  1.675116
 7685 1 -65.868943 -46.222862  1.675116
 7686 1 -68.294824 -49.091643  1.675116
 7687 1 -69.532860 -48.396181  1.675116
 7688 1 -69.549590 -46.976279  1.675116
 7689 1 -68.328284 -46.251840  1.675116
 7690 1 -70.754165 -49.120620  1.675116
 7691 1 -71.992201 -48.425158  1.675116
 7692 1 -72.008931 -47.005257  1.675116
 7693 1 -70.787626 -46.280817  1.675116
 7694 1 -73.213507 -49.149598  1.675116
 7695 1 -74.451542 -48.454136  1.675116
 7696 1 -74.468273 -47.034234  1.675116
 7697 1 -73.246967 -46.309795  1.675116
 7698 1 -75.672848 -49.178575  1.675116
 7699 1 -76.910884 -48.483113  1.675116
 7700 1 -76.927614 -47.063212  1.675116
 7701 1 -75.706309 -46.338773  1.675116
 7702 1 -78.132190 -49.207553  1.675116
 7703 1 -79.370225 -48.512091  1.675116
 7704 1 -79.386956 -47.092190  1.675116
 7705 1 -78.165650 -46.367750  1.675116
 7706 1 -80.591531 -49.236531  1.675116
 7707 1 -81.829567 -48.541069  1.675116
 7708 1 -81.846297 -47.121167  1.675116
 7709 1 -80.624991 -46.396728  1.675116
 7710 1 -83.050872 -49.265508  1.675116
 7711 1 -84.288908 -48.570046  1.675116
 7712 1 -84.305638 -47.150145  1.675116
 7713 1 -83.084333 -46.425705  1.675116
 7714 1 -85.510214 -49.294486  1.675116
 7715 1 -86.748250 -48.599024  1.675116
 7716 1 -86.764980 -47.179122  1.675116
 7717 1 -85.543674 -46.454683  1.675116
 7718 1 -87.969555 -49.323463  1.675116
 7719 1 -89.207591 -48.628001  1.675116
 7720 1 -89.224321 -47.208100  1.675116
 7721 1 -88.003016 -46.483660  1.675116
 7722 1  90.274143 -42.252934  1.675116
 7723 1  90.257413 -40.833032  1.675116
 7724 1  89.052837 -42.977373  1.675116
 7725 1  87.814802 -42.281911  1.675116
 7726 1  87.798071 -40.862010  1.675116
 7727 1  89.019377 -40.137570  1.675116
 7728 1  86.593496 -43.006351  1.675116
 7729 1  85.355460 -42.310889  1.675116
 7730 1  85.338730 -40.890987  1.675116
 7731 1  86.560036 -40.166548  1.675116
 7732 1  84.134155 -43.035328  1.675116
 7733 1  82.896119 -42.339866  1.675116
 7734 1  82.879389 -40.919965  1.675116
 7735 1  84.100694 -40.195525  1.675116
 7736 1  81.674813 -43.064306  1.675116
 7737 1  80.436777 -42.368844  1.675116
 7738 1  80.420047 -40.948943  1.675116
 7739 1  81.641353 -40.224503  1.675116
 7740 1  79.215472 -43.093284  1.675116
 7741 1  77.977436 -42.397822  1.675116
 7742 1  77.960706 -40.977920  1.675116
 7743 1  79.182011 -40.253481  1.675116
 7744 1  76.756130 -43.122261  1.675116
 7745 1  75.518094 -42.426799  1.675116
 7746 1  75.501364 -41.006898  1.675116
 7747 1  76.722670 -40.282458  1.675116
 7748 1  74.296789 -43.151239  1.675116
 7749 1  73.058753 -42.455777  1.675116
 7750 1  73.042023 -41.035875  1.675116
 7751 1  74.263328 -40.311436  1.675116
 7752 1  71.837447 -43.180216  1.675116
 7753 1  70.599412 -42.484754  1.675116
 7754 1  70.582681 -41.064853  1.675116
 7755 1  71.803987 -40.340413  1.675116
 7756 1  69.378106 -43.209194  1.675116
 7757 1  68.140070 -42.513732  1.675116
 7758 1  68.123340 -41.093830  1.675116
 7759 1  69.344646 -40.369391  1.675116
 7760 1  66.918765 -43.238171  1.675116
 7761 1  65.680729 -42.542709  1.675116
 7762 1  65.663999 -41.122808  1.675116
 7763 1  66.885304 -40.398369  1.675116
 7764 1  64.459423 -43.267149  1.675116
 7765 1  63.221387 -42.571687  1.675116
 7766 1  63.204657 -41.151786  1.675116
 7767 1  64.425963 -40.427346  1.675116
 7768 1  62.000082 -43.296127  1.675116
 7769 1  60.762046 -42.600665  1.675116
 7770 1  60.745316 -41.180763  1.675116
 7771 1  61.966621 -40.456324  1.675116
 7772 1  59.540740 -43.325104  1.675116
 7773 1  58.302704 -42.629642  1.675116
 7774 1  58.285974 -41.209741  1.675116
 7775 1  59.507280 -40.485301  1.675116
 7776 1  57.081399 -43.354082  1.675116
 7777 1  55.843363 -42.658620  1.675116
 7778 1  55.826633 -41.238718  1.675116
 7779 1  57.047938 -40.514279  1.675116
 7780 1  54.622057 -43.383059  1.675116
 7781 1  53.384022 -42.687597  1.675116
 7782 1  53.367291 -41.267696  1.675116
 7783 1  54.588597 -40.543256  1.675116
 7784 1  52.162716 -43.412037  1.675116
 7785 1  50.924680 -42.716575  1.675116
 7786 1  50.907950 -41.296674  1.675116
 7787 1  52.129256 -40.572234  1.675116
 7788 1  49.703375 -43.441014  1.675116
 7789 1  48.465339 -42.745553  1.675116
 7790 1  48.448608 -41.325651  1.675116
 7791 1  49.669914 -40.601212  1.675116
 7792 1  47.244033 -43.469992  1.675116
 7793 1  46.005997 -42.774530  1.675116
 7794 1  45.989267 -41.354629  1.675116
 7795 1  47.210573 -40.630189  1.675116
 7796 1  44.784692 -43.498970  1.675116
 7797 1  43.546656 -42.803508  1.675116
 7798 1  43.529926 -41.383606  1.675116
 7799 1  44.751231 -40.659167  1.675116
 7800 1  42.325350 -43.527947  1.675116
 7801 1  41.087314 -42.832485  1.675116
 7802 1  41.070584 -41.412584  1.675116
 7803 1  42.291890 -40.688144  1.675116
 7804 1  39.866009 -43.556925  1.675116
 7805 1  38.627973 -42.861463  1.675116
 7806 1  38.611243 -41.441561  1.675116
 7807 1  39.832548 -40.717122  1.675116
 7808 1  37.406667 -43.585902  1.675116
 7809 1  36.168632 -42.890440  1.675116
 7810 1  36.151901 -41.470539  1.675116
 7811 1  37.373207 -40.746100  1.675116
 7812 1  34.947326 -43.614880  1.675116
 7813 1  33.709290 -42.919418  1.675116
 7814 1  33.692560 -41.499517  1.675116
 7815 1  34.913865 -40.775077  1.675116
 7816 1  32.487984 -43.643858  1.675116
 7817 1  31.249949 -42.948396  1.675116
 7818 1  31.233218 -41.528494  1.675116
 7819 1  32.454524 -40.804055  1.675116
 7820 1  30.028643 -43.672835  1.675116
 7821 1  28.790607 -42.977373  1.675116
 7822 1  28.773877 -41.557472  1.675116
 7823 1  29.995183 -40.833032  1.675116
 7824 1  27.569302 -43.701813  1.675116
 7825 1  26.331266 -43.006351  1.675116
 7826 1  26.314536 -41.586449  1.675116
 7827 1  27.535841 -40.862010  1.675116
 7828 1  25.109960 -43.730790  1.675116
 7829 1  23.871924 -43.035328  1.675116
 7830 1  23.855194 -41.615427  1.675116
 7831 1  25.076500 -40.890987  1.675116
 7832 1  22.650619 -43.759768  1.675116
 7833 1  21.412583 -43.064306  1.675116
 7834 1  21.395853 -41.644404  1.675116
 7835 1  22.617158 -40.919965  1.675116
 7836 1  20.191277 -43.788745  1.675116
 7837 1  18.953241 -43.093284  1.675116
 7838 1  18.936511 -41.673382  1.675116
 7839 1  20.157817 -40.948943  1.675116
 7840 1  17.731936 -43.817723  1.675116
 7841 1  16.493900 -43.122261  1.675116
 7842 1  16.477170 -41.702360  1.675116
 7843 1  17.698475 -40.977920  1.675116
 7844 1  15.272594 -43.846701  1.675116
 7845 1  14.034559 -43.151239  1.675116
 7846 1  14.017828 -41.731337  1.675116
 7847 1  15.239134 -41.006898  1.675116
 7848 1  12.813253 -43.875678  1.675116
 7849 1  11.575217 -43.180216  1.675116
 7850 1  11.558487 -41.760315  1.675116
 7851 1  12.779793 -41.035875  1.675116
 7852 1  10.353912 -43.904656  1.675116
 7853 1   9.115876 -43.209194  1.675116
 7854 1   9.099145 -41.789292  1.675116
 7855 1  10.320451 -41.064853  1.675116
 7856 1   7.894570 -43.933633  1.675116
 7857 1   6.656534 -43.238171  1.675116
 7858 1   6.639804 -41.818270  1.675116
 7859 1   7.861110 -41.093830  1.675116
 7860 1   5.435229 -43.962611  1.675116
 7861 1   4.197193 -43.267149  1.675116
 7862 1   4.180463 -41.847248  1.675116
 7863 1   5.401768 -41.122808  1.675116
 7864 1   2.975887 -43.991589  1.675116
 7865 1   1.737851 -43.296127  1.675116
 7866 1   1.721121 -41.876225  1.675116
 7867 1   2.942427 -41.151786  1.675116
 7868 1   0.516546 -44.020566  1.675116
 7869 1  -0.721490 -43.325104  1.675116
 7870 1  -0.738220 -41.905203  1.675116
 7871 1   0.483085 -41.180763  1.675116
 7872 1  -1.942796 -44.049544  1.675116
 7873 1  -3.180831 -43.354082  1.675116
 7874 1  -3.197562 -41.934180  1.675116
 7875 1  -1.976256 -41.209741  1.675116
 7876 1  -4.402137 -44.078521  1.675116
 7877 1  -5.640173 -43.383059  1.675116
 7878 1  -5.656903 -41.963158  1.675116
 7879 1  -4.435598 -41.238718  1.675116
 7880 1  -6.861479 -44.107499  1.675116
 7881 1  -8.099514 -43.412037  1.675116
 7882 1  -8.116245 -41.992135  1.675116
 7883 1  -6.894939 -41.267696  1.675116
 7884 1  -9.320820 -44.136476  1.675116
 7885 1 -10.558856 -43.441014  1.675116
 7886 1 -10.575586 -42.021113  1.675116
 7887 1  -9.354280 -41.296674  1.675116
 7888 1 -11.780161 -44.165454  1.675116
 7889 1 -13.018197 -43.469992  1.675116
 7890 1 -13.034927 -42.050091  1.675116
 7891 1 -11.813622 -41.325651  1.675116
 7892 1 -14.239503 -44.194432  1.675116
 7893 1 -15.477539 -43.498970  1.675116
 7894 1 -15.494269 -42.079068  1.675116
 7895 1 -14.272963 -41.354629  1.675116
 7896 1 -16.698844 -44.223409  1.675116
 7897 1 -17.936880 -43.527947  1.675116
 7898 1 -17.953610 -42.108046  1.675116
 7899 1 -16.732305 -41.383606  1.675116
 7900 1 -19.158186 -44.252387  1.675116
 7901 1 -20.396222 -43.556925  1.675116
 7902 1 -20.412952 -42.137023  1.675116
 7903 1 -19.191646 -41.412584  1.675116
 7904 1 -21.617527 -44.281364  1.675116
 7905 1 -22.855563 -43.585902  1.675116
 7906 1 -22.872293 -42.166001  1.675116
 7907 1 -21.650988 -41.441561  1.675116
 7908 1 -24.076869 -44.310342  1.675116
 7909 1 -25.314904 -43.614880  1.675116
 7910 1 -25.331635 -42.194979  1.675116
 7911 1 -24.110329 -41.470539  1.675116
 7912 1 -26.536210 -44.339319  1.675116
 7913 1 -27.774246 -43.643858  1.675116
 7914 1 -27.790976 -42.223956  1.675116
 7915 1 -26.569670 -41.499517  1.675116
 7916 1 -28.995551 -44.368297  1.675116
 7917 1 -30.233587 -43.672835  1.675116
 7918 1 -30.250317 -42.252934  1.675116
 7919 1 -29.029012 -41.528494  1.675116
 7920 1 -31.454893 -44.397275  1.675116
 7921 1 -32.692929 -43.701813  1.675116
 7922 1 -32.709659 -42.281911  1.675116
 7923 1 -31.488353 -41.557472  1.675116
 7924 1 -33.914234 -44.426252  1.675116
 7925 1 -35.152270 -43.730790  1.675116
 7926 1 -35.169000 -42.310889  1.675116
 7927 1 -33.947695 -41.586449  1.675116
 7928 1 -36.373576 -44.455230  1.675116
 7929 1 -37.611612 -43.759768  1.675116
 7930 1 -37.628342 -42.339866  1.675116
 7931 1 -36.407036 -41.615427  1.675116
 7932 1 -38.832917 -44.484207  1.675116
 7933 1 -40.070953 -43.788745  1.675116
 7934 1 -40.087683 -42.368844  1.675116
 7935 1 -38.866378 -41.644404  1.675116
 7936 1 -41.292259 -44.513185  1.675116
 7937 1 -42.530294 -43.817723  1.675116
 7938 1 -42.547025 -42.397822  1.675116
 7939 1 -41.325719 -41.673382  1.675116
 7940 1 -43.751600 -44.542163  1.675116
 7941 1 -44.989636 -43.846701  1.675116
 7942 1 -45.006366 -42.426799  1.675116
 7943 1 -43.785060 -41.702360  1.675116
 7944 1 -46.210941 -44.571140  1.675116
 7945 1 -47.448977 -43.875678  1.675116
 7946 1 -47.465708 -42.455777  1.675116
 7947 1 -46.244402 -41.731337  1.675116
 7948 1 -48.670283 -44.600118  1.675116
 7949 1 -49.908319 -43.904656  1.675116
 7950 1 -49.925049 -42.484754  1.675116
 7951 1 -48.703743 -41.760315  1.675116
 7952 1 -51.129624 -44.629095  1.675116
 7953 1 -52.367660 -43.933633  1.675116
 7954 1 -52.384390 -42.513732  1.675116
 7955 1 -51.163085 -41.789292  1.675116
 7956 1 -53.588966 -44.658073  1.675116
 7957 1 -54.827002 -43.962611  1.675116
 7958 1 -54.843732 -42.542709  1.675116
 7959 1 -53.622426 -41.818270  1.675116
 7960 1 -56.048307 -44.687050  1.675116
 7961 1 -57.286343 -43.991589  1.675116
 7962 1 -57.303073 -42.571687  1.675116
 7963 1 -56.081768 -41.847248  1.675116
 7964 1 -58.507649 -44.716028  1.675116
 7965 1 -59.745685 -44.020566  1.675116
 7966 1 -59.762415 -42.600665  1.675116
 7967 1 -58.541109 -41.876225  1.675116
 7968 1 -60.966990 -44.745006  1.675116
 7969 1 -62.205026 -44.049544  1.675116
 7970 1 -62.221756 -42.629642  1.675116
 7971 1 -61.000451 -41.905203  1.675116
 7972 1 -63.426332 -44.773983  1.675116
 7973 1 -64.664367 -44.078521  1.675116
 7974 1 -64.681098 -42.658620  1.675116
 7975 1 -63.459792 -41.934180  1.675116
 7976 1 -65.885673 -44.802961  1.675116
 7977 1 -67.123709 -44.107499  1.675116
 7978 1 -67.140439 -42.687597  1.675116
 7979 1 -65.919133 -41.963158  1.675116
 7980 1 -68.345014 -44.831938  1.675116
 7981 1 -69.583050 -44.136476  1.675116
 7982 1 -69.599780 -42.716575  1.675116
 7983 1 -68.378475 -41.992135  1.675116
 7984 1 -70.804356 -44.860916  1.675116
 7985 1 -72.042392 -44.165454  1.675116
 7986 1 -72.059122 -42.745553  1.675116
 7987 1 -70.837816 -42.021113  1.675116
 7988 1 -73.263697 -44.889894  1.675116
 7989 1 -74.501733 -44.194432  1.675116
 7990 1 -74.518463 -42.774530  1.675116
 7991 1 -73.297158 -42.050091  1.675116
 7992 1 -75.723039 -44.918871  1.675116
 7993 1 -76.961075 -44.223409  1.675116
 7994 1 -76.977805 -42.803508  1.675116
 7995 1 -75.756499 -42.079068  1.675116
 7996 1 -78.182380 -44.947849  1.675116
 7997 1 -79.420416 -44.252387  1.675116
 7998 1 -79.437146 -42.832485  1.675116
 7999 1 -78.215841 -42.108046  1.675116
 8000 1 -80.641722 -44.976826  1.675116
 8001 1 -81.879757 -44.281364  1.675116
 8002 1 -81.896488 -42.861463  1.675116
 8003 1 -80.675182 -42.137023  1.675116
 8004 1 -83.101063 -45.005804  1.675116
 8005 1 -84.339099 -44.310342  1.675116
 8006 1 -84.355829 -42.890440  1.675116
 8007 1 -83.134523 -42.166001  1.675116
 8008 1 -85.560404 -45.034781  1.675116
 8009 1 -86.798440 -44.339319  1.675116
 8010 1 -86.815171 -42.919418  1.675116
 8011 1 -85.593865 -42.194979  1.675116
 8012 1 -88.019746 -45.063759  1.675116
 8013 1 -89.257782 -44.368297  1.675116
 8014 1 -89.274512 -42.948396  1.675116
 8015 1 -88.053206 -42.223956  1.675116
 8016 1  90.223952 -37.993229  1.675116
 8017 1  90.207222 -36.573328  1.675116
 8018 1  89.002647 -38.717669  1.675116
 8019 1  87.764611 -38.022207  1.675116
 8020 1  87.747881 -36.602306  1.675116
 8021 1  88.969186 -35.877866  1.675116
 8022 1  86.543305 -38.746646  1.675116
 8023 1  85.305270 -38.051185  1.675116
 8024 1  85.288539 -36.631283  1.675116
 8025 1  86.509845 -35.906844  1.675116
 8026 1  84.083964 -38.775624  1.675116
 8027 1  82.845928 -38.080162  1.675116
 8028 1  82.829198 -36.660261  1.675116
 8029 1  84.050504 -35.935821  1.675116
 8030 1  81.624623 -38.804602  1.675116
 8031 1  80.386587 -38.109140  1.675116
 8032 1  80.369857 -36.689238  1.675116
 8033 1  81.591162 -35.964799  1.675116
 8034 1  79.165281 -38.833579  1.675116
 8035 1  77.927245 -38.138117  1.675116
 8036 1  77.910515 -36.718216  1.675116
 8037 1  79.131821 -35.993776  1.675116
 8038 1  76.705940 -38.862557  1.675116
 8039 1  75.467904 -38.167095  1.675116
 8040 1  75.451174 -36.747193  1.675116
 8041 1  76.672479 -36.022754  1.675116
 8042 1  74.246598 -38.891534  1.675116
 8043 1  73.008562 -38.196072  1.675116
 8044 1  72.991832 -36.776171  1.675116
 8045 1  74.213138 -36.051731  1.675116
 8046 1  71.787257 -38.920512  1.675116
 8047 1  70.549221 -38.225050  1.675116
 8048 1  70.532491 -36.805149  1.675116
 8049 1  71.753796 -36.080709  1.675116
 8050 1  69.327915 -38.949490  1.675116
 8051 1  68.089880 -38.254028  1.675116
 8052 1  68.073149 -36.834126  1.675116
 8053 1  69.294455 -36.109687  1.675116
 8054 1  66.868574 -38.978467  1.675116
 8055 1  65.630538 -38.283005  1.675116
 8056 1  65.613808 -36.863104  1.675116
 8057 1  66.835113 -36.138664  1.675116
 8058 1  64.409232 -39.007445  1.675116
 8059 1  63.171197 -38.311983  1.675116
 8060 1  63.154466 -36.892081  1.675116
 8061 1  64.375772 -36.167642  1.675116
 8062 1  61.949891 -39.036422  1.675116
 8063 1  60.711855 -38.340960  1.675116
 8064 1  60.695125 -36.921059  1.675116
 8065 1  61.916431 -36.196619  1.675116
 8066 1  59.490550 -39.065400  1.675116
 8067 1  58.252514 -38.369938  1.675116
 8068 1  58.235784 -36.950036  1.675116
 8069 1  59.457089 -36.225597  1.675116
 8070 1  57.031208 -39.094377  1.675116
 8071 1  55.793172 -38.398915  1.675116
 8072 1  55.776442 -36.979014  1.675116
 8073 1  56.997748 -36.254575  1.675116
 8074 1  54.571867 -39.123355  1.675116
 8075 1  53.333831 -38.427893  1.675116
 8076 1  53.317101 -37.007992  1.675116
 8077 1  54.538406 -36.283552  1.675116
 8078 1  52.112525 -39.152333  1.675116
 8079 1  50.874489 -38.456871  1.675116
 8080 1  50.857759 -37.036969  1.675116
 8081 1  52.079065 -36.312530  1.675116
 8082 1  49.653184 -39.181310  1.675116
 8083 1  48.415148 -38.485848  1.675116
 8084 1  48.398418 -37.065947  1.675116
 8085 1  49.619723 -36.341507  1.675116
 8086 1  47.193842 -39.210288  1.675116
 8087 1  45.955807 -38.514826  1.675116
 8088 1  45.939076 -37.094924  1.675116
 8089 1  47.160382 -36.370485  1.675116
 8090 1  44.734501 -39.239265  1.675116
 8091 1  43.496465 -38.543803  1.675116
 8092 1  43.479735 -37.123902  1.675116
 8093 1  44.701041 -36.399462  1.675116
 8094 1  42.275160 -39.268243  1.675116
 8095 1  41.037124 -38.572781  1.675116
 8096 1  41.020394 -37.152880  1.675116
 8097 1  42.241699 -36.428440  1.675116
 8098 1  39.815818 -39.297220  1.675116
 8099 1  38.577782 -38.601759  1.675116
 8100 1  38.561052 -37.181857  1.675116
 8101 1  39.782358 -36.457418  1.675116
 8102 1  37.356477 -39.326198  1.675116
 8103 1  36.118441 -38.630736  1.675116
 8104 1  36.101711 -37.210835  1.675116
 8105 1  37.323016 -36.486395  1.675116
 8106 1  34.897135 -39.355176  1.675116
 8107 1  33.659099 -38.659714  1.675116
 8108 1  33.642369 -37.239812  1.675116
 8109 1  34.863675 -36.515373  1.675116
 8110 1  32.437794 -39.384153  1.675116
 8111 1  31.199758 -38.688691  1.675116
 8112 1  31.183028 -37.268790  1.675116
 8113 1  32.404333 -36.544350  1.675116
 8114 1  29.978452 -39.413131  1.675116
 8115 1  28.740417 -38.717669  1.675116
 8116 1  28.723686 -37.297767  1.675116
 8117 1  29.944992 -36.573328  1.675116
 8118 1  27.519111 -39.442108  1.675116
 8119 1  26.281075 -38.746646  1.675116
 8120 1  26.264345 -37.326745  1.675116
 8121 1  27.485651 -36.602306  1.675116
 8122 1  25.059770 -39.471086  1.675116
 8123 1  23.821734 -38.775624  1.675116
 8124 1  23.805003 -37.355723  1.675116
 8125 1  25.026309 -36.631283  1.675116
 8126 1  22.600428 -39.500064  1.675116
 8127 1  21.362392 -38.804602  1.675116
 8128 1  21.345662 -37.384700  1.675116
 8129 1  22.566968 -36.660261  1.675116
 8130 1  20.141087 -39.529041  1.675116
 8131 1  18.903051 -38.833579  1.675116
 8132 1  18.886321 -37.413678  1.675116
 8133 1  20.107626 -36.689238  1.675116
 8134 1  17.681745 -39.558019  1.675116
 8135 1  16.443709 -38.862557  1.675116
 8136 1  16.426979 -37.442655  1.675116
 8137 1  17.648285 -36.718216  1.675116
 8138 1  15.222404 -39.586996  1.675116
 8139 1  13.984368 -38.891534  1.675116
 8140 1  13.967638 -37.471633  1.675116
 8141 1  15.188943 -36.747193  1.675116
 8142 1  12.763062 -39.615974  1.675116
 8143 1  11.525027 -38.920512  1.675116
 8144 1  11.508296 -37.500610  1.675116
 8145 1  12.729602 -36.776171  1.675116
 8146 1  10.303721 -39.644951  1.675116
 8147 1   9.065685 -38.949490  1.675116
 8148 1   9.048955 -37.529588  1.675116
 8149 1  10.270260 -36.805149  1.675116
 8150 1   7.844379 -39.673929  1.675116
 8151 1   6.606344 -38.978467  1.675116
 8152 1   6.589613 -37.558566  1.675116
 8153 1   7.810919 -36.834126  1.675116
 8154 1   5.385038 -39.702907  1.675116
 8155 1   4.147002 -39.007445  1.675116
 8156 1   4.130272 -37.587543  1.675116
 8157 1   5.351578 -36.863104  1.675116
 8158 1   2.925697 -39.731884  1.675116
 8159 1   1.687661 -39.036422  1.675116
 8160 1   1.670931 -37.616521  1.675116
 8161 1   2.892236 -36.892081  1.675116
 8162 1   0.466355 -39.760862  1.675116
 8163 1  -0.771681 -39.065400  1.675116
 8164 1  -0.788411 -37.645498  1.675116
 8165 1   0.432895 -36.921059  1.675116
 8166 1  -1.992986 -39.789839  1.675116
 8167 1  -3.231022 -39.094377  1.675116
 8168 1  -3.247752 -37.674476  1.675116
 8169 1  -2.026447 -36.950036  1.675116
 8170 1  -4.452328 -39.818817  1.675116
 8171 1  -5.690364 -39.123355  1.675116
 8172 1  -5.707094 -37.703454  1.675116
 8173 1  -4.485788 -36.979014  1.675116
 8174 1  -6.911669 -39.847795  1.675116
 8175 1  -8.149705 -39.152333  1.675116
 8176 1  -8.166435 -37.732431  1.675116
 8177 1  -6.945130 -37.007992  1.675116
 8178 1  -9.371011 -39.876772  1.675116
 8179 1 -10.609046 -39.181310  1.675116
 8180 1 -10.625777 -37.761409  1.675116
 8181 1  -9.404471 -37.036969  1.675116
 8182 1 -11.830352 -39.905750  1.675116
 8183 1 -13.068388 -39.210288  1.675116
 8184 1 -13.085118 -37.790386  1.675116
 8185 1 -11.863812 -37.065947  1.675116
 8186 1 -14.289693 -39.934727  1.675116
 8187 1 -15.527729 -39.239265  1.675116
 8188 1 -15.544460 -37.819364  1.675116
 8189 1 -14.323154 -37.094924  1.675116
 8190 1 -16.749035 -39.963705  1.675116
 8191 1 -17.987071 -39.268243  1.675116
 8192 1 -18.003801 -37.848341  1.675116
 8193 1 -16.782495 -37.123902  1.675116
 8194 1 -19.208376 -39.992682  1.675116
 8195 1 -20.446412 -39.297220  1.675116
 8196 1 -20.463142 -37.877319  1.675116
 8197 1 -19.241837 -37.152880  1.675116
 8198 1 -21.667718 -40.021660  1.675116
 8199 1 -22.905754 -39.326198  1.675116
 8200 1 -22.922484 -37.906297  1.675116
 8201 1 -21.701178 -37.181857  1.675116
 8202 1 -24.127059 -40.050638  1.675116
 8203 1 -25.365095 -39.355176  1.675116
 8204 1 -25.381825 -37.935274  1.675116
 8205 1 -24.160520 -37.210835  1.675116
 8206 1 -26.586401 -40.079615  1.675116
 8207 1 -27.824436 -39.384153  1.675116
 8208 1 -27.841167 -37.964252  1.675116
 8209 1 -26.619861 -37.239812  1.675116
 8210 1 -29.045742 -40.108593  1.675116
 8211 1 -30.283778 -39.413131  1.675116
 8212 1 -30.300508 -37.993229  1.675116
 8213 1 -29.079203 -37.268790  1.675116
 8214 1 -31.505084 -40.137570  1.675116
 8215 1 -32.743119 -39.442108  1.675116
 8216 1 -32.759850 -38.022207  1.675116
 8217 1 -31.538544 -37.297767  1.675116
 8218 1 -33.964425 -40.166548  1.675116
 8219 1 -35.202461 -39.471086  1.675116
 8220 1 -35.219191 -38.051185  1.675116
 8221 1 -33.997885 -37.326745  1.675116
 8222 1 -36.423766 -40.195525  1.675116
 8223 1 -37.661802 -39.500064  1.675116
 8224 1 -37.678532 -38.080162  1.675116
 8225 1 -36.457227 -37.355723  1.675116
 8226 1 -38.883108 -40.224503  1.675116
 8227 1 -40.121144 -39.529041  1.675116
 8228 1 -40.137874 -38.109140  1.675116
 8229 1 -38.916568 -37.384700  1.675116
 8230 1 -41.342449 -40.253481  1.675116
 8231 1 -42.580485 -39.558019  1.675116
 8232 1 -42.597215 -38.138117  1.675116
 8233 1 -41.375910 -37.413678  1.675116
 8234 1 -43.801791 -40.282458  1.675116
 8235 1 -45.039827 -39.586996  1.675116
 8236 1 -45.056557 -38.167095  1.675116
 8237 1 -43.835251 -37.442655  1.675116
 8238 1 -46.261132 -40.311436  1.675116
 8239 1 -47.499168 -39.615974  1.675116
 8240 1 -47.515898 -38.196072  1.675116
 8241 1 -46.294593 -37.471633  1.675116
 8242 1 -48.720474 -40.340413  1.675116
 8243 1 -49.958509 -39.644951  1.675116
 8244 1 -49.975240 -38.225050  1.675116
 8245 1 -48.753934 -37.500610  1.675116
 8246 1 -51.179815 -40.369391  1.675116
 8247 1 -52.417851 -39.673929  1.675116
 8248 1 -52.434581 -38.254028  1.675116
 8249 1 -51.213275 -37.529588  1.675116
 8250 1 -53.639156 -40.398369  1.675116
 8251 1 -54.877192 -39.702907  1.675116
 8252 1 -54.893922 -38.283005  1.675116
 8253 1 -53.672617 -37.558566  1.675116
 8254 1 -56.098498 -40.427346  1.675116
 8255 1 -57.336534 -39.731884  1.675116
 8256 1 -57.353264 -38.311983  1.675116
 8257 1 -56.131958 -37.587543  1.675116
 8258 1 -58.557839 -40.456324  1.675116
 8259 1 -59.795875 -39.760862  1.675116
 8260 1 -59.812605 -38.340960  1.675116
 8261 1 -58.591300 -37.616521  1.675116
 8262 1 -61.017181 -40.485301  1.675116
 8263 1 -62.255217 -39.789839  1.675116
 8264 1 -62.271947 -38.369938  1.675116
 8265 1 -61.050641 -37.645498  1.675116
 8266 1 -63.476522 -40.514279  1.675116
 8267 1 -64.714558 -39.818817  1.675116
 8268 1 -64.731288 -38.398915  1.675116
 8269 1 -63.509983 -37.674476  1.675116
 8270 1 -65.935864 -40.543256  1.675116
 8271 1 -67.173899 -39.847795  1.675116
 8272 1 -67.190630 -38.427893  1.675116
 8273 1 -65.969324 -37.703454  1.675116
 8274 1 -68.395205 -40.572234  1.675116
 8275 1 -69.633241 -39.876772  1.675116
 8276 1 -69.649971 -38.456871  1.675116
 8277 1 -68.428665 -37.732431  1.675116
 8278 1 -70.854547 -40.601212  1.675116
 8279 1 -72.092582 -39.905750  1.675116
 8280 1 -72.109313 -38.485848  1.675116
 8281 1 -70.888007 -37.761409  1.675116
 8282 1 -73.313888 -40.630189  1.675116
 8283 1 -74.551924 -39.934727  1.675116
 8284 1 -74.568654 -38.514826  1.675116
 8285 1 -73.347348 -37.790386  1.675116
 8286 1 -75.773229 -40.659167  1.675116
 8287 1 -77.011265 -39.963705  1.675116
 8288 1 -77.027995 -38.543803  1.675116
 8289 1 -75.806690 -37.819364  1.675116
 8290 1 -78.232571 -40.688144  1.675116
 8291 1 -79.470607 -39.992682  1.675116
 8292 1 -79.487337 -38.572781  1.675116
 8293 1 -78.266031 -37.848341  1.675116
 8294 1 -80.691912 -40.717122  1.675116
 8295 1 -81.929948 -40.021660  1.675116
 8296 1 -81.946678 -38.601759  1.675116
 8297 1 -80.725373 -37.877319  1.675116
 8298 1 -83.151254 -40.746100  1.675116
 8299 1 -84.389290 -40.050638  1.675116
 8300 1 -84.406020 -38.630736  1.675116
 8301 1 -83.184714 -37.906297  1.675116
 8302 1 -85.610595 -40.775077  1.675116
 8303 1 -86.848631 -40.079615  1.675116
 8304 1 -86.865361 -38.659714  1.675116
 8305 1 -85.644056 -37.935274  1.675116
 8306 1 -88.069937 -40.804055  1.675116
 8307 1 -89.307972 -40.108593  1.675116
 8308 1 -89.324703 -38.688691  1.675116
 8309 1 -88.103397 -37.964252  1.675116
 8310 1  90.173762 -33.733525  1.675116
 8311 1  90.157032 -32.313624  1.675116
 8312 1  88.952456 -34.457965  1.675116
 8313 1  87.714420 -33.762503  1.675116
 8314 1  87.697690 -32.342601  1.675116
 8315 1  88.918996 -31.618162  1.675116
 8316 1  86.493115 -34.486942  1.675116
 8317 1  85.255079 -33.791480  1.675116
 8318 1  85.238349 -32.371579  1.675116
 8319 1  86.459654 -31.647139  1.675116
 8320 1  84.033773 -34.515920  1.675116
 8321 1  82.795738 -33.820458  1.675116
 8322 1  82.779007 -32.400556  1.675116
 8323 1  84.000313 -31.676117  1.675116
 8324 1  81.574432 -34.544897  1.675116
 8325 1  80.336396 -33.849435  1.675116
 8326 1  80.319666 -32.429534  1.675116
 8327 1  81.540971 -31.705094  1.675116
 8328 1  79.115090 -34.573875  1.675116
 8329 1  77.877055 -33.878413  1.675116
 8330 1  77.860324 -32.458512  1.675116
 8331 1  79.081630 -31.734072  1.675116
 8332 1  76.655749 -34.602852  1.675116
 8333 1  75.417713 -33.907391  1.675116
 8334 1  75.400983 -32.487489  1.675116
 8335 1  76.622289 -31.763050  1.675116
 8336 1  74.196408 -34.631830  1.675116
 8337 1  72.958372 -33.936368  1.675116
 8338 1  72.941642 -32.516467  1.675116
 8339 1  74.162947 -31.792027  1.675116
 8340 1  71.737066 -34.660808  1.675116
 8341 1  70.499030 -33.965346  1.675116
 8342 1  70.482300 -32.545444  1.675116
 8343 1  71.703606 -31.821005  1.675116
 8344 1  69.277725 -34.689785  1.675116
 8345 1  68.039689 -33.994323  1.675116
 8346 1  68.022959 -32.574422  1.675116
 8347 1  69.244264 -31.849982  1.675116
 8348 1  66.818383 -34.718763  1.675116
 8349 1  65.580347 -34.023301  1.675116
 8350 1  65.563617 -32.603399  1.675116
 8351 1  66.784923 -31.878960  1.675116
 8352 1  64.359042 -34.747740  1.675116
 8353 1  63.121006 -34.052278  1.675116
 8354 1  63.104276 -32.632377  1.675116
 8355 1  64.325581 -31.907937  1.675116
 8356 1  61.899700 -34.776718  1.675116
 8357 1  60.661665 -34.081256  1.675116
 8358 1  60.644934 -32.661355  1.675116
 8359 1  61.866240 -31.936915  1.675116
 8360 1  59.440359 -34.805696  1.675116
 8361 1  58.202323 -34.110234  1.675116
 8362 1  58.185593 -32.690332  1.675116
 8363 1  59.406899 -31.965893  1.675116
 8364 1  56.981018 -34.834673  1.675116
 8365 1  55.742982 -34.139211  1.675116
 8366 1  55.726251 -32.719310  1.675116
 8367 1  56.947557 -31.994870  1.675116
 8368 1  54.521676 -34.863651  1.675116
 8369 1  53.283640 -34.168189  1.675116
 8370 1  53.266910 -32.748287  1.675116
 8371 1  54.488216 -32.023848  1.675116
 8372 1  52.062335 -34.892628  1.675116
 8373 1  50.824299 -34.197166  1.675116
 8374 1  50.807569 -32.777265  1.675116
 8375 1  52.028874 -32.052825  1.675116
 8376 1  49.602993 -34.921606  1.675116
 8377 1  48.364957 -34.226144  1.675116
 8378 1  48.348227 -32.806242  1.675116
 8379 1  49.569533 -32.081803  1.675116
 8380 1  47.143652 -34.950583  1.675116
 8381 1  45.905616 -34.255121  1.675116
 8382 1  45.888886 -32.835220  1.675116
 8383 1  47.110191 -32.110781  1.675116
 8384 1  44.684310 -34.979561  1.675116
 8385 1  43.446275 -34.284099  1.675116
 8386 1  43.429544 -32.864198  1.675116
 8387 1  44.650850 -32.139758  1.675116
 8388 1  42.224969 -35.008539  1.675116
 8389 1  40.986933 -34.313077  1.675116
 8390 1  40.970203 -32.893175  1.675116
 8391 1  42.191508 -32.168736  1.675116
 8392 1  39.765627 -35.037516  1.675116
 8393 1  38.527592 -34.342054  1.675116
 8394 1  38.510861 -32.922153  1.675116
 8395 1  39.732167 -32.197713  1.675116
 8396 1  37.306286 -35.066494  1.675116
 8397 1  36.068250 -34.371032  1.675116
 8398 1  36.051520 -32.951130  1.675116
 8399 1  37.272826 -32.226691  1.675116
 8400 1  34.846945 -35.095471  1.675116
 8401 1  33.608909 -34.400009  1.675116
 8402 1  33.592179 -32.980108  1.675116
 8403 1  34.813484 -32.255668  1.675116
 8404 1  32.387603 -35.124449  1.675116
 8405 1  31.149567 -34.428987  1.675116
 8406 1  31.132837 -33.009086  1.675116
 8407 1  32.354143 -32.284646  1.675116
 8408 1  29.928262 -35.153426  1.675116
 8409 1  28.690226 -34.457965  1.675116
 8410 1  28.673496 -33.038063  1.675116
 8411 1  29.894801 -32.313624  1.675116
 8412 1  27.468920 -35.182404  1.675116
 8413 1  26.230884 -34.486942  1.675116
 8414 1  26.214154 -33.067041  1.675116
 8415 1  27.435460 -32.342601  1.675116
 8416 1  25.009579 -35.211382  1.675116
 8417 1  23.771543 -34.515920  1.675116
 8418 1  23.754813 -33.096018  1.675116
 8419 1  24.976118 -32.371579  1.675116
 8420 1  22.550237 -35.240359  1.675116
 8421 1  21.312202 -34.544897  1.675116
 8422 1  21.295471 -33.124996  1.675116
 8423 1  22.516777 -32.400556  1.675116
 8424 1  20.090896 -35.269337  1.675116
 8425 1  18.852860 -34.573875  1.675116
 8426 1  18.836130 -33.153973  1.675116
 8427 1  20.057436 -32.429534  1.675116
 8428 1  17.631555 -35.298314  1.675116
 8429 1  16.393519 -34.602852  1.675116
 8430 1  16.376789 -33.182951  1.675116
 8431 1  17.598094 -32.458512  1.675116
 8432 1  15.172213 -35.327292  1.675116
 8433 1  13.934177 -34.631830  1.675116
 8434 1  13.917447 -33.211929  1.675116
 8435 1  15.138753 -32.487489  1.675116
 8436 1  12.712872 -35.356270  1.675116
 8437 1  11.474836 -34.660808  1.675116
 8438 1  11.458106 -33.240906  1.675116
 8439 1  12.679411 -32.516467  1.675116
 8440 1  10.253530 -35.385247  1.675116
 8441 1   9.015494 -34.689785  1.675116
 8442 1   8.998764 -33.269884  1.675116
 8443 1  10.220070 -32.545444  1.675116
 8444 1   7.794189 -35.414225  1.675116
 8445 1   6.556153 -34.718763  1.675116
 8446 1   6.539423 -33.298861  1.675116
 8447 1   7.760728 -32.574422  1.675116
 8448 1   5.334847 -35.443202  1.675116
 8449 1   4.096812 -34.747740  1.675116
 8450 1   4.080081 -33.327839  1.675116
 8451 1   5.301387 -32.603399  1.675116
 8452 1   2.875506 -35.472180  1.675116
 8453 1   1.637470 -34.776718  1.675116
 8454 1   1.620740 -33.356816  1.675116
 8455 1   2.842046 -32.632377  1.675116
 8456 1   0.416165 -35.501157  1.675116
 8457 1  -0.821871 -34.805696  1.675116
 8458 1  -0.838602 -33.385794  1.675116
 8459 1   0.382704 -32.661355  1.675116
 8460 1  -2.043177 -35.530135  1.675116
 8461 1  -3.281213 -34.834673  1.675116
 8462 1  -3.297943 -33.414772  1.675116
 8463 1  -2.076637 -32.690332  1.675116
 8464 1  -4.502518 -35.559113  1.675116
 8465 1  -5.740554 -34.863651  1.675116
 8466 1  -5.757284 -33.443749  1.675116
 8467 1  -4.535979 -32.719310  1.675116
 8468 1  -6.961860 -35.588090  1.675116
 8469 1  -8.199896 -34.892628  1.675116
 8470 1  -8.216626 -33.472727  1.675116
 8471 1  -6.995320 -32.748287  1.675116
 8472 1  -9.421201 -35.617068  1.675116
 8473 1 -10.659237 -34.921606  1.675116
 8474 1 -10.675967 -33.501704  1.675116
 8475 1  -9.454662 -32.777265  1.675116
 8476 1 -11.880543 -35.646045  1.675116
 8477 1 -13.118579 -34.950583  1.675116
 8478 1 -13.135309 -33.530682  1.675116
 8479 1 -11.914003 -32.806242  1.675116
 8480 1 -14.339884 -35.675023  1.675116
 8481 1 -15.577920 -34.979561  1.675116
 8482 1 -15.594650 -33.559660  1.675116
 8483 1 -14.373345 -32.835220  1.675116
 8484 1 -16.799226 -35.704001  1.675116
 8485 1 -18.037261 -35.008539  1.675116
 8486 1 -18.053992 -33.588637  1.675116
 8487 1 -16.832686 -32.864198  1.675116
 8488 1 -19.258567 -35.732978  1.675116
 8489 1 -20.496603 -35.037516  1.675116
 8490 1 -20.513333 -33.617615  1.675116
 8491 1 -19.292027 -32.893175  1.675116
 8492 1 -21.717908 -35.761956  1.675116
 8493 1 -22.955944 -35.066494  1.675116
 8494 1 -22.972674 -33.646592  1.675116
 8495 1 -21.751369 -32.922153  1.675116
 8496 1 -24.177250 -35.790933  1.675116
 8497 1 -25.415286 -35.095471  1.675116
 8498 1 -25.432016 -33.675570  1.675116
 8499 1 -24.210710 -32.951130  1.675116
 8500 1 -26.636591 -35.819911  1.675116
 8501 1 -27.874627 -35.124449  1.675116
 8502 1 -27.891357 -33.704547  1.675116
 8503 1 -26.670052 -32.980108  1.675116
 8504 1 -29.095933 -35.848888  1.675116
 8505 1 -30.333969 -35.153426  1.675116
 8506 1 -30.350699 -33.733525  1.675116
 8507 1 -29.129393 -33.009086  1.675116
 8508 1 -31.555274 -35.877866  1.675116
 8509 1 -32.793310 -35.182404  1.675116
 8510 1 -32.810040 -33.762503  1.675116
 8511 1 -31.588735 -33.038063  1.675116
 8512 1 -34.014616 -35.906844  1.675116
 8513 1 -35.252651 -35.211382  1.675116
 8514 1 -35.269382 -33.791480  1.675116
 8515 1 -34.048076 -33.067041  1.675116
 8516 1 -36.473957 -35.935821  1.675116
 8517 1 -37.711993 -35.240359  1.675116
 8518 1 -37.728723 -33.820458  1.675116
 8519 1 -36.507417 -33.096018  1.675116
 8520 1 -38.933298 -35.964799  1.675116
 8521 1 -40.171334 -35.269337  1.675116
 8522 1 -40.188065 -33.849435  1.675116
 8523 1 -38.966759 -33.124996  1.675116
 8524 1 -41.392640 -35.993776  1.675116
 8525 1 -42.630676 -35.298314  1.675116
 8526 1 -42.647406 -33.878413  1.675116
 8527 1 -41.426100 -33.153973  1.675116
 8528 1 -43.851981 -36.022754  1.675116
 8529 1 -45.090017 -35.327292  1.675116
 8530 1 -45.106747 -33.907391  1.675116
 8531 1 -43.885442 -33.182951  1.675116
 8532 1 -46.311323 -36.051731  1.675116
 8533 1 -47.549359 -35.356270  1.675116
 8534 1 -47.566089 -33.936368  1.675116
 8535 1 -46.344783 -33.211929  1.675116
 8536 1 -48.770664 -36.080709  1.675116
 8537 1 -50.008700 -35.385247  1.675116
 8538 1 -50.025430 -33.965346  1.675116
 8539 1 -48.804125 -33.240906  1.675116
 8540 1 -51.230006 -36.109687  1.675116
 8541 1 -52.468041 -35.414225  1.675116
 8542 1 -52.484772 -33.994323  1.675116
 8543 1 -51.263466 -33.269884  1.675116
 8544 1 -53.689347 -36.138664  1.675116
 8545 1 -54.927383 -35.443202  1.675116
 8546 1 -54.944113 -34.023301  1.675116
 8547 1 -53.722808 -33.298861  1.675116
 8548 1 -56.148689 -36.167642  1.675116
 8549 1 -57.386724 -35.472180  1.675116
 8550 1 -57.403455 -34.052278  1.675116
 8551 1 -56.182149 -33.327839  1.675116
 8552 1 -58.608030 -36.196619  1.675116
 8553 1 -59.846066 -35.501157  1.675116
 8554 1 -59.862796 -34.081256  1.675116
 8555 1 -58.641490 -33.356816  1.675116
 8556 1 -61.067371 -36.225597  1.675116
 8557 1 -62.305407 -35.530135  1.675116
 8558 1 -62.322137 -34.110234  1.675116
 8559 1 -61.100832 -33.385794  1.675116
 8560 1 -63.526713 -36.254575  1.675116
 8561 1 -64.764749 -35.559113  1.675116
 8562 1 -64.781479 -34.139211  1.675116
 8563 1 -63.560173 -33.414772  1.675116
 8564 1 -65.986054 -36.283552  1.675116
 8565 1 -67.224090 -35.588090  1.675116
 8566 1 -67.240820 -34.168189  1.675116
 8567 1 -66.019515 -33.443749  1.675116
 8568 1 -68.445396 -36.312530  1.675116
 8569 1 -69.683432 -35.617068  1.675116
 8570 1 -69.700162 -34.197166  1.675116
 8571 1 -68.478856 -33.472727  1.675116
 8572 1 -70.904737 -36.341507  1.675116
 8573 1 -72.142773 -35.646045  1.675116
 8574 1 -72.159503 -34.226144  1.675116
 8575 1 -70.938198 -33.501704  1.675116
 8576 1 -73.364079 -36.370485  1.675116
 8577 1 -74.602114 -35.675023  1.675116
 8578 1 -74.618845 -34.255121  1.675116
 8579 1 -73.397539 -33.530682  1.675116
 8580 1 -75.823420 -36.399462  1.675116
 8581 1 -77.061456 -35.704001  1.675116
 8582 1 -77.078186 -34.284099  1.675116
 8583 1 -75.856880 -33.559660  1.675116
 8584 1 -78.282761 -36.428440  1.675116
 8585 1 -79.520797 -35.732978  1.675116
 8586 1 -79.537527 -34.313077  1.675116
 8587 1 -78.316222 -33.588637  1.675116
 8588 1 -80.742103 -36.457418  1.675116
 8589 1 -81.980139 -35.761956  1.675116
 8590 1 -81.996869 -34.342054  1.675116
 8591 1 -80.775563 -33.617615  1.675116
 8592 1 -83.201444 -36.486395  1.675116
 8593 1 -84.439480 -35.790933  1.675116
 8594 1 -84.456210 -34.371032  1.675116
 8595 1 -83.234905 -33.646592  1.675116
 8596 1 -85.660786 -36.515373  1.675116
 8597 1 -86.898822 -35.819911  1.675116
 8598 1 -86.915552 -34.400009  1.675116
 8599 1 -85.694246 -33.675570  1.675116
 8600 1 -88.120127 -36.544350  1.675116
 8601 1 -89.358163 -35.848888  1.675116
 8602 1 -89.374893 -34.428987  1.675116
 8603 1 -88.153588 -33.704547  1.675116
 8604 1  90.123571 -29.473821  1.675116
 8605 1  90.106841 -28.053919  1.675116
 8606 1  88.902266 -30.198260  1.675116
 8607 1  87.664230 -29.502798  1.675116
 8608 1  87.647500 -28.082897  1.675116
 8609 1  88.868805 -27.358457  1.675116
 8610 1  86.442924 -30.227238  1.675116
 8611 1  85.204888 -29.531776  1.675116
 8612 1  85.188158 -28.111874  1.675116
 8613 1  86.409464 -27.387435  1.675116
 8614 1  83.983583 -30.256215  1.675116
 8615 1  82.745547 -29.560753  1.675116
 8616 1  82.728817 -28.140852  1.675116
 8617 1  83.950122 -27.416413  1.675116
 8618 1  81.524241 -30.285193  1.675116
 8619 1  80.286205 -29.589731  1.675116
 8620 1  80.269475 -28.169830  1.675116
 8621 1  81.490781 -27.445390  1.675116
 8622 1  79.064900 -30.314171  1.675116
 8623 1  77.826864 -29.618709  1.675116
 8624 1  77.810134 -28.198807  1.675116
 8625 1  79.031439 -27.474368  1.675116
 8626 1  76.605558 -30.343148  1.675116
 8627 1  75.367523 -29.647686  1.675116
 8628 1  75.350792 -28.227785  1.675116
 8629 1  76.572098 -27.503345  1.675116
 8630 1  74.146217 -30.372126  1.675116
 8631 1  72.908181 -29.676664  1.675116
 8632 1  72.891451 -28.256762  1.675116
 8633 1  74.112757 -27.532323  1.675116
 8634 1  71.686876 -30.401103  1.675116
 8635 1  70.448840 -29.705641  1.675116
 8636 1  70.432109 -28.285740  1.675116
 8637 1  71.653415 -27.561300  1.675116
 8638 1  69.227534 -30.430081  1.675116
 8639 1  67.989498 -29.734619  1.675116
 8640 1  67.972768 -28.314718  1.675116
 8641 1  69.194074 -27.590278  1.675116
 8642 1  66.768193 -30.459058  1.675116
 8643 1  65.530157 -29.763597  1.675116
 8644 1  65.513427 -28.343695  1.675116
 8645 1  66.734732 -27.619256  1.675116
 8646 1  64.308851 -30.488036  1.675116
 8647 1  63.070815 -29.792574  1.675116
 8648 1  63.054085 -28.372673  1.675116
 8649 1  64.275391 -27.648233  1.675116
 8650 1  61.849510 -30.517014  1.675116
 8651 1  60.611474 -29.821552  1.675116
 8652 1  60.594744 -28.401650  1.675116
 8653 1  61.816049 -27.677211  1.675116
 8654 1  59.390168 -30.545991  1.675116
 8655 1  58.152133 -29.850529  1.675116
 8656 1  58.135402 -28.430628  1.675116
 8657 1  59.356708 -27.706188  1.675116
 8658 1  56.930827 -30.574969  1.675116
 8659 1  55.692791 -29.879507  1.675116
 8660 1  55.676061 -28.459605  1.675116
 8661 1  56.897366 -27.735166  1.675116
 8662 1  54.471485 -30.603946  1.675116
 8663 1  53.233450 -29.908484  1.675116
 8664 1  53.216719 -28.488583  1.675116
 8665 1  54.438025 -27.764143  1.675116
 8666 1  52.012144 -30.632924  1.675116
 8667 1  50.774108 -29.937462  1.675116
 8668 1  50.757378 -28.517561  1.675116
 8669 1  51.978684 -27.793121  1.675116
 8670 1  49.552803 -30.661902  1.675116
 8671 1  48.314767 -29.966440  1.675116
 8672 1  48.298037 -28.546538  1.675116
 8673 1  49.519342 -27.822099  1.675116
 8674 1  47.093461 -30.690879  1.675116
 8675 1  45.855425 -29.995417  1.675116
 8676 1  45.838695 -28.575516  1.675116
 8677 1  47.060001 -27.851076  1.675116
 8678 1  44.634120 -30.719857  1.675116
 8679 1  43.396084 -30.024395  1.675116
 8680 1  43.379354 -28.604493  1.675116
 8681 1  44.600659 -27.880054  1.675116
 8682 1  42.174778 -30.748834  1.675116
 8683 1  40.936742 -30.053372  1.675116
 8684 1  40.920012 -28.633471  1.675116
 8685 1  42.141318 -27.909031  1.675116
 8686 1  39.715437 -30.777812  1.675116
 8687 1  38.477401 -30.082350  1.675116
 8688 1  38.460671 -28.662448  1.675116
 8689 1  39.681976 -27.938009  1.675116
 8690 1  37.256095 -30.806789  1.675116
 8691 1  36.018060 -30.111327  1.675116
 8692 1  36.001329 -28.691426  1.675116
 8693 1  37.222635 -27.966987  1.675116
 8694 1  34.796754 -30.835767  1.675116
 8695 1  33.558718 -30.140305  1.675116
 8696 1  33.541988 -28.720404  1.675116
 8697 1  34.763294 -27.995964  1.675116
 8698 1  32.337413 -30.864745  1.675116
 8699 1  31.099377 -30.169283  1.675116
 8700 1  31.082646 -28.749381  1.675116
 8701 1  32.303952 -28.024942  1.675116
 8702 1  29.878071 -30.893722  1.675116
 8703 1  28.640035 -30.198260  1.675116
 8704 1  28.623305 -28.778359  1.675116
 8705 1  29.844611 -28.053919  1.675116
 8706 1  27.418730 -30.922700  1.675116
 8707 1  26.180694 -30.227238  1.675116
 8708 1  26.163964 -28.807336  1.675116
 8709 1  27.385269 -28.082897  1.675116
 8710 1  24.959388 -30.951677  1.675116
 8711 1  23.721352 -30.256215  1.675116
 8712 1  23.704622 -28.836314  1.675116
 8713 1  24.925928 -28.111874  1.675116
 8714 1  22.500047 -30.980655  1.675116
 8715 1  21.262011 -30.285193  1.675116
 8716 1  21.245281 -28.865292  1.675116
 8717 1  22.466586 -28.140852  1.675116
 8718 1  20.040705 -31.009632  1.675116
 8719 1  18.802670 -30.314171  1.675116
 8720 1  18.785939 -28.894269  1.675116
 8721 1  20.007245 -28.169830  1.675116
 8722 1  17.581364 -31.038610  1.675116
 8723 1  16.343328 -30.343148  1.675116
 8724 1  16.326598 -28.923247  1.675116
 8725 1  17.547903 -28.198807  1.675116
 8726 1  15.122022 -31.067588  1.675116
 8727 1  13.883987 -30.372126  1.675116
 8728 1  13.867256 -28.952224  1.675116
 8729 1  15.088562 -28.227785  1.675116
 8730 1  12.662681 -31.096565  1.675116
 8731 1  11.424645 -30.401103  1.675116
 8732 1  11.407915 -28.981202  1.675116
 8733 1  12.629221 -28.256762  1.675116
 8734 1  10.203340 -31.125543  1.675116
 8735 1   8.965304 -30.430081  1.675116
 8736 1   8.948574 -29.010179  1.675116
 8737 1  10.169879 -28.285740  1.675116
 8738 1   7.743998 -31.154520  1.675116
 8739 1   6.505962 -30.459058  1.675116
 8740 1   6.489232 -29.039157  1.675116
 8741 1   7.710538 -28.314718  1.675116
 8742 1   5.284657 -31.183498  1.675116
 8743 1   4.046621 -30.488036  1.675116
 8744 1   4.029891 -29.068135  1.675116
 8745 1   5.251196 -28.343695  1.675116
 8746 1   2.825315 -31.212476  1.675116
 8747 1   1.587279 -30.517014  1.675116
 8748 1   1.570549 -29.097112  1.675116
 8749 1   2.791855 -28.372673  1.675116
 8750 1   0.365974 -31.241453  1.675116
 8751 1  -0.872062 -30.545991  1.675116
 8752 1  -0.888792 -29.126090  1.675116
 8753 1   0.332513 -28.401650  1.675116
 8754 1  -2.093368 -31.270431  1.675116
 8755 1  -3.331403 -30.574969  1.675116
 8756 1  -3.348134 -29.155067  1.675116
 8757 1  -2.126828 -28.430628  1.675116
 8758 1  -4.552709 -31.299408  1.675116
 8759 1  -5.790745 -30.603946  1.675116
 8760 1  -5.807475 -29.184045  1.675116
 8761 1  -4.586169 -28.459605  1.675116
 8762 1  -7.012050 -31.328386  1.675116
 8763 1  -8.250086 -30.632924  1.675116
 8764 1  -8.266816 -29.213022  1.675116
 8765 1  -7.045511 -28.488583  1.675116
 8766 1  -9.471392 -31.357363  1.675116
 8767 1 -10.709428 -30.661902  1.675116
 8768 1 -10.726158 -29.242000  1.675116
 8769 1  -9.504852 -28.517561  1.675116
 8770 1 -11.930733 -31.386341  1.675116
 8771 1 -13.168769 -30.690879  1.675116
 8772 1 -13.185499 -29.270978  1.675116
 8773 1 -11.964194 -28.546538  1.675116
 8774 1 -14.390075 -31.415319  1.675116
 8775 1 -15.628111 -30.719857  1.675116
 8776 1 -15.644841 -29.299955  1.675116
 8777 1 -14.423535 -28.575516  1.675116
 8778 1 -16.849416 -31.444296  1.675116
 8779 1 -18.087452 -30.748834  1.675116
 8780 1 -18.104182 -29.328933  1.675116
 8781 1 -16.882877 -28.604493  1.675116
 8782 1 -19.308758 -31.473274  1.675116
 8783 1 -20.546793 -30.777812  1.675116
 8784 1 -20.563524 -29.357910  1.675116
 8785 1 -19.342218 -28.633471  1.675116
 8786 1 -21.768099 -31.502251  1.675116
 8787 1 -23.006135 -30.806789  1.675116
 8788 1 -23.022865 -29.386888  1.675116
 8789 1 -21.801559 -28.662448  1.675116
 8790 1 -24.227440 -31.531229  1.675116
 8791 1 -25.465476 -30.835767  1.675116
 8792 1 -25.482207 -29.415866  1.675116
 8793 1 -24.260901 -28.691426  1.675116
 8794 1 -26.686782 -31.560207  1.675116
 8795 1 -27.924818 -30.864745  1.675116
 8796 1 -27.941548 -29.444843  1.675116
 8797 1 -26.720242 -28.720404  1.675116
 8798 1 -29.146123 -31.589184  1.675116
 8799 1 -30.384159 -30.893722  1.675116
 8800 1 -30.400889 -29.473821  1.675116
 8801 1 -29.179584 -28.749381  1.675116
 8802 1 -31.605465 -31.618162  1.675116
 8803 1 -32.843501 -30.922700  1.675116
 8804 1 -32.860231 -29.502798  1.675116
 8805 1 -31.638925 -28.778359  1.675116
 8806 1 -34.064806 -31.647139  1.675116
 8807 1 -35.302842 -30.951677  1.675116
 8808 1 -35.319572 -29.531776  1.675116
 8809 1 -34.098267 -28.807336  1.675116
 8810 1 -36.524148 -31.676117  1.675116
 8811 1 -37.762184 -30.980655  1.675116
 8812 1 -37.778914 -29.560753  1.675116
 8813 1 -36.557608 -28.836314  1.675116
 8814 1 -38.983489 -31.705094  1.675116
 8815 1 -40.221525 -31.009632  1.675116
 8816 1 -40.238255 -29.589731  1.675116
 8817 1 -39.016950 -28.865292  1.675116
 8818 1 -41.442831 -31.734072  1.675116
 8819 1 -42.680866 -31.038610  1.675116
 8820 1 -42.697597 -29.618709  1.675116
 8821 1 -41.476291 -28.894269  1.675116
 8822 1 -43.902172 -31.763050  1.675116
 8823 1 -45.140208 -31.067588  1.675116
 8824 1 -45.156938 -29.647686  1.675116
 8825 1 -43.935632 -28.923247  1.675116
 8826 1 -46.361513 -31.792027  1.675116
 8827 1 -47.599549 -31.096565  1.675116
 8828 1 -47.616279 -29.676664  1.675116
 8829 1 -46.394974 -28.952224  1.675116
 8830 1 -48.820855 -31.821005  1.675116
 8831 1 -50.058891 -31.125543  1.675116
 8832 1 -50.075621 -29.705641  1.675116
 8833 1 -48.854315 -28.981202  1.675116
 8834 1 -51.280196 -31.849982  1.675116
 8835 1 -52.518232 -31.154520  1.675116
 8836 1 -52.534962 -29.734619  1.675116
 8837 1 -51.313657 -29.010179  1.675116
 8838 1 -53.739538 -31.878960  1.675116
 8839 1 -54.977574 -31.183498  1.675116
 8840 1 -54.994304 -29.763597  1.675116
 8841 1 -53.772998 -29.039157  1.675116
 8842 1 -56.198879 -31.907937  1.675116
 8843 1 -57.436915 -31.212476  1.675116
 8844 1 -57.453645 -29.792574  1.675116
 8845 1 -56.232340 -29.068135  1.675116
 8846 1 -58.658221 -31.936915  1.675116
 8847 1 -59.896256 -31.241453  1.675116
 8848 1 -59.912987 -29.821552  1.675116
 8849 1 -58.691681 -29.097112  1.675116
 8850 1 -61.117562 -31.965893  1.675116
 8851 1 -62.355598 -31.270431  1.675116
 8852 1 -62.372328 -29.850529  1.675116
 8853 1 -61.151022 -29.126090  1.675116
 8854 1 -63.576903 -31.994870  1.675116
 8855 1 -64.814939 -31.299408  1.675116
 8856 1 -64.831670 -29.879507  1.675116
 8857 1 -63.610364 -29.155067  1.675116
 8858 1 -66.036245 -32.023848  1.675116
 8859 1 -67.274281 -31.328386  1.675116
 8860 1 -67.291011 -29.908484  1.675116
 8861 1 -66.069705 -29.184045  1.675116
 8862 1 -68.495586 -32.052825  1.675116
 8863 1 -69.733622 -31.357363  1.675116
 8864 1 -69.750352 -29.937462  1.675116
 8865 1 -68.529047 -29.213022  1.675116
 8866 1 -70.954928 -32.081803  1.675116
 8867 1 -72.192964 -31.386341  1.675116
 8868 1 -72.209694 -29.966440  1.675116
 8869 1 -70.988388 -29.242000  1.675116
 8870 1 -73.414269 -32.110781  1.675116
 8871 1 -74.652305 -31.415319  1.675116
 8872 1 -74.669035 -29.995417  1.675116
 8873 1 -73.447730 -29.270978  1.675116
 8874 1 -75.873611 -32.139758  1.675116
 8875 1 -77.111646 -31.444296  1.675116
 8876 1 -77.128377 -30.024395  1.675116
 8877 1 -75.907071 -29.299955  1.675116
 8878 1 -78.332952 -32.168736  1.675116
 8879 1 -79.570988 -31.473274  1.675116
 8880 1 -79.587718 -30.053372  1.675116
 8881 1 -78.366413 -29.328933  1.675116
 8882 1 -80.792294 -32.197713  1.675116
 8883 1 -82.030329 -31.502251  1.675116
 8884 1 -82.047060 -30.082350  1.675116
 8885 1 -80.825754 -29.357910  1.675116
 8886 1 -83.251635 -32.226691  1.675116
 8887 1 -84.489671 -31.531229  1.675116
 8888 1 -84.506401 -30.111327  1.675116
 8889 1 -83.285095 -29.386888  1.675116
 8890 1 -85.710976 -32.255668  1.675116
 8891 1 -86.949012 -31.560207  1.675116
 8892 1 -86.965742 -30.140305  1.675116
 8893 1 -85.744437 -29.415866  1.675116
 8894 1 -88.170318 -32.284646  1.675116
 8895 1 -89.408354 -31.589184  1.675116
 8896 1 -89.425084 -30.169283  1.675116
 8897 1 -88.203778 -29.444843  1.675116
 8898 1  90.073381 -25.214116  1.675116
 8899 1  90.056650 -23.794215  1.675116
 8900 1  88.852075 -25.938556  1.675116
 8901 1  87.614039 -25.243094  1.675116
 8902 1  87.597309 -23.823193  1.675116
 8903 1  88.818614 -23.098753  1.675116
 8904 1  86.392733 -25.967533  1.675116
 8905 1  85.154698 -25.272072  1.675116
 8906 1  85.137967 -23.852170  1.675116
 8907 1  86.359273 -23.127731  1.675116
 8908 1  83.933392 -25.996511  1.675116
 8909 1  82.695356 -25.301049  1.675116
 8910 1  82.678626 -23.881148  1.675116
 8911 1  83.899932 -23.156708  1.675116
 8912 1  81.474051 -26.025489  1.675116
 8913 1  80.236015 -25.330027  1.675116
 8914 1  80.219285 -23.910125  1.675116
 8915 1  81.440590 -23.185686  1.675116
 8916 1  79.014709 -26.054466  1.675116
 8917 1  77.776673 -25.359004  1.675116
 8918 1  77.759943 -23.939103  1.675116
 8919 1  78.981249 -23.214663  1.675116
 8920 1  76.555368 -26.083444  1.675116
 8921 1  75.317332 -25.387982  1.675116
 8922 1  75.300602 -23.968080  1.675116
 8923 1  76.521907 -23.243641  1.675116
 8924 1  74.096026 -26.112421  1.675116
 8925 1  72.857990 -25.416959  1.675116
 8926 1  72.841260 -23.997058  1.675116
 8927 1  74.062566 -23.272619  1.675116
 8928 1  71.636685 -26.141399  1.675116
 8929 1  70.398649 -25.445937  1.675116
 8930 1  70.381919 -24.026036  1.675116
 8931 1  71.603224 -23.301596  1.675116
 8932 1  69.177343 -26.170377  1.675116
 8933 1  67.939308 -25.474915  1.675116
 8934 1  67.922577 -24.055013  1.675116
 8935 1  69.143883 -23.330574  1.675116
 8936 1  66.718002 -26.199354  1.675116
 8937 1  65.479966 -25.503892  1.675116
 8938 1  65.463236 -24.083991  1.675116
 8939 1  66.684542 -23.359551  1.675116
 8940 1  64.258661 -26.228332  1.675116
 8941 1  63.020625 -25.532870  1.675116
 8942 1  63.003895 -24.112968  1.675116
 8943 1  64.225200 -23.388529  1.675116
 8944 1  61.799319 -26.257309  1.675116
 8945 1  60.561283 -25.561847  1.675116
 8946 1  60.544553 -24.141946  1.675116
 8947 1  61.765859 -23.417506  1.675116
 8948 1  59.339978 -26.286287  1.675116
 8949 1  58.101942 -25.590825  1.675116
 8950 1  58.085212 -24.170924  1.675116
 8951 1  59.306517 -23.446484  1.675116
 8952 1  56.880636 -26.315264  1.675116
 8953 1  55.642600 -25.619803  1.675116
 8954 1  55.625870 -24.199901  1.675116
 8955 1  56.847176 -23.475462  1.675116
 8956 1  54.421295 -26.344242  1.675116
 8957 1  53.183259 -25.648780  1.675116
 8958 1  53.166529 -24.228879  1.675116
 8959 1  54.387834 -23.504439  1.675116
 8960 1  51.961953 -26.373220  1.675116
 8961 1  50.723918 -25.677758  1.675116
 8962 1  50.707187 -24.257856  1.675116
 8963 1  51.928493 -23.533417  1.675116
 8964 1  49.502612 -26.402197  1.675116
 8965 1  48.264576 -25.706735  1.675116
 8966 1  48.247846 -24.286834  1.675116
 8967 1  49.469152 -23.562394  1.675116
 8968 1  47.043271 -26.431175  1.675116
 8969 1  45.805235 -25.735713  1.675116
 8970 1  45.788504 -24.315811  1.675116
 8971 1  47.009810 -23.591372  1.675116
 8972 1  44.583929 -26.460152  1.675116
 8973 1  43.345893 -25.764690  1.675116
 8974 1  43.329163 -24.344789  1.675116
 8975 1  44.550469 -23.620349  1.675116
 8976 1  42.124588 -26.489130  1.675116
 8977 1  40.886552 -25.793668  1.675116
 8978 1  40.869822 -24.373767  1.675116
 8979 1  42.091127 -23.649327  1.675116
 8980 1  39.665246 -26.518108  1.675116
 8981 1  38.427210 -25.822646  1.675116
 8982 1  38.410480 -24.402744  1.675116
 8983 1  39.631786 -23.678305  1.675116
 8984 1  37.205905 -26.547085  1.675116
 8985 1  35.967869 -25.851623  1.675116
 8986 1  35.951139 -24.431722  1.675116
 8987 1  37.172444 -23.707282  1.675116
 8988 1  34.746563 -26.576063  1.675116
 8989 1  33.508528 -25.880601  1.675116
 8990 1  33.491797 -24.460699  1.675116
 8991 1  34.713103 -23.736260  1.675116
 8992 1  32.287222 -26.605040  1.675116
 8993 1  31.049186 -25.909578  1.675116
 8994 1  31.032456 -24.489677  1.675116
 8995 1  32.253761 -23.765237  1.675116
 8996 1  29.827880 -26.634018  1.675116
 8997 1  28.589845 -25.938556  1.675116
 8998 1  28.573114 -24.518654  1.675116
 8999 1  29.794420 -23.794215  1.675116
 9000 1  27.368539 -26.662995  1.675116
 9001 1  26.130503 -25.967533  1.675116
 9002 1  26.113773 -24.547632  1.675116
 9003 1  27.335079 -23.823193  1.675116
 9004 1  24.909198 -26.691973  1.675116
 9005 1  23.671162 -25.996511  1.675116
 9006 1  23.654432 -24.576610  1.675116
 9007 1  24.875737 -23.852170  1.675116
 9008 1  22.449856 -26.720951  1.675116
 9009 1  21.211820 -26.025489  1.675116
 9010 1  21.195090 -24.605587  1.675116
 9011 1  22.416396 -23.881148  1.675116
 9012 1  19.990515 -26.749928  1.675116
 9013 1  18.752479 -26.054466  1.675116
 9014 1  18.735749 -24.634565  1.675116
 9015 1  19.957054 -23.910125  1.675116
 9016 1  17.531173 -26.778906  1.675116
 9017 1  16.293137 -26.083444  1.675116
 9018 1  16.276407 -24.663542  1.675116
 9019 1  17.497713 -23.939103  1.675116
 9020 1  15.071832 -26.807883  1.675116
 9021 1  13.833796 -26.112421  1.675116
 9022 1  13.817066 -24.692520  1.675116
 9023 1  15.038371 -23.968080  1.675116
 9024 1  12.612490 -26.836861  1.675116
 9025 1  11.374455 -26.141399  1.675116
 9026 1  11.357724 -24.721498  1.675116
 9027 1  12.579030 -23.997058  1.675116
 9028 1  10.153149 -26.865838  1.675116
 9029 1   8.915113 -26.170377  1.675116
 9030 1   8.898383 -24.750475  1.675116
 9031 1  10.119689 -24.026036  1.675116
 9032 1   7.693808 -26.894816  1.675116
 9033 1   6.455772 -26.199354  1.675116
 9034 1   6.439041 -24.779453  1.675116
 9035 1   7.660347 -24.055013  1.675116
 9036 1   5.234466 -26.923794  1.675116
 9037 1   3.996430 -26.228332  1.675116
 9038 1   3.979700 -24.808430  1.675116
 9039 1   5.201006 -24.083991  1.675116
 9040 1   2.775125 -26.952771  1.675116
 9041 1   1.537089 -26.257309  1.675116
 9042 1   1.520359 -24.837408  1.675116
 9043 1   2.741664 -24.112968  1.675116
 9044 1   0.315783 -26.981749  1.675116
 9045 1  -0.922253 -26.286287  1.675116
 9046 1  -0.938983 -24.866385  1.675116
 9047 1   0.282323 -24.141946  1.675116
 9048 1  -2.143558 -27.010726  1.675116
 9049 1  -3.381594 -26.315264  1.675116
 9050 1  -3.398324 -24.895363  1.675116
 9051 1  -2.177019 -24.170924  1.675116
 9052 1  -4.602900 -27.039704  1.675116
 9053 1  -5.840935 -26.344242  1.675116
 9054 1  -5.857666 -24.924341  1.675116
 9055 1  -4.636360 -24.199901  1.675116
 9056 1  -7.062241 -27.068682  1.675116
 9057 1  -8.300277 -26.373220  1.675116
 9058 1  -8.317007 -24.953318  1.675116
 9059 1  -7.095702 -24.228879  1.675116
 9060 1  -9.521583 -27.097659  1.675116
 9061 1 -10.759618 -26.402197  1.675116
 9062 1 -10.776349 -24.982296  1.675116
 9063 1  -9.555043 -24.257856  1.675116
 9064 1 -11.980924 -27.126637  1.675116
 9065 1 -13.218960 -26.431175  1.675116
 9066 1 -13.235690 -25.011273  1.675116
 9067 1 -12.014384 -24.286834  1.675116
 9068 1 -14.440265 -27.155614  1.675116
 9069 1 -15.678301 -26.460152  1.675116
 9070 1 -15.695031 -25.040251  1.675116
 9071 1 -14.473726 -24.315811  1.675116
 9072 1 -16.899607 -27.184592  1.675116
 9073 1 -18.137643 -26.489130  1.675116
 9074 1 -18.154373 -25.069229  1.675116
 9075 1 -16.933067 -24.344789  1.675116
 9076 1 -19.358948 -27.213569  1.675116
 9077 1 -20.596984 -26.518108  1.675116
 9078 1 -20.613714 -25.098206  1.675116
 9079 1 -19.392409 -24.373767  1.675116
 9080 1 -21.818290 -27.242547  1.675116
 9081 1 -23.056326 -26.547085  1.675116
 9082 1 -23.073056 -25.127184  1.675116
 9083 1 -21.851750 -24.402744  1.675116
 9084 1 -24.277631 -27.271525  1.675116
 9085 1 -25.515667 -26.576063  1.675116
 9086 1 -25.532397 -25.156161  1.675116
 9087 1 -24.311092 -24.431722  1.675116
 9088 1 -26.736973 -27.300502  1.675116
 9089 1 -27.975008 -26.605040  1.675116
 9090 1 -27.991739 -25.185139  1.675116
 9091 1 -26.770433 -24.460699  1.675116
 9092 1 -29.196314 -27.329480  1.675116
 9093 1 -30.434350 -26.634018  1.675116
 9094 1 -30.451080 -25.214116  1.675116
 9095 1 -29.229774 -24.489677  1.675116
 9096 1 -31.655655 -27.358457  1.675116
 9097 1 -32.893691 -26.662995  1.675116
 9098 1 -32.910421 -25.243094  1.675116
 9099 1 -31.689116 -24.518654  1.675116
 9100 1 -34.114997 -27.387435  1.675116
 9101 1 -35.353033 -26.691973  1.675116
 9102 1 -35.369763 -25.272072  1.675116
 9103 1 -34.148457 -24.547632  1.675116
 9104 1 -36.574338 -27.416413  1.675116
 9105 1 -37.812374 -26.720951  1.675116
 9106 1 -37.829104 -25.301049  1.675116
 9107 1 -36.607799 -24.576610  1.675116
 9108 1 -39.033680 -27.445390  1.675116
 9109 1 -40.271716 -26.749928  1.675116
 9110 1 -40.288446 -25.330027  1.675116
 9111 1 -39.067140 -24.605587  1.675116
 9112 1 -41.493021 -27.474368  1.675116
 9113 1 -42.731057 -26.778906  1.675116
 9114 1 -42.747787 -25.359004  1.675116
 9115 1 -41.526482 -24.634565  1.675116
 9116 1 -43.952363 -27.503345  1.675116
 9117 1 -45.190398 -26.807883  1.675116
 9118 1 -45.207129 -25.387982  1.675116
 9119 1 -43.985823 -24.663542  1.675116
 9120 1 -46.411704 -27.532323  1.675116
 9121 1 -47.649740 -26.836861  1.675116
 9122 1 -47.666470 -25.416959  1.675116
 9123 1 -46.445164 -24.692520  1.675116
 9124 1 -48.871046 -27.561300  1.675116
 9125 1 -50.109081 -26.865838  1.675116
 9126 1 -50.125812 -25.445937  1.675116
 9127 1 -48.904506 -24.721498  1.675116
 9128 1 -51.330387 -27.590278  1.675116
 9129 1 -52.568423 -26.894816  1.675116
 9130 1 -52.585153 -25.474915  1.675116
 9131 1 -51.363847 -24.750475  1.675116
 9132 1 -53.789728 -27.619256  1.675116
 9133 1 -55.027764 -26.923794  1.675116
 9134 1 -55.044494 -25.503892  1.675116
 9135 1 -53.823189 -24.779453  1.675116
 9136 1 -56.249070 -27.648233  1.675116
 9137 1 -57.487106 -26.952771  1.675116
 9138 1 -57.503836 -25.532870  1.675116
 9139 1 -56.282530 -24.808430  1.675116
 9140 1 -58.708411 -27.677211  1.675116
 9141 1 -59.946447 -26.981749  1.675116
 9142 1 -59.963177 -25.561847  1.675116
 9143 1 -58.741872 -24.837408  1.675116
 9144 1 -61.167753 -27.706188  1.675116
 9145 1 -62.405789 -27.010726  1.675116
 9146 1 -62.422519 -25.590825  1.675116
 9147 1 -61.201213 -24.866385  1.675116
 9148 1 -63.627094 -27.735166  1.675116
 9149 1 -64.865130 -27.039704  1.675116
 9150 1 -64.881860 -25.619803  1.675116
 9151 1 -63.660555 -24.895363  1.675116
 9152 1 -66.086436 -27.764143  1.675116
 9153 1 -67.324471 -27.068682  1.675116
 9154 1 -67.341202 -25.648780  1.675116
 9155 1 -66.119896 -24.924341  1.675116
 9156 1 -68.545777 -27.793121  1.675116
 9157 1 -69.783813 -27.097659  1.675116
 9158 1 -69.800543 -25.677758  1.675116
 9159 1 -68.579237 -24.953318  1.675116
 9160 1 -71.005118 -27.822099  1.675116
 9161 1 -72.243154 -27.126637  1.675116
 9162 1 -72.259884 -25.706735  1.675116
 9163 1 -71.038579 -24.982296  1.675116
 9164 1 -73.464460 -27.851076  1.675116
 9165 1 -74.702496 -27.155614  1.675116
 9166 1 -74.719226 -25.735713  1.675116
 9167 1 -73.497920 -25.011273  1.675116
 9168 1 -75.923801 -27.880054  1.675116
 9169 1 -77.161837 -27.184592  1.675116
 9170 1 -77.178567 -25.764690  1.675116
 9171 1 -75.957262 -25.040251  1.675116
 9172 1 -78.383143 -27.909031  1.675116
 9173 1 -79.621179 -27.213569  1.675116
 9174 1 -79.637909 -25.793668  1.675116
 9175 1 -78.416603 -25.069229  1.675116
 9176 1 -80.842484 -27.938009  1.675116
 9177 1 -82.080520 -27.242547  1.675116
 9178 1 -82.097250 -25.822646  1.675116
 9179 1 -80.875945 -25.098206  1.675116
 9180 1 -83.301826 -27.966987  1.675116
 9181 1 -84.539861 -27.271525  1.675116
 9182 1 -84.556592 -25.851623  1.675116
 9183 1 -83.335286 -25.127184  1.675116
 9184 1 -85.761167 -27.995964  1.675116
 9185 1 -86.999203 -27.300502  1.675116
 9186 1 -87.015933 -25.880601  1.675116
 9187 1 -85.794627 -25.156161  1.675116
 9188 1 -88.220508 -28.024942  1.675116
 9189 1 -89.458544 -27.329480  1.675116
 9190 1 -89.475275 -25.909578  1.675116
 9191 1 -88.253969 -25.185139  1.675116
 9192 1  90.023190 -20.954412  1.675116
 9193 1  90.006460 -19.534511  1.675116
 9194 1  88.801884 -21.678852  1.675116
 9195 1  87.563848 -20.983390  1.675116
 9196 1  87.547118 -19.563488  1.675116
 9197 1  88.768424 -18.839049  1.675116
 9198 1  86.342543 -21.707829  1.675116
 9199 1  85.104507 -21.012367  1.675116
 9200 1  85.087777 -19.592466  1.675116
 9201 1  86.309082 -18.868026  1.675116
 9202 1  83.883201 -21.736807  1.675116
 9203 1  82.645166 -21.041345  1.675116
 9204 1  82.628435 -19.621443  1.675116
 9205 1  83.849741 -18.897004  1.675116
 9206 1  81.423860 -21.765784  1.675116
 9207 1  80.185824 -21.070322  1.675116
 9208 1  80.169094 -19.650421  1.675116
 9209 1  81.390400 -18.925981  1.675116
 9210 1  78.964519 -21.794762  1.675116
 9211 1  77.726483 -21.099300  1.675116
 9212 1  77.709752 -19.679399  1.675116
 9213 1  78.931058 -18.954959  1.675116
 9214 1  76.505177 -21.823739  1.675116
 9215 1  75.267141 -21.128278  1.675116
 9216 1  75.250411 -19.708376  1.675116
 9217 1  76.471717 -18.983937  1.675116
 9218 1  74.045836 -21.852717  1.675116
 9219 1  72.807800 -21.157255  1.675116
 9220 1  72.791070 -19.737354  1.675116
 9221 1  74.012375 -19.012914  1.675116
 9222 1  71.586494 -21.881695  1.675116
 9223 1  70.348458 -21.186233  1.675116
 9224 1  70.331728 -19.766331  1.675116
 9225 1  71.553034 -19.041892  1.675116
 9226 1  69.127153 -21.910672  1.675116
 9227 1  67.889117 -21.215210  1.675116
 9228 1  67.872387 -19.795309  1.675116
 9229 1  69.093692 -19.070869  1.675116
 9230 1  66.667811 -21.939650  1.675116
 9231 1  65.429776 -21.244188  1.675116
 9232 1  65.413045 -19.824286  1.675116
 9233 1  66.634351 -19.099847  1.675116
 9234 1  64.208470 -21.968627  1.675116
 9235 1  62.970434 -21.273165  1.675116
 9236 1  62.953704 -19.853264  1.675116
 9237 1  64.175009 -19.128825  1.675116
 9238 1  61.749128 -21.997605  1.675116
 9239 1  60.511093 -21.302143  1.675116
 9240 1  60.494362 -19.882242  1.675116
 9241 1  61.715668 -19.157802  1.675116
 9242 1  59.289787 -22.026583  1.675116
 9243 1  58.051751 -21.331121  1.675116
 9244 1  58.035021 -19.911219  1.675116
 9245 1  59.256327 -19.186780  1.675116
 9246 1  56.830446 -22.055560  1.675116
 9247 1  55.592410 -21.360098  1.675116
 9248 1  55.575680 -19.940197  1.675116
 9249 1  56.796985 -19.215757  1.675116
 9250 1  54.371104 -22.084538  1.675116
 9251 1  53.133068 -21.389076  1.675116
 9252 1  53.116338 -19.969174  1.675116
 9253 1  54.337644 -19.244735  1.675116
 9254 1  51.911763 -22.113515  1.675116
 9255 1  50.673727 -21.418053  1.675116
 9256 1  50.656997 -19.998152  1.675116
 9257 1  51.878302 -19.273712  1.675116
 9258 1  49.452421 -22.142493  1.675116
 9259 1  48.214385 -21.447031  1.675116
 9260 1  48.197655 -20.027130  1.675116
 9261 1  49.418961 -19.302690  1.675116
 9262 1  46.993080 -22.171470  1.675116
 9263 1  45.755044 -21.476009  1.675116
 9264 1  45.738314 -20.056107  1.675116
 9265 1  46.959619 -19.331668  1.675116
 9266 1  44.533738 -22.200448  1.675116
 9267 1  43.295703 -21.504986  1.675116
 9268 1  43.278972 -20.085085  1.675116
 9269 1  44.500278 -19.360645  1.675116
 9270 1  42.074397 -22.229426  1.675116
 9271 1  40.836361 -21.533964  1.675116
 9272 1  40.819631 -20.114062  1.675116
 9273 1  42.040937 -19.389623  1.675116
 9274 1  39.615056 -22.258403  1.675116
 9275 1  38.377020 -21.562941  1.675116
 9276 1  38.360290 -20.143040  1.675116
 9277 1  39.581595 -19.418600  1.675116
 9278 1  37.155714 -22.287381  1.675116
 9279 1  35.917678 -21.591919  1.675116
 9280 1  35.900948 -20.172017  1.675116
 9281 1  37.122254 -19.447578  1.675116
 9282 1  34.696373 -22.316358  1.675116
 9283 1  33.458337 -21.620896  1.675116
 9284 1  33.441607 -20.200995  1.675116
 9285 1  34.662912 -19.476555  1.675116
 9286 1  32.237031 -22.345336  1.675116
 9287 1  30.998995 -21.649874  1.675116
 9288 1  30.982265 -20.229973  1.675116
 9289 1  32.203571 -19.505533  1.675116
 9290 1  29.777690 -22.374314  1.675116
 9291 1  28.539654 -21.678852  1.675116
 9292 1  28.522924 -20.258950  1.675116
 9293 1  29.744229 -19.534511  1.675116
 9294 1  27.318348 -22.403291  1.675116
 9295 1  26.080313 -21.707829  1.675116
 9296 1  26.063582 -20.287928  1.675116
 9297 1  27.284888 -19.563488  1.675116
 9298 1  24.859007 -22.432269  1.675116
 9299 1  23.620971 -21.736807  1.675116
 9300 1  23.604241 -20.316905  1.675116
 9301 1  24.825547 -19.592466  1.675116
 9302 1  22.399666 -22.461246  1.675116
 9303 1  21.161630 -21.765784  1.675116
 9304 1  21.144899 -20.345883  1.675116
 9305 1  22.366205 -19.621443  1.675116
 9306 1  19.940324 -22.490224  1.675116
 9307 1  18.702288 -21.794762  1.675116
 9308 1  18.685558 -20.374860  1.675116
 9309 1  19.906864 -19.650421  1.675116
 9310 1  17.480983 -22.519201  1.675116
 9311 1  16.242947 -21.823739  1.675116
 9312 1  16.226217 -20.403838  1.675116
 9313 1  17.447522 -19.679399  1.675116
 9314 1  15.021641 -22.548179  1.675116
 9315 1  13.783605 -21.852717  1.675116
 9316 1  13.766875 -20.432816  1.675116
 9317 1  14.988181 -19.708376  1.675116
 9318 1  12.562300 -22.577157  1.675116
 9319 1  11.324264 -21.881695  1.675116
 9320 1  11.307534 -20.461793  1.675116
 9321 1  12.528839 -19.737354  1.675116
 9322 1  10.102958 -22.606134  1.675116
 9323 1   8.864923 -21.910672  1.675116
 9324 1   8.848192 -20.490771  1.675116
 9325 1  10.069498 -19.766331  1.675116
 9326 1   7.643617 -22.635112  1.675116
 9327 1   6.405581 -21.939650  1.675116
 9328 1   6.388851 -20.519748  1.675116
 9329 1   7.610156 -19.795309  1.675116
 9330 1   5.184275 -22.664089  1.675116
 9331 1   3.946240 -21.968627  1.675116
 9332 1   3.929509 -20.548726  1.675116
 9333 1   5.150815 -19.824286  1.675116
 9334 1   2.724934 -22.693067  1.675116
 9335 1   1.486898 -21.997605  1.675116
 9336 1   1.470168 -20.577704  1.675116
 9337 1   2.691474 -19.853264  1.675116
 9338 1   0.265593 -22.722044  1.675116
 9339 1  -0.972443 -22.026583  1.675116
 9340 1  -0.989173 -20.606681  1.675116
 9341 1   0.232132 -19.882242  1.675116
 9342 1  -2.193749 -22.751022  1.675116
 9343 1  -3.431785 -22.055560  1.675116
 9344 1  -3.448515 -20.635659  1.675116
 9345 1  -2.227209 -19.911219  1.675116
 9346 1  -4.653090 -22.780000  1.675116
 9347 1  -5.891126 -22.084538  1.675116
 9348 1  -5.907856 -20.664636  1.675116
 9349 1  -4.686551 -19.940197  1.675116
 9350 1  -7.112432 -22.808977  1.675116
 9351 1  -8.350468 -22.113515  1.675116
 9352 1  -8.367198 -20.693614  1.675116
 9353 1  -7.145892 -19.969174  1.675116
 9354 1  -9.571773 -22.837955  1.675116
 9355 1 -10.809809 -22.142493  1.675116
 9356 1 -10.826539 -20.722591  1.675116
 9357 1  -9.605234 -19.998152  1.675116
 9358 1 -12.031115 -22.866932  1.675116
 9359 1 -13.269150 -22.171470  1.675116
 9360 1 -13.285881 -20.751569  1.675116
 9361 1 -12.064575 -20.027130  1.675116
 9362 1 -14.490456 -22.895910  1.675116
 9363 1 -15.728492 -22.200448  1.675116
 9364 1 -15.745222 -20.780547  1.675116
 9365 1 -14.523916 -20.056107  1.675116
 9366 1 -16.949797 -22.924888  1.675116
 9367 1 -18.187833 -22.229426  1.675116
 9368 1 -18.204564 -20.809524  1.675116
 9369 1 -16.983258 -20.085085  1.675116
 9370 1 -19.409139 -22.953865  1.675116
 9371 1 -20.647175 -22.258403  1.675116
 9372 1 -20.663905 -20.838502  1.675116
 9373 1 -19.442599 -20.114062  1.675116
 9374 1 -21.868480 -22.982843  1.675116
 9375 1 -23.106516 -22.287381  1.675116
 9376 1 -23.123246 -20.867479  1.675116
 9377 1 -21.901941 -20.143040  1.675116
 9378 1 -24.327822 -23.011820  1.675116
 9379 1 -25.565858 -22.316358  1.675116
 9380 1 -25.582588 -20.896457  1.675116
 9381 1 -24.361282 -20.172017  1.675116
 9382 1 -26.787163 -23.040798  1.675116
 9383 1 -28.025199 -22.345336  1.675116
 9384 1 -28.041929 -20.925435  1.675116
 9385 1 -26.820624 -20.200995  1.675116
 9386 1 -29.246505 -23.069775  1.675116
 9387 1 -30.484540 -22.374314  1.675116
 9388 1 -30.501271 -20.954412  1.675116
 9389 1 -29.279965 -20.229973  1.675116
 9390 1 -31.705846 -23.098753  1.675116
 9391 1 -32.943882 -22.403291  1.675116
 9392 1 -32.960612 -20.983390  1.675116
 9393 1 -31.739307 -20.258950  1.675116
 9394 1 -34.165188 -23.127731  1.675116
 9395 1 -35.403223 -22.432269  1.675116
 9396 1 -35.419954 -21.012367  1.675116
 9397 1 -34.198648 -20.287928  1.675116
 9398 1 -36.624529 -23.156708  1.675116
 9399 1 -37.862565 -22.461246  1.675116
 9400 1 -37.879295 -21.041345  1.675116
 9401 1 -36.657989 -20.316905  1.675116
 9402 1 -39.083870 -23.185686  1.675116
 9403 1 -40.321906 -22.490224  1.675116
 9404 1 -40.338636 -21.070322  1.675116
 9405 1 -39.117331 -20.345883  1.675116
 9406 1 -41.543212 -23.214663  1.675116
 9407 1 -42.781248 -22.519201  1.675116
 9408 1 -42.797978 -21.099300  1.675116
 9409 1 -41.576672 -20.374860  1.675116
 9410 1 -44.002553 -23.243641  1.675116
 9411 1 -45.240589 -22.548179  1.675116
 9412 1 -45.257319 -21.128278  1.675116
 9413 1 -44.036014 -20.403838  1.675116
 9414 1 -46.461895 -23.272619  1.675116
 9415 1 -47.699931 -22.577157  1.675116
 9416 1 -47.716661 -21.157255  1.675116
 9417 1 -46.495355 -20.432816  1.675116
 9418 1 -48.921236 -23.301596  1.675116
 9419 1 -50.159272 -22.606134  1.675116
 9420 1 -50.176002 -21.186233  1.675116
 9421 1 -48.954697 -20.461793  1.675116
 9422 1 -51.380578 -23.330574  1.675116
 9423 1 -52.618613 -22.635112  1.675116
 9424 1 -52.635344 -21.215210  1.675116
 9425 1 -51.414038 -20.490771  1.675116
 9426 1 -53.839919 -23.359551  1.675116
 9427 1 -55.077955 -22.664089  1.675116
 9428 1 -55.094685 -21.244188  1.675116
 9429 1 -53.873379 -20.519748  1.675116
 9430 1 -56.299260 -23.388529  1.675116
 9431 1 -57.537296 -22.693067  1.675116
 9432 1 -57.554026 -21.273165  1.675116
 9433 1 -56.332721 -20.548726  1.675116
 9434 1 -58.758602 -23.417506  1.675116
 9435 1 -59.996638 -22.722044  1.675116
 9436 1 -60.013368 -21.302143  1.675116
 9437 1 -58.792062 -20.577704  1.675116
 9438 1 -61.217943 -23.446484  1.675116
 9439 1 -62.455979 -22.751022  1.675116
 9440 1 -62.472709 -21.331121  1.675116
 9441 1 -61.251404 -20.606681  1.675116
 9442 1 -63.677285 -23.475462  1.675116
 9443 1 -64.915321 -22.780000  1.675116
 9444 1 -64.932051 -21.360098  1.675116
 9445 1 -63.710745 -20.635659  1.675116
 9446 1 -66.136626 -23.504439  1.675116
 9447 1 -67.374662 -22.808977  1.675116
 9448 1 -67.391392 -21.389076  1.675116
 9449 1 -66.170087 -20.664636  1.675116
 9450 1 -68.595968 -23.533417  1.675116
 9451 1 -69.834003 -22.837955  1.675116
 9452 1 -69.850734 -21.418053  1.675116
 9453 1 -68.629428 -20.693614  1.675116
 9454 1 -71.055309 -23.562394  1.675116
 9455 1 -72.293345 -22.866932  1.675116
 9456 1 -72.310075 -21.447031  1.675116
 9457 1 -71.088769 -20.722591  1.675116
 9458 1 -73.514651 -23.591372  1.675116
 9459 1 -74.752686 -22.895910  1.675116
 9460 1 -74.769417 -21.476009  1.675116
 9461 1 -73.548111 -20.751569  1.675116
 9462 1 -75.973992 -23.620349  1.675116
 9463 1 -77.212028 -22.924888  1.675116
 9464 1 -77.228758 -21.504986  1.675116
 9465 1 -76.007452 -20.780547  1.675116
 9466 1 -78.433333 -23.649327  1.675116
 9467 1 -79.671369 -22.953865  1.675116
 9468 1 -79.688099 -21.533964  1.675116
 9469 1 -78.466794 -20.809524  1.675116
 9470 1 -80.892675 -23.678305  1.675116
 9471 1 -82.130711 -22.982843  1.675116
 9472 1 -82.147441 -21.562941  1.675116
 9473 1 -80.926135 -20.838502  1.675116
 9474 1 -83.352016 -23.707282  1.675116
 9475 1 -84.590052 -23.011820  1.675116
 9476 1 -84.606782 -21.591919  1.675116
 9477 1 -83.385477 -20.867479  1.675116
 9478 1 -85.811358 -23.736260  1.675116
 9479 1 -87.049394 -23.040798  1.675116
 9480 1 -87.066124 -21.620896  1.675116
 9481 1 -85.844818 -20.896457  1.675116
 9482 1 -88.270699 -23.765237  1.675116
 9483 1 -89.508735 -23.069775  1.675116
 9484 1 -89.525465 -21.649874  1.675116
 9485 1 -88.304160 -20.925435  1.675116
 9486 1  89.972999 -16.694708  1.675116
 9487 1  89.956269 -15.274806  1.675116
 9488 1  88.751694 -17.419147  1.675116
 9489 1  87.513658 -16.723685  1.675116
 9490 1  87.496928 -15.303784  1.675116
 9491 1  88.718233 -14.579344  1.675116
 9492 1  86.292352 -17.448125  1.675116
 9493 1  85.054316 -16.752663  1.675116
 9494 1  85.037586 -15.332761  1.675116
 9495 1  86.258892 -14.608322  1.675116
 9496 1  83.833011 -17.477102  1.675116
 9497 1  82.594975 -16.781641  1.675116
 9498 1  82.578245 -15.361739  1.675116
 9499 1  83.799550 -14.637300  1.675116
 9500 1  81.373669 -17.506080  1.675116
 9501 1  80.135634 -16.810618  1.675116
 9502 1  80.118903 -15.390717  1.675116
 9503 1  81.340209 -14.666277  1.675116
 9504 1  78.914328 -17.535058  1.675116
 9505 1  77.676292 -16.839596  1.675116
 9506 1  77.659562 -15.419694  1.675116
 9507 1  78.880867 -14.695255  1.675116
 9508 1  76.454986 -17.564035  1.675116
 9509 1  75.216951 -16.868573  1.675116
 9510 1  75.200220 -15.448672  1.675116
 9511 1  76.421526 -14.724232  1.675116
 9512 1  73.995645 -17.593013  1.675116
 9513 1  72.757609 -16.897551  1.675116
 9514 1  72.740879 -15.477649  1.675116
 9515 1  73.962185 -14.753210  1.675116
 9516 1  71.536304 -17.621990  1.675116
 9517 1  70.298268 -16.926528  1.675116
 9518 1  70.281538 -15.506627  1.675116
 9519 1  71.502843 -14.782187  1.675116
 9520 1  69.076962 -17.650968  1.675116
 9521 1  67.838926 -16.955506  1.675116
 9522 1  67.822196 -15.535605  1.675116
 9523 1  69.043502 -14.811165  1.675116
 9524 1  66.617621 -17.679945  1.675116
 9525 1  65.379585 -16.984484  1.675116
 9526 1  65.362855 -15.564582  1.675116
 9527 1  66.584160 -14.840143  1.675116
 9528 1  64.158279 -17.708923  1.675116
 9529 1  62.920243 -17.013461  1.675116
 9530 1  62.903513 -15.593560  1.675116
 9531 1  64.124819 -14.869120  1.675116
 9532 1  61.698938 -17.737901  1.675116
 9533 1  60.460902 -17.042439  1.675116
 9534 1  60.444172 -15.622537  1.675116
 9535 1  61.665477 -14.898098  1.675116
 9536 1  59.239596 -17.766878  1.675116
 9537 1  58.001561 -17.071416  1.675116
 9538 1  57.984830 -15.651515  1.675116
 9539 1  59.206136 -14.927075  1.675116
 9540 1  56.780255 -17.795856  1.675116
 9541 1  55.542219 -17.100394  1.675116
 9542 1  55.525489 -15.680492  1.675116
 9543 1  56.746795 -14.956053  1.675116
 9544 1  54.320914 -17.824833  1.675116
 9545 1  53.082878 -17.129371  1.675116
 9546 1  53.066147 -15.709470  1.675116
 9547 1  54.287453 -14.985031  1.675116
 9548 1  51.861572 -17.853811  1.675116
 9549 1  50.623536 -17.158349  1.675116
 9550 1  50.606806 -15.738448  1.675116
 9551 1  51.828112 -15.014008  1.675116
 9552 1  49.402231 -17.882789  1.675116
 9553 1  48.164195 -17.187327  1.675116
 9554 1  48.147465 -15.767425  1.675116
 9555 1  49.368770 -15.042986  1.675116
 9556 1  46.942889 -17.911766  1.675116
 9557 1  45.704853 -17.216304  1.675116
 9558 1  45.688123 -15.796403  1.675116
 9559 1  46.909429 -15.071963  1.675116
 9560 1  44.483548 -17.940744  1.675116
 9561 1  43.245512 -17.245282  1.675116
 9562 1  43.228782 -15.825380  1.675116
 9563 1  44.450087 -15.100941  1.675116
 9564 1  42.024206 -17.969721  1.675116
 9565 1  40.786171 -17.274259  1.675116
 9566 1  40.769440 -15.854358  1.675116
 9567 1  41.990746 -15.129918  1.675116
 9568 1  39.564865 -17.998699  1.675116
 9569 1  38.326829 -17.303237  1.675116
 9570 1  38.310099 -15.883336  1.675116
 9571 1  39.531404 -15.158896  1.675116
 9572 1  37.105523 -18.027676  1.675116
 9573 1  35.867488 -17.332215  1.675116
 9574 1  35.850757 -15.912313  1.675116
 9575 1  37.072063 -15.187874  1.675116
 9576 1  34.646182 -18.056654  1.675116
 9577 1  33.408146 -17.361192  1.675116
 9578 1  33.391416 -15.941291  1.675116
 9579 1  34.612722 -15.216851  1.675116
 9580 1  32.186841 -18.085632  1.675116
 9581 1  30.948805 -17.390170  1.675116
 9582 1  30.932075 -15.970268  1.675116
 9583 1  32.153380 -15.245829  1.675116
 9584 1  29.727499 -18.114609  1.675116
 9585 1  28.489463 -17.419147  1.675116
 9586 1  28.472733 -15.999246  1.675116
 9587 1  29.694039 -15.274806  1.675116
 9588 1  27.268158 -18.143587  1.675116
 9589 1  26.030122 -17.448125  1.675116
 9590 1  26.013392 -16.028223  1.675116
 9591 1  27.234697 -15.303784  1.675116
 9592 1  24.808816 -18.172564  1.675116
 9593 1  23.570780 -17.477102  1.675116
 9594 1  23.554050 -16.057201  1.675116
 9595 1  24.775356 -15.332761  1.675116
 9596 1  22.349475 -18.201542  1.675116
 9597 1  21.111439 -17.506080  1.675116
 9598 1  21.094709 -16.086179  1.675116
 9599 1  22.316014 -15.361739  1.675116
 9600 1  19.890133 -18.230520  1.675116
 9601 1  18.652098 -17.535058  1.675116
 9602 1  18.635367 -16.115156  1.675116
 9603 1  19.856673 -15.390717  1.675116
 9604 1  17.430792 -18.259497  1.675116
 9605 1  16.192756 -17.564035  1.675116
 9606 1  16.176026 -16.144134  1.675116
 9607 1  17.397332 -15.419694  1.675116
 9608 1  14.971451 -18.288475  1.675116
 9609 1  13.733415 -17.593013  1.675116
 9610 1  13.716685 -16.173111  1.675116
 9611 1  14.937990 -15.448672  1.675116
 9612 1  12.512109 -18.317452  1.675116
 9613 1  11.274073 -17.621990  1.675116
 9614 1  11.257343 -16.202089  1.675116
 9615 1  12.478649 -15.477649  1.675116
 9616 1  10.052768 -18.346430  1.675116
 9617 1   8.814732 -17.650968  1.675116
 9618 1   8.798002 -16.231066  1.675116
 9619 1  10.019307 -15.506627  1.675116
 9620 1   7.593426 -18.375407  1.675116
 9621 1   6.355390 -17.679945  1.675116
 9622 1   6.338660 -16.260044  1.675116
 9623 1   7.559966 -15.535605  1.675116
 9624 1   5.134085 -18.404385  1.675116
 9625 1   3.896049 -17.708923  1.675116
 9626 1   3.879319 -16.289022  1.675116
 9627 1   5.100624 -15.564582  1.675116
 9628 1   2.674743 -18.433363  1.675116
 9629 1   1.436708 -17.737901  1.675116
 9630 1   1.419977 -16.317999  1.675116
 9631 1   2.641283 -15.593560  1.675116
 9632 1   0.215402 -18.462340  1.675116
 9633 1  -1.022634 -17.766878  1.675116
 9634 1  -1.039364 -16.346977  1.675116
 9635 1   0.181942 -15.622537  1.675116
 9636 1  -2.243939 -18.491318  1.675116
 9637 1  -3.481975 -17.795856  1.675116
 9638 1  -3.498706 -16.375954  1.675116
 9639 1  -2.277400 -15.651515  1.675116
 9640 1  -4.703281 -18.520295  1.675116
 9641 1  -5.941317 -17.824833  1.675116
 9642 1  -5.958047 -16.404932  1.675116
 9643 1  -4.736741 -15.680492  1.675116
 9644 1  -7.162622 -18.549273  1.675116
 9645 1  -8.400658 -17.853811  1.675116
 9646 1  -8.417388 -16.433910  1.675116
 9647 1  -7.196083 -15.709470  1.675116
 9648 1  -9.621964 -18.578250  1.675116
 9649 1 -10.860000 -17.882789  1.675116
 9650 1 -10.876730 -16.462887  1.675116
 9651 1  -9.655424 -15.738448  1.675116
 9652 1 -12.081305 -18.607228  1.675116
 9653 1 -13.319341 -17.911766  1.675116
 9654 1 -13.336071 -16.491865  1.675116
 9655 1 -12.114766 -15.767425  1.675116
 9656 1 -14.540647 -18.636206  1.675116
 9657 1 -15.778683 -17.940744  1.675116
 9658 1 -15.795413 -16.520842  1.675116
 9659 1 -14.574107 -15.796403  1.675116
 9660 1 -16.999988 -18.665183  1.675116
 9661 1 -18.238024 -17.969721  1.675116
 9662 1 -18.254754 -16.549820  1.675116
 9663 1 -17.033449 -15.825380  1.675116
 9664 1 -19.459330 -18.694161  1.675116
 9665 1 -20.697365 -17.998699  1.675116
 9666 1 -20.714096 -16.578797  1.675116
 9667 1 -19.492790 -15.854358  1.675116
 9668 1 -21.918671 -18.723138  1.675116
 9669 1 -23.156707 -18.027676  1.675116
 9670 1 -23.173437 -16.607775  1.675116
 9671 1 -21.952131 -15.883336  1.675116
 9672 1 -24.378012 -18.752116  1.675116
 9673 1 -25.616048 -18.056654  1.675116
 9674 1 -25.632778 -16.636753  1.675116
 9675 1 -24.411473 -15.912313  1.675116
 9676 1 -26.837354 -18.781094  1.675116
 9677 1 -28.075390 -18.085632  1.675116
 9678 1 -28.092120 -16.665730  1.675116
 9679 1 -26.870814 -15.941291  1.675116
 9680 1 -29.296695 -18.810071  1.675116
 9681 1 -30.534731 -18.114609  1.675116
 9682 1 -30.551461 -16.694708  1.675116
 9683 1 -29.330156 -15.970268  1.675116
 9684 1 -31.756037 -18.839049  1.675116
 9685 1 -32.994073 -18.143587  1.675116
 9686 1 -33.010803 -16.723685  1.675116
 9687 1 -31.789497 -15.999246  1.675116
 9688 1 -34.215378 -18.868026  1.675116
 9689 1 -35.453414 -18.172564  1.675116
 9690 1 -35.470144 -16.752663  1.675116
 9691 1 -34.248839 -16.028223  1.675116
 9692 1 -36.674720 -18.897004  1.675116
 9693 1 -37.912755 -18.201542  1.675116
 9694 1 -37.929486 -16.781641  1.675116
 9695 1 -36.708180 -16.057201  1.675116
 9696 1 -39.134061 -18.925981  1.675116
 9697 1 -40.372097 -18.230520  1.675116
 9698 1 -40.388827 -16.810618  1.675116
 9699 1 -39.167521 -16.086179  1.675116
 9700 1 -41.593402 -18.954959  1.675116
 9701 1 -42.831438 -18.259497  1.675116
 9702 1 -42.848169 -16.839596  1.675116
 9703 1 -41.626863 -16.115156  1.675116
 9704 1 -44.052744 -18.983937  1.675116
 9705 1 -45.290780 -18.288475  1.675116
 9706 1 -45.307510 -16.868573  1.675116
 9707 1 -44.086204 -16.144134  1.675116
 9708 1 -46.512085 -19.012914  1.675116
 9709 1 -47.750121 -18.317452  1.675116
 9710 1 -47.766851 -16.897551  1.675116
 9711 1 -46.545546 -16.173111  1.675116
 9712 1 -48.971427 -19.041892  1.675116
 9713 1 -50.209463 -18.346430  1.675116
 9714 1 -50.226193 -16.926528  1.675116
 9715 1 -49.004887 -16.202089  1.675116
 9716 1 -51.430768 -19.070869  1.675116
 9717 1 -52.668804 -18.375407  1.675116
 9718 1 -52.685534 -16.955506  1.675116
 9719 1 -51.464229 -16.231066  1.675116
 9720 1 -53.890110 -19.099847  1.675116
 9721 1 -55.128145 -18.404385  1.675116
 9722 1 -55.144876 -16.984484  1.675116
 9723 1 -53.923570 -16.260044  1.675116
 9724 1 -56.349451 -19.128825  1.675116
 9725 1 -57.587487 -18.433363  1.675116
 9726 1 -57.604217 -17.013461  1.675116
 9727 1 -56.382912 -16.289022  1.675116
 9728 1 -58.808793 -19.157802  1.675116
 9729 1 -60.046828 -18.462340  1.675116
 9730 1 -60.063559 -17.042439  1.675116
 9731 1 -58.842253 -16.317999  1.675116
 9732 1 -61.268134 -19.186780  1.675116
 9733 1 -62.506170 -18.491318  1.675116
 9734 1 -62.522900 -17.071416  1.675116
 9735 1 -61.301594 -16.346977  1.675116
 9736 1 -63.727475 -19.215757  1.675116
 9737 1 -64.965511 -18.520295  1.675116
 9738 1 -64.982241 -17.100394  1.675116
 9739 1 -63.760936 -16.375954  1.675116
 9740 1 -66.186817 -19.244735  1.675116
 9741 1 -67.424853 -18.549273  1.675116
 9742 1 -67.441583 -17.129371  1.675116
 9743 1 -66.220277 -16.404932  1.675116
 9744 1 -68.646158 -19.273712  1.675116
 9745 1 -69.884194 -18.578250  1.675116
 9746 1 -69.900924 -17.158349  1.675116
 9747 1 -68.679619 -16.433910  1.675116
 9748 1 -71.105500 -19.302690  1.675116
 9749 1 -72.343536 -18.607228  1.675116
 9750 1 -72.360266 -17.187327  1.675116
 9751 1 -71.138960 -16.462887  1.675116
 9752 1 -73.564841 -19.331668  1.675116
 9753 1 -74.802877 -18.636206  1.675116
 9754 1 -74.819607 -17.216304  1.675116
 9755 1 -73.598302 -16.491865  1.675116
 9756 1 -76.024183 -19.360645  1.675116
 9757 1 -77.262218 -18.665183  1.675116
 9758 1 -77.278949 -17.245282  1.675116
 9759 1 -76.057643 -16.520842  1.675116
 9760 1 -78.483524 -19.389623  1.675116
 9761 1 -79.721560 -18.694161  1.675116
 9762 1 -79.738290 -17.274259  1.675116
 9763 1 -78.516984 -16.549820  1.675116
 9764 1 -80.942865 -19.418600  1.675116
 9765 1 -82.180901 -18.723138  1.675116
 9766 1 -82.197631 -17.303237  1.675116
 9767 1 -80.976326 -16.578797  1.675116
 9768 1 -83.402207 -19.447578  1.675116
 9769 1 -84.640243 -18.752116  1.675116
 9770 1 -84.656973 -17.332215  1.675116
 9771 1 -83.435667 -16.607775  1.675116
 9772 1 -85.861548 -19.476555  1.675116
 9773 1 -87.099584 -18.781094  1.675116
 9774 1 -87.116314 -17.361192  1.675116
 9775 1 -85.895009 -16.636753  1.675116
 9776 1 -88.320890 -19.505533  1.675116
 9777 1 -89.558926 -18.810071  1.675116
 9778 1 -89.575656 -17.390170  1.675116
 9779 1 -88.354350 -16.665730  1.675116
 9780 1  89.922809 -12.435003  1.675116
 9781 1  89.906078 -11.015102  1.675116
 9782 1  88.701503 -13.159443  1.675116
 9783 1  87.463467 -12.463981  1.675116
 9784 1  87.446737 -11.044080  1.675116
 9785 1  88.668043 -10.319640  1.675116
 9786 1  86.242162 -13.188421  1.675116
 9787 1  85.004126 -12.492959  1.675116
 9788 1  84.987396 -11.073057  1.675116
 9789 1  86.208701 -10.348618  1.675116
 9790 1  83.782820 -13.217398  1.675116
 9791 1  82.544784 -12.521936  1.675116
 9792 1  82.528054 -11.102035  1.675116
 9793 1  83.749360 -10.377595  1.675116
 9794 1  81.323479 -13.246376  1.675116
 9795 1  80.085443 -12.550914  1.675116
 9796 1  80.068713 -11.131012  1.675116
 9797 1  81.290018 -10.406573  1.675116
 9798 1  78.864137 -13.275353  1.675116
 9799 1  77.626101 -12.579891  1.675116
 9800 1  77.609371 -11.159990  1.675116
 9801 1  78.830677 -10.435550  1.675116
 9802 1  76.404796 -13.304331  1.675116
 9803 1  75.166760 -12.608869  1.675116
 9804 1  75.150030 -11.188967  1.675116
 9805 1  76.371335 -10.464528  1.675116
 9806 1  73.945454 -13.333308  1.675116
 9807 1  72.707419 -12.637847  1.675116
 9808 1  72.690688 -11.217945  1.675116
 9809 1  73.911994 -10.493506  1.675116
 9810 1  71.486113 -13.362286  1.675116
 9811 1  70.248077 -12.666824  1.675116
 9812 1  70.231347 -11.246923  1.675116
 9813 1  71.452653 -10.522483  1.675116
 9814 1  69.026772 -13.391264  1.675116
 9815 1  67.788736 -12.695802  1.675116
 9816 1  67.772005 -11.275900  1.675116
 9817 1  68.993311 -10.551461  1.675116
 9818 1  66.567430 -13.420241  1.675116
 9819 1  65.329394 -12.724779  1.675116
 9820 1  65.312664 -11.304878  1.675116
 9821 1  66.533970 -10.580438  1.675116
 9822 1  64.108089 -13.449219  1.675116
 9823 1  62.870053 -12.753757  1.675116
 9824 1  62.853323 -11.333855  1.675116
 9825 1  64.074628 -10.609416  1.675116
 9826 1  61.648747 -13.478196  1.675116
 9827 1  60.410711 -12.782734  1.675116
 9828 1  60.393981 -11.362833  1.675116
 9829 1  61.615287 -10.638393  1.675116
 9830 1  59.189406 -13.507174  1.675116
 9831 1  57.951370 -12.811712  1.675116
 9832 1  57.934640 -11.391811  1.675116
 9833 1  59.155945 -10.667371  1.675116
 9834 1  56.730064 -13.536151  1.675116
 9835 1  55.492029 -12.840690  1.675116
 9836 1  55.475298 -11.420788  1.675116
 9837 1  56.696604 -10.696349  1.675116
 9838 1  54.270723 -13.565129  1.675116
 9839 1  53.032687 -12.869667  1.675116
 9840 1  53.015957 -11.449766  1.675116
 9841 1  54.237262 -10.725326  1.675116
 9842 1  51.811381 -13.594107  1.675116
 9843 1  50.573346 -12.898645  1.675116
 9844 1  50.556615 -11.478743  1.675116
 9845 1  51.777921 -10.754304  1.675116
 9846 1  49.352040 -13.623084  1.675116
 9847 1  48.114004 -12.927622  1.675116
 9848 1  48.097274 -11.507721  1.675116
 9849 1  49.318580 -10.783281  1.675116
 9850 1  46.892699 -13.652062  1.675116
 9851 1  45.654663 -12.956600  1.675116
 9852 1  45.637933 -11.536698  1.675116
 9853 1  46.859238 -10.812259  1.675116
 9854 1  44.433357 -13.681039  1.675116
 9855 1  43.195321 -12.985577  1.675116
 9856 1  43.178591 -11.565676  1.675116
 9857 1  44.399897 -10.841237  1.675116
 9858 1  41.974016 -13.710017  1.675116
 9859 1  40.735980 -13.014555  1.675116
 9860 1  40.719250 -11.594654  1.675116
 9861 1  41.940555 -10.870214  1.675116
 9862 1  39.514674 -13.738995  1.675116
 9863 1  38.276638 -13.043533  1.675116
 9864 1  38.259908 -11.623631  1.675116
 9865 1  39.481214 -10.899192  1.675116
 9866 1  37.055333 -13.767972  1.675116
 9867 1  35.817297 -13.072510  1.675116
 9868 1  35.800567 -11.652609  1.675116
 9869 1  37.021872 -10.928169  1.675116
 9870 1  34.595991 -13.796950  1.675116
 9871 1  33.357956 -13.101488  1.675116
 9872 1  33.341225 -11.681586  1.675116
 9873 1  34.562531 -10.957147  1.675116
 9874 1  32.136650 -13.825927  1.675116
 9875 1  30.898614 -13.130465  1.675116
 9876 1  30.881884 -11.710564  1.675116
 9877 1  32.103190 -10.986124  1.675116
 9878 1  29.677309 -13.854905  1.675116
 9879 1  28.439273 -13.159443  1.675116
 9880 1  28.422542 -11.739542  1.675116
 9881 1  29.643848 -11.015102  1.675116
 9882 1  27.217967 -13.883882  1.675116
 9883 1  25.979931 -13.188421  1.675116
 9884 1  25.963201 -11.768519  1.675116
 9885 1  27.184507 -11.044080  1.675116
 9886 1  24.758626 -13.912860  1.675116
 9887 1  23.520590 -13.217398  1.675116
 9888 1  23.503860 -11.797497  1.675116
 9889 1  24.725165 -11.073057  1.675116
 9890 1  22.299284 -13.941838  1.675116
 9891 1  21.061248 -13.246376  1.675116
 9892 1  21.044518 -11.826474  1.675116
 9893 1  22.265824 -11.102035  1.675116
 9894 1  19.839943 -13.970815  1.675116
 9895 1  18.601907 -13.275353  1.675116
 9896 1  18.585177 -11.855452  1.675116
 9897 1  19.806482 -11.131012  1.675116
 9898 1  17.380601 -13.999793  1.675116
 9899 1  16.142566 -13.304331  1.675116
 9900 1  16.125835 -11.884429  1.675116
 9901 1  17.347141 -11.159990  1.675116
 9902 1  14.921260 -14.028770  1.675116
 9903 1  13.683224 -13.333308  1.675116
 9904 1  13.666494 -11.913407  1.675116
 9905 1  14.887799 -11.188967  1.675116
 9906 1  12.461918 -14.057748  1.675116
 9907 1  11.223883 -13.362286  1.675116
 9908 1  11.207152 -11.942385  1.675116
 9909 1  12.428458 -11.217945  1.675116
 9910 1  10.002577 -14.086726  1.675116
 9911 1   8.764541 -13.391264  1.675116
 9912 1   8.747811 -11.971362  1.675116
 9913 1   9.969117 -11.246923  1.675116
 9914 1   7.543236 -14.115703  1.675116
 9915 1   6.305200 -13.420241  1.675116
 9916 1   6.288470 -12.000340  1.675116
 9917 1   7.509775 -11.275900  1.675116
 9918 1   5.083894 -14.144681  1.675116
 9919 1   3.845858 -13.449219  1.675116
 9920 1   3.829128 -12.029317  1.675116
 9921 1   5.050434 -11.304878  1.675116
 9922 1   2.624553 -14.173658  1.675116
 9923 1   1.386517 -13.478196  1.675116
 9924 1   1.369787 -12.058295  1.675116
 9925 1   2.591092 -11.333855  1.675116
 9926 1   0.165211 -14.202636  1.675116
 9927 1  -1.072825 -13.507174  1.675116
 9928 1  -1.089555 -12.087272  1.675116
 9929 1   0.131751 -11.362833  1.675116
 9930 1  -2.294130 -14.231613  1.675116
 9931 1  -3.532166 -13.536151  1.675116
 9932 1  -3.548896 -12.116250  1.675116
 9933 1  -2.327591 -11.391811  1.675116
 9934 1  -4.753472 -14.260591  1.675116
 9935 1  -5.991507 -13.565129  1.675116
 9936 1  -6.008238 -12.145228  1.675116
 9937 1  -4.786932 -11.420788  1.675116
 9938 1  -7.212813 -14.289569  1.675116
 9939 1  -8.450849 -13.594107  1.675116
 9940 1  -8.467579 -12.174205  1.675116
 9941 1  -7.246273 -11.449766  1.675116
 9942 1  -9.672154 -14.318546  1.675116
 9943 1 -10.910190 -13.623084  1.675116
 9944 1 -10.926920 -12.203183  1.675116
 9945 1  -9.705615 -11.478743  1.675116
 9946 1 -12.131496 -14.347524  1.675116
 9947 1 -13.369532 -13.652062  1.675116
 9948 1 -13.386262 -12.232160  1.675116
 9949 1 -12.164956 -11.507721  1.675116
 9950 1 -14.590837 -14.376501  1.675116
 9951 1 -15.828873 -13.681039  1.675116
 9952 1 -15.845603 -12.261138  1.675116
 9953 1 -14.624298 -11.536698  1.675116
 9954 1 -17.050179 -14.405479  1.675116
 9955 1 -18.288215 -13.710017  1.675116
 9956 1 -18.304945 -12.290116  1.675116
 9957 1 -17.083639 -11.565676  1.675116
 9958 1 -19.509520 -14.434456  1.675116
 9959 1 -20.747556 -13.738995  1.675116
 9960 1 -20.764286 -12.319093  1.675116
 9961 1 -19.542981 -11.594654  1.675116
 9962 1 -21.968862 -14.463434  1.675116
 9963 1 -23.206897 -13.767972  1.675116
 9964 1 -23.223628 -12.348071  1.675116
 9965 1 -22.002322 -11.623631  1.675116
 9966 1 -24.428203 -14.492412  1.675116
 9967 1 -25.666239 -13.796950  1.675116
 9968 1 -25.682969 -12.377048  1.675116
 9969 1 -24.461663 -11.652609  1.675116
 9970 1 -26.887545 -14.521389  1.675116
 9971 1 -28.125580 -13.825927  1.675116
 9972 1 -28.142311 -12.406026  1.675116
 9973 1 -26.921005 -11.681586  1.675116
 9974 1 -29.346886 -14.550367  1.675116
 9975 1 -30.584922 -13.854905  1.675116
 9976 1 -30.601652 -12.435003  1.675116
 9977 1 -29.380346 -11.710564  1.675116
 9978 1 -31.806227 -14.579344  1.675116
 9979 1 -33.044263 -13.883882  1.675116
 9980 1 -33.060993 -12.463981  1.675116
 9981 1 -31.839688 -11.739542  1.675116
 9982 1 -34.265569 -14.608322  1.675116
 9983 1 -35.503605 -13.912860  1.675116
 9984 1 -35.520335 -12.492959  1.675116
 9985 1 -34.299029 -11.768519  1.675116
 9986 1 -36.724910 -14.637300  1.675116
 9987 1 -37.962946 -13.941838  1.675116
 9988 1 -37.979676 -12.521936  1.675116
 9989 1 -36.758371 -11.797497  1.675116
 9990 1 -39.184252 -14.666277  1.675116
 9991 1 -40.422288 -13.970815  1.675116
 9992 1 -40.439018 -12.550914  1.675116
 9993 1 -39.217712 -11.826474  1.675116
 9994 1 -41.643593 -14.695255  1.675116
 9995 1 -42.881629 -13.999793  1.675116
 9996 1 -42.898359 -12.579891  1.675116
 9997 1 -41.677054 -11.855452  1.675116
 9998 1 -44.102935 -14.724232  1.675116
 9999 1 -45.340970 -14.028770  1.675116
10000 1 -45.357701 -12.608869  1.675116
10001 1 -44.136395 -11.884429  1.675116
10002 1 -46.562276 -14.753210  1.675116
10003 1 -47.800312 -14.057748  1.675116
10004 1 -47.817042 -12.637847  1.675116
10005 1 -46.595736 -11.913407  1.675116
10006 1 -49.021617 -14.782187  1.675116
10007 1 -50.259653 -14.086726  1.675116
10008 1 -50.276383 -12.666824  1.675116
10009 1 -49.055078 -11.942385  1.675116
10010 1 -51.480959 -14.811165  1.675116
10011 1 -52.718995 -14.115703  1.675116
10012 1 -52.735725 -12.695802  1.675116
10013 1 -51.514419 -11.971362  1.675116
10014 1 -53.940300 -14.840143  1.675116
10015 1 -55.178336 -14.144681  1.675116
10016 1 -55.195066 -12.724779  1.675116
10017 1 -53.973761 -12.000340  1.675116
10018 1 -56.399642 -14.869120  1.675116
10019 1 -57.637678 -14.173658  1.675116
10020 1 -57.654408 -12.753757  1.675116
10021 1 -56.433102 -12.029317  1.675116
10022 1 -58.858983 -14.898098  1.675116
10023 1 -60.097019 -14.202636  1.675116
10024 1 -60.113749 -12.782734  1.675116
10025 1 -58.892444 -12.058295  1.675116
10026 1 -61.318325 -14.927075  1.675116
10027 1 -62.556360 -14.231613  1.675116
10028 1 -62.573091 -12.811712  1.675116
10029 1 -61.351785 -12.087272  1.675116
10030 1 -63.777666 -14.956053  1.675116
10031 1 -65.015702 -14.260591  1.675116
10032 1 -65.032432 -12.840690  1.675116
10033 1 -63.811126 -12.116250  1.675116
10034 1 -66.237007 -14.985031  1.675116
10035 1 -67.475043 -14.289569  1.675116
10036 1 -67.491774 -12.869667  1.675116
10037 1 -66.270468 -12.145228  1.675116
10038 1 -68.696349 -15.014008  1.675116
10039 1 -69.934385 -14.318546  1.675116
10040 1 -69.951115 -12.898645  1.675116
10041 1 -68.729809 -12.174205  1.675116
10042 1 -71.155690 -15.042986  1.675116
10043 1 -72.393726 -14.347524  1.675116
10044 1 -72.410456 -12.927622  1.675116
10045 1 -71.189151 -12.203183  1.675116
10046 1 -73.615032 -15.071963  1.675116
10047 1 -74.853068 -14.376501  1.675116
10048 1 -74.869798 -12.956600  1.675116
10049 1 -73.648492 -12.232160  1.675116
10050 1 -76.074373 -15.100941  1.675116
10051 1 -77.312409 -14.405479  1.675116
10052 1 -77.329139 -12.985577  1.675116
10053 1 -76.107834 -12.261138  1.675116
10054 1 -78.533715 -15.129918  1.675116
10055 1 -79.771750 -14.434456  1.675116
10056 1 -79.788481 -13.014555  1.675116
10057 1 -78.567175 -12.290116  1.675116
10058 1 -80.993056 -15.158896  1.675116
10059 1 -82.231092 -14.463434  1.675116
10060 1 -82.247822 -13.043533  1.675116
10061 1 -81.026517 -12.319093  1.675116
10062 1 -83.452398 -15.187874  1.675116
10063 1 -84.690433 -14.492412  1.675116
10064 1 -84.707164 -13.072510  1.675116
10065 1 -83.485858 -12.348071  1.675116
10066 1 -85.911739 -15.216851  1.675116
10067 1 -87.149775 -14.521389  1.675116
10068 1 -87.166505 -13.101488  1.675116
10069 1 -85.945199 -12.377048  1.675116
10070 1 -88.371080 -15.245829  1.675116
10071 1 -89.609116 -14.550367  1.675116
10072 1 -89.625846 -13.130465  1.675116
10073 1 -88.404541 -12.406026  1.675116
10074 1  89.872618  -8.175299  1.675116
10075 1  89.855888  -6.755398  1.675116
10076 1  88.651312  -8.899739  1.675116
10077 1  87.413277  -8.204277  1.675116
10078 1  87.396546  -6.784375  1.675116
10079 1  88.617852  -6.059936  1.675116
10080 1  86.191971  -8.928716  1.675116
10081 1  84.953935  -8.233254  1.675116
10082 1  84.937205  -6.813353  1.675116
10083 1  86.158510  -6.088913  1.675116
10084 1  83.732629  -8.957694  1.675116
10085 1  82.494594  -8.262232  1.675116
10086 1  82.477863  -6.842330  1.675116
10087 1  83.699169  -6.117891  1.675116
10088 1  81.273288  -8.986671  1.675116
10089 1  80.035252  -8.291209  1.675116
10090 1  80.018522  -6.871308  1.675116
10091 1  81.239828  -6.146868  1.675116
10092 1  78.813947  -9.015649  1.675116
10093 1  77.575911  -8.320187  1.675116
10094 1  77.559181  -6.900286  1.675116
10095 1  78.780486  -6.175846  1.675116
10096 1  76.354605  -9.044627  1.675116
10097 1  75.116569  -8.349165  1.675116
10098 1  75.099839  -6.929263  1.675116
10099 1  76.321145  -6.204824  1.675116
10100 1  73.895264  -9.073604  1.675116
10101 1  72.657228  -8.378142  1.675116
10102 1  72.640498  -6.958241  1.675116
10103 1  73.861803  -6.233801  1.675116
10104 1  71.435922  -9.102582  1.675116
10105 1  70.197886  -8.407120  1.675116
10106 1  70.181156  -6.987218  1.675116
10107 1  71.402462  -6.262779  1.675116
10108 1  68.976581  -9.131559  1.675116
10109 1  67.738545  -8.436097  1.675116
10110 1  67.721815  -7.016196  1.675116
10111 1  68.943120  -6.291756  1.675116
10112 1  66.517239  -9.160537  1.675116
10113 1  65.279204  -8.465075  1.675116
10114 1  65.262473  -7.045173  1.675116
10115 1  66.483779  -6.320734  1.675116
10116 1  64.057898  -9.189514  1.675116
10117 1  62.819862  -8.494053  1.675116
10118 1  62.803132  -7.074151  1.675116
10119 1  64.024438  -6.349712  1.675116
10120 1  61.598557  -9.218492  1.675116
10121 1  60.360521  -8.523030  1.675116
10122 1  60.343791  -7.103129  1.675116
10123 1  61.565096  -6.378689  1.675116
10124 1  59.139215  -9.247470  1.675116
10125 1  57.901179  -8.552008  1.675116
10126 1  57.884449  -7.132106  1.675116
10127 1  59.105755  -6.407667  1.675116
10128 1  56.679874  -9.276447  1.675116
10129 1  55.441838  -8.580985  1.675116
10130 1  55.425108  -7.161084  1.675116
10131 1  56.646413  -6.436644  1.675116
10132 1  54.220532  -9.305425  1.675116
10133 1  52.982496  -8.609963  1.675116
10134 1  52.965766  -7.190061  1.675116
10135 1  54.187072  -6.465622  1.675116
10136 1  51.761191  -9.334402  1.675116
10137 1  50.523155  -8.638940  1.675116
10138 1  50.506425  -7.219039  1.675116
10139 1  51.727730  -6.494599  1.675116
10140 1  49.301849  -9.363380  1.675116
10141 1  48.063814  -8.667918  1.675116
10142 1  48.047083  -7.248017  1.675116
10143 1  49.268389  -6.523577  1.675116
10144 1  46.842508  -9.392357  1.675116
10145 1  45.604472  -8.696896  1.675116
10146 1  45.587742  -7.276994  1.675116
10147 1  46.809048  -6.552555  1.675116
10148 1  44.383167  -9.421335  1.675116
10149 1  43.145131  -8.725873  1.675116
10150 1  43.128400  -7.305972  1.675116
10151 1  44.349706  -6.581532  1.675116
10152 1  41.923825  -9.450313  1.675116
10153 1  40.685789  -8.754851  1.675116
10154 1  40.669059  -7.334949  1.675116
10155 1  41.890365  -6.610510  1.675116
10156 1  39.464484  -9.479290  1.675116
10157 1  38.226448  -8.783828  1.675116
10158 1  38.209718  -7.363927  1.675116
10159 1  39.431023  -6.639487  1.675116
10160 1  37.005142  -9.508268  1.675116
10161 1  35.767106  -8.812806  1.675116
10162 1  35.750376  -7.392904  1.675116
10163 1  36.971682  -6.668465  1.675116
10164 1  34.545801  -9.537245  1.675116
10165 1  33.307765  -8.841783  1.675116
10166 1  33.291035  -7.421882  1.675116
10167 1  34.512340  -6.697443  1.675116
10168 1  32.086459  -9.566223  1.675116
10169 1  30.848424  -8.870761  1.675116
10170 1  30.831693  -7.450860  1.675116
10171 1  32.052999  -6.726420  1.675116
10172 1  29.627118  -9.595201  1.675116
10173 1  28.389082  -8.899739  1.675116
10174 1  28.372352  -7.479837  1.675116
10175 1  29.593657  -6.755398  1.675116
10176 1  27.167776  -9.624178  1.675116
10177 1  25.929741  -8.928716  1.675116
10178 1  25.913010  -7.508815  1.675116
10179 1  27.134316  -6.784375  1.675116
10180 1  24.708435  -9.653156  1.675116
10181 1  23.470399  -8.957694  1.675116
10182 1  23.453669  -7.537792  1.675116
10183 1  24.674975  -6.813353  1.675116
10184 1  22.249094  -9.682133  1.675116
10185 1  21.011058  -8.986671  1.675116
10186 1  20.994328  -7.566770  1.675116
10187 1  22.215633  -6.842330  1.675116
10188 1  19.789752  -9.711111  1.675116
10189 1  18.551716  -9.015649  1.675116
10190 1  18.534986  -7.595748  1.675116
10191 1  19.756292  -6.871308  1.675116
10192 1  17.330411  -9.740088  1.675116
10193 1  16.092375  -9.044627  1.675116
10194 1  16.075645  -7.624725  1.675116
10195 1  17.296950  -6.900286  1.675116
10196 1  14.871069  -9.769066  1.675116
10197 1  13.633033  -9.073604  1.675116
10198 1  13.616303  -7.653703  1.675116
10199 1  14.837609  -6.929263  1.675116
10200 1  12.411728  -9.798044  1.675116
10201 1  11.173692  -9.102582  1.675116
10202 1  11.156962  -7.682680  1.675116
10203 1  12.378267  -6.958241  1.675116
10204 1   9.952386  -9.827021  1.675116
10205 1   8.714351  -9.131559  1.675116
10206 1   8.697620  -7.711658  1.675116
10207 1   9.918926  -6.987218  1.675116
10208 1   7.493045  -9.855999  1.675116
10209 1   6.255009  -9.160537  1.675116
10210 1   6.238279  -7.740635  1.675116
10211 1   7.459585  -7.016196  1.675116
10212 1   5.033704  -9.884976  1.675116
10213 1   3.795668  -9.189514  1.675116
10214 1   3.778937  -7.769613  1.675116
10215 1   5.000243  -7.045173  1.675116
10216 1   2.574362  -9.913954  1.675116
10217 1   1.336326  -9.218492  1.675116
10218 1   1.319596  -7.798591  1.675116
10219 1   2.540902  -7.074151  1.675116
10220 1   0.115021  -9.942932  1.675116
10221 1  -1.123015  -9.247470  1.675116
10222 1  -1.139745  -7.827568  1.675116
10223 1   0.081560  -7.103129  1.675116
10224 1  -2.344321  -9.971909  1.675116
10225 1  -3.582357  -9.276447  1.675116
10226 1  -3.599087  -7.856546  1.675116
10227 1  -2.377781  -7.132106  1.675116
10228 1  -4.803662 -10.000887  1.675116
10229 1  -6.041698  -9.305425  1.675116
10230 1  -6.058428  -7.885523  1.675116
10231 1  -4.837123  -7.161084  1.675116
10232 1  -7.263004 -10.029864  1.675116
10233 1  -8.501039  -9.334402  1.675116
10234 1  -8.517770  -7.914501  1.675116
10235 1  -7.296464  -7.190061  1.675116
10236 1  -9.722345 -10.058842  1.675116
10237 1 -10.960381  -9.363380  1.675116
10238 1 -10.977111  -7.943478  1.675116
10239 1  -9.755806  -7.219039  1.675116
10240 1 -12.181687 -10.087819  1.675116
10241 1 -13.419722  -9.392357  1.675116
10242 1 -13.436453  -7.972456  1.675116
10243 1 -12.215147  -7.248017  1.675116
10244 1 -14.641028 -10.116797  1.675116
10245 1 -15.879064  -9.421335  1.675116
10246 1 -15.895794  -8.001434  1.675116
10247 1 -14.674488  -7.276994  1.675116
10248 1 -17.100369 -10.145775  1.675116
10249 1 -18.338405  -9.450313  1.675116
10250 1 -18.355135  -8.030411  1.675116
10251 1 -17.133830  -7.305972  1.675116
10252 1 -19.559711 -10.174752  1.675116
10253 1 -20.797747  -9.479290  1.675116
10254 1 -20.814477  -8.059389  1.675116
10255 1 -19.593171  -7.334949  1.675116
10256 1 -22.019052 -10.203730  1.675116
10257 1 -23.257088  -9.508268  1.675116
10258 1 -23.273818  -8.088366  1.675116
10259 1 -22.052513  -7.363927  1.675116
10260 1 -24.478394 -10.232707  1.675116
10261 1 -25.716430  -9.537245  1.675116
10262 1 -25.733160  -8.117344  1.675116
10263 1 -24.511854  -7.392904  1.675116
10264 1 -26.937735 -10.261685  1.675116
10265 1 -28.175771  -9.566223  1.675116
10266 1 -28.192501  -8.146322  1.675116
10267 1 -26.971196  -7.421882  1.675116
10268 1 -29.397077 -10.290662  1.675116
10269 1 -30.635112  -9.595201  1.675116
10270 1 -30.651843  -8.175299  1.675116
10271 1 -29.430537  -7.450860  1.675116
10272 1 -31.856418 -10.319640  1.675116
10273 1 -33.094454  -9.624178  1.675116
10274 1 -33.111184  -8.204277  1.675116
10275 1 -31.889878  -7.479837  1.675116
10276 1 -34.315759 -10.348618  1.675116
10277 1 -35.553795  -9.653156  1.675116
10278 1 -35.570525  -8.233254  1.675116
10279 1 -34.349220  -7.508815  1.675116
10280 1 -36.775101 -10.377595  1.675116
10281 1 -38.013137  -9.682133  1.675116
10282 1 -38.029867  -8.262232  1.675116
10283 1 -36.808561  -7.537792  1.675116
10284 1 -39.234442 -10.406573  1.675116
10285 1 -40.472478  -9.711111  1.675116
10286 1 -40.489208  -8.291209  1.675116
10287 1 -39.267903  -7.566770  1.675116
10288 1 -41.693784 -10.435550  1.675116
10289 1 -42.931820  -9.740088  1.675116
10290 1 -42.948550  -8.320187  1.675116
10291 1 -41.727244  -7.595748  1.675116
10292 1 -44.153125 -10.464528  1.675116
10293 1 -45.391161  -9.769066  1.675116
10294 1 -45.407891  -8.349165  1.675116
10295 1 -44.186586  -7.624725  1.675116
10296 1 -46.612467 -10.493506  1.675116
10297 1 -47.850502  -9.798044  1.675116
10298 1 -47.867233  -8.378142  1.675116
10299 1 -46.645927  -7.653703  1.675116
10300 1 -49.071808 -10.522483  1.675116
10301 1 -50.309844  -9.827021  1.675116
10302 1 -50.326574  -8.407120  1.675116
10303 1 -49.105268  -7.682680  1.675116
10304 1 -51.531150 -10.551461  1.675116
10305 1 -52.769185  -9.855999  1.675116
10306 1 -52.785916  -8.436097  1.675116
10307 1 -51.564610  -7.711658  1.675116
10308 1 -53.990491 -10.580438  1.675116
10309 1 -55.228527  -9.884976  1.675116
10310 1 -55.245257  -8.465075  1.675116
10311 1 -54.023951  -7.740635  1.675116
10312 1 -56.449832 -10.609416  1.675116
10313 1 -57.687868  -9.913954  1.675116
10314 1 -57.704598  -8.494053  1.675116
10315 1 -56.483293  -7.769613  1.675116
10316 1 -58.909174 -10.638393  1.675116
10317 1 -60.147210  -9.942932  1.675116
10318 1 -60.163940  -8.523030  1.675116
10319 1 -58.942634  -7.798591  1.675116
10320 1 -61.368515 -10.667371  1.675116
10321 1 -62.606551  -9.971909  1.675116
10322 1 -62.623281  -8.552008  1.675116
10323 1 -61.401976  -7.827568  1.675116
10324 1 -63.827857 -10.696349  1.675116
10325 1 -65.065893 -10.000887  1.675116
10326 1 -65.082623  -8.580985  1.675116
10327 1 -63.861317  -7.856546  1.675116
10328 1 -66.287198 -10.725326  1.675116
10329 1 -67.525234 -10.029864  1.675116
10330 1 -67.541964  -8.609963  1.675116
10331 1 -66.320659  -7.885523  1.675116
10332 1 -68.746540 -10.754304  1.675116
10333 1 -69.984575 -10.058842  1.675116
10334 1 -70.001306  -8.638940  1.675116
10335 1 -68.780000  -7.914501  1.675116
10336 1 -71.205881 -10.783281  1.675116
10337 1 -72.443917 -10.087819  1.675116
10338 1 -72.460647  -8.667918  1.675116
10339 1 -71.239341  -7.943478  1.675116
10340 1 -73.665222 -10.812259  1.675116
10341 1 -74.903258 -10.116797  1.675116
10342 1 -74.919988  -8.696896  1.675116
10343 1 -73.698683  -7.972456  1.675116
10344 1 -76.124564 -10.841237  1.675116
10345 1 -77.362600 -10.145775  1.675116
10346 1 -77.379330  -8.725873  1.675116
10347 1 -76.158024  -8.001434  1.675116
10348 1 -78.583905 -10.870214  1.675116
10349 1 -79.821941 -10.174752  1.675116
10350 1 -79.838671  -8.754851  1.675116
10351 1 -78.617366  -8.030411  1.675116
10352 1 -81.043247 -10.899192  1.675116
10353 1 -82.281283 -10.203730  1.675116
10354 1 -82.298013  -8.783828  1.675116
10355 1 -81.076707  -8.059389  1.675116
10356 1 -83.502588 -10.928169  1.675116
10357 1 -84.740624 -10.232707  1.675116
10358 1 -84.757354  -8.812806  1.675116
10359 1 -83.536049  -8.088366  1.675116
10360 1 -85.961930 -10.957147  1.675116
10361 1 -87.199965 -10.261685  1.675116
10362 1 -87.216696  -8.841783  1.675116
10363 1 -85.995390  -8.117344  1.675116
10364 1 -88.421271 -10.986124  1.675116
10365 1 -89.659307 -10.290662  1.675116
10366 1 -89.676037  -8.870761  1.675116
10367 1 -88.454731  -8.146322  1.675116
10368 1  89.822427  -3.915595  1.675116
10369 1  89.805697  -2.495693  1.675116
10370 1  88.601122  -4.640034  1.675116
10371 1  87.363086  -3.944572  1.675116
10372 1  87.346356  -2.524671  1.675116
10373 1  88.567661  -1.800231  1.675116
10374 1  86.141780  -4.669012  1.675116
10375 1  84.903744  -3.973550  1.675116
10376 1  84.887014  -2.553649  1.675116
10377 1  86.108320  -1.829209  1.675116
10378 1  83.682439  -4.697989  1.675116
10379 1  82.444403  -4.002528  1.675116
10380 1  82.427673  -2.582626  1.675116
10381 1  83.648978  -1.858187  1.675116
10382 1  81.223097  -4.726967  1.675116
10383 1  79.985062  -4.031505  1.675116
10384 1  79.968331  -2.611604  1.675116
10385 1  81.189637  -1.887164  1.675116
10386 1  78.763756  -4.755945  1.675116
10387 1  77.525720  -4.060483  1.675116
10388 1  77.508990  -2.640581  1.675116
10389 1  78.730296  -1.916142  1.675116
10390 1  76.304415  -4.784922  1.675116
10391 1  75.066379  -4.089460  1.675116
10392 1  75.049648  -2.669559  1.675116
10393 1  76.270954  -1.945119  1.675116
10394 1  73.845073  -4.813900  1.675116
10395 1  72.607037  -4.118438  1.675116
10396 1  72.590307  -2.698536  1.675116
10397 1  73.811613  -1.974097  1.675116
10398 1  71.385732  -4.842877  1.675116
10399 1  70.147696  -4.147415  1.675116
10400 1  70.130966  -2.727514  1.675116
10401 1  71.352271  -2.003074  1.675116
10402 1  68.926390  -4.871855  1.675116
10403 1  67.688354  -4.176393  1.675116
10404 1  67.671624  -2.756492  1.675116
10405 1  68.892930  -2.032052  1.675116
10406 1  66.467049  -4.900833  1.675116
10407 1  65.229013  -4.205371  1.675116
10408 1  65.212283  -2.785469  1.675116
10409 1  66.433588  -2.061030  1.675116
10410 1  64.007707  -4.929810  1.675116
10411 1  62.769672  -4.234348  1.675116
10412 1  62.752941  -2.814447  1.675116
10413 1  63.974247  -2.090007  1.675116
10414 1  61.548366  -4.958788  1.675116
10415 1  60.310330  -4.263326  1.675116
10416 1  60.293600  -2.843424  1.675116
10417 1  61.514905  -2.118985  1.675116
10418 1  59.089024  -4.987765  1.675116
10419 1  57.850989  -4.292303  1.675116
10420 1  57.834258  -2.872402  1.675116
10421 1  59.055564  -2.147962  1.675116
10422 1  56.629683  -5.016743  1.675116
10423 1  55.391647  -4.321281  1.675116
10424 1  55.374917  -2.901379  1.675116
10425 1  56.596223  -2.176940  1.675116
10426 1  54.170342  -5.045720  1.675116
10427 1  52.932306  -4.350259  1.675116
10428 1  52.915576  -2.930357  1.675116
10429 1  54.136881  -2.205918  1.675116
10430 1  51.711000  -5.074698  1.675116
10431 1  50.472964  -4.379236  1.675116
10432 1  50.456234  -2.959335  1.675116
10433 1  51.677540  -2.234895  1.675116
10434 1  49.251659  -5.103676  1.675116
10435 1  48.013623  -4.408214  1.675116
10436 1  47.996893  -2.988312  1.675116
10437 1  49.218198  -2.263873  1.675116
10438 1  46.792317  -5.132653  1.675116
10439 1  45.554281  -4.437191  1.675116
10440 1  45.537551  -3.017290  1.675116
10441 1  46.758857  -2.292850  1.675116
10442 1  44.332976  -5.161631  1.675116
10443 1  43.094940  -4.466169  1.675116
10444 1  43.078210  -3.046267  1.675116
10445 1  44.299515  -2.321828  1.675116
10446 1  41.873634  -5.190608  1.675116
10447 1  40.635599  -4.495146  1.675116
10448 1  40.618868  -3.075245  1.675116
10449 1  41.840174  -2.350805  1.675116
10450 1  39.414293  -5.219586  1.675116
10451 1  38.176257  -4.524124  1.675116
10452 1  38.159527  -3.104223  1.675116
10453 1  39.380833  -2.379783  1.675116
10454 1  36.954952  -5.248563  1.675116
10455 1  35.716916  -4.553102  1.675116
10456 1  35.700186  -3.133200  1.675116
10457 1  36.921491  -2.408761  1.675116
10458 1  34.495610  -5.277541  1.675116
10459 1  33.257574  -4.582079  1.675116
10460 1  33.240844  -3.162178  1.675116
10461 1  34.462150  -2.437738  1.675116
10462 1  32.036269  -5.306519  1.675116
10463 1  30.798233  -4.611057  1.675116
10464 1  30.781503  -3.191155  1.675116
10465 1  32.002808  -2.466716  1.675116
10466 1  29.576927  -5.335496  1.675116
10467 1  28.338891  -4.640034  1.675116
10468 1  28.322161  -3.220133  1.675116
10469 1  29.543467  -2.495693  1.675116
10470 1  27.117586  -5.364474  1.675116
10471 1  25.879550  -4.669012  1.675116
10472 1  25.862820  -3.249110  1.675116
10473 1  27.084125  -2.524671  1.675116
10474 1  24.658244  -5.393451  1.675116
10475 1  23.420209  -4.697989  1.675116
10476 1  23.403478  -3.278088  1.675116
10477 1  24.624784  -2.553649  1.675116
10478 1  22.198903  -5.422429  1.675116
10479 1  20.960867  -4.726967  1.675116
10480 1  20.944137  -3.307066  1.675116
10481 1  22.165443  -2.582626  1.675116
10482 1  19.739562  -5.451407  1.675116
10483 1  18.501526  -4.755945  1.675116
10484 1  18.484795  -3.336043  1.675116
10485 1  19.706101  -2.611604  1.675116
10486 1  17.280220  -5.480384  1.675116
10487 1  16.042184  -4.784922  1.675116
10488 1  16.025454  -3.365021  1.675116
10489 1  17.246760  -2.640581  1.675116
10490 1  14.820879  -5.509362  1.675116
10491 1  13.582843  -4.813900  1.675116
10492 1  13.566113  -3.393998  1.675116
10493 1  14.787418  -2.669559  1.675116
10494 1  12.361537  -5.538339  1.675116
10495 1  11.123501  -4.842877  1.675116
10496 1  11.106771  -3.422976  1.675116
10497 1  12.328077  -2.698536  1.675116
10498 1   9.902196  -5.567317  1.675116
10499 1   8.664160  -4.871855  1.675116
10500 1   8.647430  -3.451954  1.675116
10501 1   9.868735  -2.727514  1.675116
10502 1   7.442854  -5.596294  1.675116
10503 1   6.204818  -4.900833  1.675116
10504 1   6.188088  -3.480931  1.675116
10505 1   7.409394  -2.756492  1.675116
10506 1   4.983513  -5.625272  1.675116
10507 1   3.745477  -4.929810  1.675116
10508 1   3.728747  -3.509909  1.675116
10509 1   4.950052  -2.785469  1.675116
10510 1   2.524171  -5.654250  1.675116
10511 1   1.286136  -4.958788  1.675116
10512 1   1.269405  -3.538886  1.675116
10513 1   2.490711  -2.814447  1.675116
10514 1   0.064830  -5.683227  1.675116
10515 1  -1.173206  -4.987765  1.675116
10516 1  -1.189936  -3.567864  1.675116
10517 1   0.031370  -2.843424  1.675116
10518 1  -2.394511  -5.712205  1.675116
10519 1  -3.632547  -5.016743  1.675116
10520 1  -3.649277  -3.596841  1.675116
10521 1  -2.427972  -2.872402  1.675116
10522 1  -4.853853  -5.741182  1.675116
10523 1  -6.091889  -5.045720  1.675116
10524 1  -6.108619  -3.625819  1.675116
10525 1  -4.887313  -2.901379  1.675116
10526 1  -7.313194  -5.770160  1.675116
10527 1  -8.551230  -5.074698  1.675116
10528 1  -8.567960  -3.654797  1.675116
10529 1  -7.346655  -2.930357  1.675116
10530 1  -9.772536  -5.799138  1.675116
10531 1 -11.010572  -5.103676  1.675116
10532 1 -11.027302  -3.683774  1.675116
10533 1  -9.805996  -2.959335  1.675116
10534 1 -12.231877  -5.828115  1.675116
10535 1 -13.469913  -5.132653  1.675116
10536 1 -13.486643  -3.712752  1.675116
10537 1 -12.265338  -2.988312  1.675116
10538 1 -14.691219  -5.857093  1.675116
10539 1 -15.929254  -5.161631  1.675116
10540 1 -15.945985  -3.741729  1.675116
10541 1 -14.724679  -3.017290  1.675116
10542 1 -17.150560  -5.886070  1.675116
10543 1 -18.388596  -5.190608  1.675116
10544 1 -18.405326  -3.770707  1.675116
10545 1 -17.184020  -3.046267  1.675116
10546 1 -19.609901  -5.915048  1.675116
10547 1 -20.847937  -5.219586  1.675116
10548 1 -20.864668  -3.799684  1.675116
10549 1 -19.643362  -3.075245  1.675116
10550 1 -22.069243  -5.944025  1.675116
10551 1 -23.307279  -5.248563  1.675116
10552 1 -23.324009  -3.828662  1.675116
10553 1 -22.102703  -3.104223  1.675116
10554 1 -24.528584  -5.973003  1.675116
10555 1 -25.766620  -5.277541  1.675116
10556 1 -25.783350  -3.857640  1.675116
10557 1 -24.562045  -3.133200  1.675116
10558 1 -26.987926  -6.001981  1.675116
10559 1 -28.225962  -5.306519  1.675116
10560 1 -28.242692  -3.886617  1.675116
10561 1 -27.021386  -3.162178  1.675116
10562 1 -29.447267  -6.030958  1.675116
10563 1 -30.685303  -5.335496  1.675116
10564 1 -30.702033  -3.915595  1.675116
10565 1 -29.480728  -3.191155  1.675116
10566 1 -31.906609  -6.059936  1.675116
10567 1 -33.144644  -5.364474  1.675116
10568 1 -33.161375  -3.944572  1.675116
10569 1 -31.940069  -3.220133  1.675116
10570 1 -34.365950  -6.088913  1.675116
10571 1 -35.603986  -5.393451  1.675116
10572 1 -35.620716  -3.973550  1.675116
10573 1 -34.399411  -3.249110  1.675116
10574 1 -36.825292  -6.117891  1.675116
10575 1 -38.063327  -5.422429  1.675116
10576 1 -38.080058  -4.002528  1.675116
10577 1 -36.858752  -3.278088  1.675116
10578 1 -39.284633  -6.146868  1.675116
10579 1 -40.522669  -5.451407  1.675116
10580 1 -40.539399  -4.031505  1.675116
10581 1 -39.318093  -3.307066  1.675116
10582 1 -41.743974  -6.175846  1.675116
10583 1 -42.982010  -5.480384  1.675116
10584 1 -42.998740  -4.060483  1.675116
10585 1 -41.777435  -3.336043  1.675116
10586 1 -44.203316  -6.204824  1.675116
10587 1 -45.441352  -5.509362  1.675116
10588 1 -45.458082  -4.089460  1.675116
10589 1 -44.236776  -3.365021  1.675116
10590 1 -46.662657  -6.233801  1.675116
10591 1 -47.900693  -5.538339  1.675116
10592 1 -47.917423  -4.118438  1.675116
10593 1 -46.696118  -3.393998  1.675116
10594 1 -49.121999  -6.262779  1.675116
10595 1 -50.360035  -5.567317  1.675116
10596 1 -50.376765  -4.147415  1.675116
10597 1 -49.155459  -3.422976  1.675116
10598 1 -51.581340  -6.291756  1.675116
10599 1 -52.819376  -5.596294  1.675116
10600 1 -52.836106  -4.176393  1.675116
10601 1 -51.614801  -3.451954  1.675116
10602 1 -54.040682  -6.320734  1.675116
10603 1 -55.278717  -5.625272  1.675116
10604 1 -55.295448  -4.205371  1.675116
10605 1 -54.074142  -3.480931  1.675116
10606 1 -56.500023  -6.349712  1.675116
10607 1 -57.738059  -5.654250  1.675116
10608 1 -57.754789  -4.234348  1.675116
10609 1 -56.533483  -3.509909  1.675116
10610 1 -58.959364  -6.378689  1.675116
10611 1 -60.197400  -5.683227  1.675116
10612 1 -60.214130  -4.263326  1.675116
10613 1 -58.992825  -3.538886  1.675116
10614 1 -61.418706  -6.407667  1.675116
10615 1 -62.656742  -5.712205  1.675116
10616 1 -62.673472  -4.292303  1.675116
10617 1 -61.452166  -3.567864  1.675116
10618 1 -63.878047  -6.436644  1.675116
10619 1 -65.116083  -5.741182  1.675116
10620 1 -65.132813  -4.321281  1.675116
10621 1 -63.911508  -3.596841  1.675116
10622 1 -66.337389  -6.465622  1.675116
10623 1 -67.575425  -5.770160  1.675116
10624 1 -67.592155  -4.350259  1.675116
10625 1 -66.370849  -3.625819  1.675116
10626 1 -68.796730  -6.494599  1.675116
10627 1 -70.034766  -5.799138  1.675116
10628 1 -70.051496  -4.379236  1.675116
10629 1 -68.830191  -3.654797  1.675116
10630 1 -71.256072  -6.523577  1.675116
10631 1 -72.494107  -5.828115  1.675116
10632 1 -72.510838  -4.408214  1.675116
10633 1 -71.289532  -3.683774  1.675116
10634 1 -73.715413  -6.552555  1.675116
10635 1 -74.953449  -5.857093  1.675116
10636 1 -74.970179  -4.437191  1.675116
10637 1 -73.748873  -3.712752  1.675116
10638 1 -76.174755  -6.581532  1.675116
10639 1 -77.412790  -5.886070  1.675116
10640 1 -77.429521  -4.466169  1.675116
10641 1 -76.208215  -3.741729  1.675116
10642 1 -78.634096  -6.610510  1.675116
10643 1 -79.872132  -5.915048  1.675116
10644 1 -79.888862  -4.495146  1.675116
10645 1 -78.667556  -3.770707  1.675116
10646 1 -81.093437  -6.639487  1.675116
10647 1 -82.331473  -5.944025  1.675116
10648 1 -82.348203  -4.524124  1.675116
10649 1 -81.126898  -3.799684  1.675116
10650 1 -83.552779  -6.668465  1.675116
10651 1 -84.790815  -5.973003  1.675116
10652 1 -84.807545  -4.553102  1.675116
10653 1 -83.586239  -3.828662  1.675116
10654 1 -86.012120  -6.697443  1.675116
10655 1 -87.250156  -6.001981  1.675116
10656 1 -87.266886  -4.582079  1.675116
10657 1 -86.045581  -3.857640  1.675116
10658 1 -88.471462  -6.726420  1.675116
10659 1 -89.709498  -6.030958  1.675116
10660 1 -89.726228  -4.611057  1.675116
10661 1 -88.504922  -3.886617  1.675116
10662 1  89.772237   0.344110  1.675116
10663 1  89.755506   1.764011  1.675116
10664 1  88.550931  -0.380330  1.675116
10665 1  87.312895   0.315132  1.675116
10666 1  87.296165   1.735033  1.675116
10667 1  88.517471   2.459473  1.675116
10668 1  86.091590  -0.409308  1.675116
10669 1  84.853554   0.286154  1.675116
10670 1  84.836824   1.706056  1.675116
10671 1  86.058129   2.430495  1.675116
10672 1  83.632248  -0.438285  1.675116
10673 1  82.394212   0.257177  1.675116
10674 1  82.377482   1.677078  1.675116
10675 1  83.598788   2.401518  1.675116
10676 1  81.172907  -0.467263  1.675116
10677 1  79.934871   0.228199  1.675116
10678 1  79.918141   1.648101  1.675116
10679 1  81.139446   2.372540  1.675116
10680 1  78.713565  -0.496240  1.675116
10681 1  77.475530   0.199222  1.675116
10682 1  77.458799   1.619123  1.675116
10683 1  78.680105   2.343563  1.675116
10684 1  76.254224  -0.525218  1.675116
10685 1  75.016188   0.170244  1.675116
10686 1  74.999458   1.590145  1.675116
10687 1  76.220763   2.314585  1.675116
10688 1  73.794882  -0.554195  1.675116
10689 1  72.556847   0.141266  1.675116
10690 1  72.540116   1.561168  1.675116
10691 1  73.761422   2.285607  1.675116
10692 1  71.335541  -0.583173  1.675116
10693 1  70.097505   0.112289  1.675116
10694 1  70.080775   1.532190  1.675116
10695 1  71.302081   2.256630  1.675116
10696 1  68.876200  -0.612151  1.675116
10697 1  67.638164   0.083311  1.675116
10698 1  67.621434   1.503213  1.675116
10699 1  68.842739   2.227652  1.675116
10700 1  66.416858  -0.641128  1.675116
10701 1  65.178822   0.054334  1.675116
10702 1  65.162092   1.474235  1.675116
10703 1  66.383398   2.198675  1.675116
10704 1  63.957517  -0.670106  1.675116
10705 1  62.719481   0.025356  1.675116
10706 1  62.702751   1.445258  1.675116
10707 1  63.924056   2.169697  1.675116
10708 1  61.498175  -0.699083  1.675116
10709 1  60.260139  -0.003621  1.675116
10710 1  60.243409   1.416280  1.675116
10711 1  61.464715   2.140720  1.675116
10712 1  59.038834  -0.728061  1.675116
10713 1  57.800798  -0.032599  1.675116
10714 1  57.784068   1.387302  1.675116
10715 1  59.005373   2.111742  1.675116
10716 1  56.579492  -0.757039  1.675116
10717 1  55.341457  -0.061577  1.675116
10718 1  55.324726   1.358325  1.675116
10719 1  56.546032   2.082764  1.675116
10720 1  54.120151  -0.786016  1.675116
10721 1  52.882115  -0.090554  1.675116
10722 1  52.865385   1.329347  1.675116
10723 1  54.086691   2.053787  1.675116
10724 1  51.660810  -0.814994  1.675116
10725 1  50.422774  -0.119532  1.675116
10726 1  50.406043   1.300370  1.675116
10727 1  51.627349   2.024809  1.675116
10728 1  49.201468  -0.843971  1.675116
10729 1  47.963432  -0.148509  1.675116
10730 1  47.946702   1.271392  1.675116
10731 1  49.168008   1.995832  1.675116
10732 1  46.742127  -0.872949  1.675116
10733 1  45.504091  -0.177487  1.675116
10734 1  45.487361   1.242415  1.675116
10735 1  46.708666   1.966854  1.675116
10736 1  44.282785  -0.901926  1.675116
10737 1  43.044749  -0.206465  1.675116
10738 1  43.028019   1.213437  1.675116
10739 1  44.249325   1.937876  1.675116
10740 1  41.823444  -0.930904  1.675116
10741 1  40.585408  -0.235442  1.675116
10742 1  40.568678   1.184459  1.675116
10743 1  41.789983   1.908899  1.675116
10744 1  39.364102  -0.959882  1.675116
10745 1  38.126067  -0.264420  1.675116
10746 1  38.109336   1.155482  1.675116
10747 1  39.330642   1.879921  1.675116
10748 1  36.904761  -0.988859  1.675116
10749 1  35.666725  -0.293397  1.675116
10750 1  35.649995   1.126504  1.675116
10751 1  36.871300   1.850944  1.675116
10752 1  34.445419  -1.017837  1.675116
10753 1  33.207384  -0.322375  1.675116
10754 1  33.190653   1.097527  1.675116
10755 1  34.411959   1.821966  1.675116
10756 1  31.986078  -1.046814  1.675116
10757 1  30.748042  -0.351352  1.675116
10758 1  30.731312   1.068549  1.675116
10759 1  31.952618   1.792989  1.675116
10760 1  29.526737  -1.075792  1.675116
10761 1  28.288701  -0.380330  1.675116
10762 1  28.271971   1.039571  1.675116
10763 1  29.493276   1.764011  1.675116
10764 1  27.067395  -1.104769  1.675116
10765 1  25.829359  -0.409308  1.675116
10766 1  25.812629   1.010594  1.675116
10767 1  27.033935   1.735033  1.675116
10768 1  24.608054  -1.133747  1.675116
10769 1  23.370018  -0.438285  1.675116
10770 1  23.353288   0.981616  1.675116
10771 1  24.574593   1.706056  1.675116
10772 1  22.148712  -1.162725  1.675116
10773 1  20.910676  -0.467263  1.675116
10774 1  20.893946   0.952639  1.675116
10775 1  22.115252   1.677078  1.675116
10776 1  19.689371  -1.191702  1.675116
10777 1  18.451335  -0.496240  1.675116
10778 1  18.434605   0.923661  1.675116
10779 1  19.655910   1.648101  1.675116
10780 1  17.230029  -1.220680  1.675116
10781 1  15.991994  -0.525218  1.675116
10782 1  15.975263   0.894684  1.675116
10783 1  17.196569   1.619123  1.675116
10784 1  14.770688  -1.249657  1.675116
10785 1  13.532652  -0.554195  1.675116
10786 1  13.515922   0.865706  1.675116
10787 1  14.737228   1.590145  1.675116
10788 1  12.311347  -1.278635  1.675116
10789 1  11.073311  -0.583173  1.675116
10790 1  11.056581   0.836728  1.675116
10791 1  12.277886   1.561168  1.675116
10792 1   9.852005  -1.307613  1.675116
10793 1   8.613969  -0.612151  1.675116
10794 1   8.597239   0.807751  1.675116
10795 1   9.818545   1.532190  1.675116
10796 1   7.392664  -1.336590  1.675116
10797 1   6.154628  -0.641128  1.675116
10798 1   6.137898   0.778773  1.675116
10799 1   7.359203   1.503213  1.675116
10800 1   4.933322  -1.365568  1.675116
10801 1   3.695286  -0.670106  1.675116
10802 1   3.678556   0.749796  1.675116
10803 1   4.899862   1.474235  1.675116
10804 1   2.473981  -1.394545  1.675116
10805 1   1.235945  -0.699083  1.675116
10806 1   1.219215   0.720818  1.675116
10807 1   2.440520   1.445258  1.675116
10808 1   0.014639  -1.423523  1.675116
10809 1  -1.223396  -0.728061  1.675116
10810 1  -1.240127   0.691840  1.675116
10811 1  -0.018821   1.416280  1.675116
10812 1  -2.444702  -1.452500  1.675116
10813 1  -3.682738  -0.757039  1.675116
10814 1  -3.699468   0.662863  1.675116
10815 1  -2.478162   1.387302  1.675116
10816 1  -4.904043  -1.481478  1.675116
10817 1  -6.142079  -0.786016  1.675116
10818 1  -6.158810   0.633885  1.675116
10819 1  -4.937504   1.358325  1.675116
10820 1  -7.363385  -1.510456  1.675116
10821 1  -8.601421  -0.814994  1.675116
10822 1  -8.618151   0.604908  1.675116
10823 1  -7.396845   1.329347  1.675116
10824 1  -9.822726  -1.539433  1.675116
10825 1 -11.060762  -0.843971  1.675116
10826 1 -11.077492   0.575930  1.675116
10827 1  -9.856187   1.300370  1.675116
10828 1 -12.282068  -1.568411  1.675116
10829 1 -13.520104  -0.872949  1.675116
10830 1 -13.536834   0.546953  1.675116
10831 1 -12.315528   1.271392  1.675116
10832 1 -14.741409  -1.597388  1.675116
10833 1 -15.979445  -0.901926  1.675116
10834 1 -15.996175   0.517975  1.675116
10835 1 -14.774870   1.242415  1.675116
10836 1 -17.200751  -1.626366  1.675116
10837 1 -18.438787  -0.930904  1.675116
10838 1 -18.455517   0.488997  1.675116
10839 1 -17.234211   1.213437  1.675116
10840 1 -19.660092  -1.655344  1.675116
10841 1 -20.898128  -0.959882  1.675116
10842 1 -20.914858   0.460020  1.675116
10843 1 -19.693553   1.184459  1.675116
10844 1 -22.119434  -1.684321  1.675116
10845 1 -23.357469  -0.988859  1.675116
10846 1 -23.374200   0.431042  1.675116
10847 1 -22.152894   1.155482  1.675116
10848 1 -24.578775  -1.713299  1.675116
10849 1 -25.816811  -1.017837  1.675116
10850 1 -25.833541   0.402065  1.675116
10851 1 -24.612235   1.126504  1.675116
10852 1 -27.038116  -1.742276  1.675116
10853 1 -28.276152  -1.046814  1.675116
10854 1 -28.292882   0.373087  1.675116
10855 1 -27.071577   1.097527  1.675116
10856 1 -29.497458  -1.771254  1.675116
10857 1 -30.735494  -1.075792  1.675116
10858 1 -30.752224   0.344110  1.675116
10859 1 -29.530918   1.068549  1.675116
10860 1 -31.956799  -1.800231  1.675116
10861 1 -33.194835  -1.104769  1.675116
10862 1 -33.211565   0.315132  1.675116
10863 1 -31.990260   1.039571  1.675116
10864 1 -34.416141  -1.829209  1.675116
10865 1 -35.654177  -1.133747  1.675116
10866 1 -35.670907   0.286154  1.675116
10867 1 -34.449601   1.010594  1.675116
10868 1 -36.875482  -1.858187  1.675116
10869 1 -38.113518  -1.162725  1.675116
10870 1 -38.130248   0.257177  1.675116
10871 1 -36.908943   0.981616  1.675116
10872 1 -39.334824  -1.887164  1.675116
10873 1 -40.572859  -1.191702  1.675116
10874 1 -40.589590   0.228199  1.675116
10875 1 -39.368284   0.952639  1.675116
10876 1 -41.794165  -1.916142  1.675116
10877 1 -43.032201  -1.220680  1.675116
10878 1 -43.048931   0.199222  1.675116
10879 1 -41.827625   0.923661  1.675116
10880 1 -44.253506  -1.945119  1.675116
10881 1 -45.491542  -1.249657  1.675116
10882 1 -45.508273   0.170244  1.675116
10883 1 -44.286967   0.894684  1.675116
10884 1 -46.712848  -1.974097  1.675116
10885 1 -47.950884  -1.278635  1.675116
10886 1 -47.967614   0.141266  1.675116
10887 1 -46.746308   0.865706  1.675116
10888 1 -49.172189  -2.003074  1.675116
10889 1 -50.410225  -1.307613  1.675116
10890 1 -50.426955   0.112289  1.675116
10891 1 -49.205650   0.836728  1.675116
10892 1 -51.631531  -2.032052  1.675116
10893 1 -52.869567  -1.336590  1.675116
10894 1 -52.886297   0.083311  1.675116
10895 1 -51.664991   0.807751  1.675116
10896 1 -54.090872  -2.061030  1.675116
10897 1 -55.328908  -1.365568  1.675116
10898 1 -55.345638   0.054334  1.675116
10899 1 -54.124333   0.778773  1.675116
10900 1 -56.550214  -2.090007  1.675116
10901 1 -57.788249  -1.394545  1.675116
10902 1 -57.804980   0.025356  1.675116
10903 1 -56.583674   0.749796  1.675116
10904 1 -59.009555  -2.118985  1.675116
10905 1 -60.247591  -1.423523  1.675116
10906 1 -60.264321  -0.003621  1.675116
10907 1 -59.043016   0.720818  1.675116
10908 1 -61.468897  -2.147962  1.675116
10909 1 -62.706932  -1.452500  1.675116
10910 1 -62.723663  -0.032599  1.675116
10911 1 -61.502357   0.691840  1.675116
10912 1 -63.928238  -2.176940  1.675116
10913 1 -65.166274  -1.481478  1.675116
10914 1 -65.183004  -0.061577  1.675116
10915 1 -63.961698   0.662863  1.675116
10916 1 -66.387579  -2.205918  1.675116
10917 1 -67.625615  -1.510456  1.675116
10918 1 -67.642345  -0.090554  1.675116
10919 1 -66.421040   0.633885  1.675116
10920 1 -68.846921  -2.234895  1.675116
10921 1 -70.084957  -1.539433  1.675116
10922 1 -70.101687  -0.119532  1.675116
10923 1 -68.880381   0.604908  1.675116
10924 1 -71.306262  -2.263873  1.675116
10925 1 -72.544298  -1.568411  1.675116
10926 1 -72.561028  -0.148509  1.675116
10927 1 -71.339723   0.575930  1.675116
10928 1 -73.765604  -2.292850  1.675116
10929 1 -75.003640  -1.597388  1.675116
10930 1 -75.020370  -0.177487  1.675116
10931 1 -73.799064   0.546953  1.675116
10932 1 -76.224945  -2.321828  1.675116
10933 1 -77.462981  -1.626366  1.675116
10934 1 -77.479711  -0.206465  1.675116
10935 1 -76.258406   0.517975  1.675116
10936 1 -78.684287  -2.350805  1.675116
10937 1 -79.922322  -1.655344  1.675116
10938 1 -79.939053  -0.235442  1.675116
10939 1 -78.717747   0.488997  1.675116
10940 1 -81.143628  -2.379783  1.675116
10941 1 -82.381664  -1.684321  1.675116
10942 1 -82.398394  -0.264420  1.675116
10943 1 -81.177088   0.460020  1.675116
10944 1 -83.602969  -2.408761  1.675116
10945 1 -84.841005  -1.713299  1.675116
10946 1 -84.857735  -0.293397  1.675116
10947 1 -83.636430   0.431042  1.675116
10948 1 -86.062311  -2.437738  1.675116
10949 1 -87.300347  -1.742276  1.675116
10950 1 -87.317077  -0.322375  1.675116
10951 1 -86.095771   0.402065  1.675116
10952 1 -88.521652  -2.466716  1.675116
10953 1 -89.759688  -1.771254  1.675116
10954 1 -89.776418  -0.351352  1.675116
10955 1 -88.555113   0.373087  1.675116
10956 1  89.722046   4.603814  1.675116
10957 1  89.705316   6.023715  1.675116
10958 1  88.500740   3.879374  1.675116
10959 1  87.262705   4.574836  1.675116
10960 1  87.245974   5.994738  1.675116
10961 1  88.467280   6.719177  1.675116
10962 1  86.041399   3.850397  1.675116
10963 1  84.803363   4.545859  1.675116
10964 1  84.786633   5.965760  1.675116
10965 1  86.007939   6.690200  1.675116
10966 1  83.582058   3.821419  1.675116
10967 1  82.344022   4.516881  1.675116
10968 1  82.327292   5.936783  1.675116
10969 1  83.548597   6.661222  1.675116
10970 1  81.122716   3.792442  1.675116
10971 1  79.884680   4.487904  1.675116
10972 1  79.867950   5.907805  1.675116
10973 1  81.089256   6.632244  1.675116
10974 1  78.663375   3.763464  1.675116
10975 1  77.425339   4.458926  1.675116
10976 1  77.408609   5.878827  1.675116
10977 1  78.629914   6.603267  1.675116
10978 1  76.204033   3.734486  1.675116
10979 1  74.965997   4.429948  1.675116
10980 1  74.949267   5.849850  1.675116
10981 1  76.170573   6.574289  1.675116
10982 1  73.744692   3.705509  1.675116
10983 1  72.506656   4.400971  1.675116
10984 1  72.489926   5.820872  1.675116
10985 1  73.711231   6.545312  1.675116
10986 1  71.285350   3.676531  1.675116
10987 1  70.047315   4.371993  1.675116
10988 1  70.030584   5.791895  1.675116
10989 1  71.251890   6.516334  1.675116
10990 1  68.826009   3.647554  1.675116
10991 1  67.587973   4.343016  1.675116
10992 1  67.571243   5.762917  1.675116
10993 1  68.792549   6.487357  1.675116
10994 1  66.366668   3.618576  1.675116
10995 1  65.128632   4.314038  1.675116
10996 1  65.111901   5.733939  1.675116
10997 1  66.333207   6.458379  1.675116
10998 1  63.907326   3.589599  1.675116
10999 1  62.669290   4.285060  1.675116
11000 1  62.652560   5.704962  1.675116
11001 1  63.873866   6.429401  1.675116
11002 1  61.447985   3.560621  1.675116
11003 1  60.209949   4.256083  1.675116
11004 1  60.193219   5.675984  1.675116
11005 1  61.414524   6.400424  1.675116
11006 1  58.988643   3.531643  1.675116
11007 1  57.750607   4.227105  1.675116
11008 1  57.733877   5.647007  1.675116
11009 1  58.955183   6.371446  1.675116
11010 1  56.529302   3.502666  1.675116
11011 1  55.291266   4.198128  1.675116
11012 1  55.274536   5.618029  1.675116
11013 1  56.495841   6.342469  1.675116
11014 1  54.069960   3.473688  1.675116
11015 1  52.831925   4.169150  1.675116
11016 1  52.815194   5.589052  1.675116
11017 1  54.036500   6.313491  1.675116
11018 1  51.610619   3.444711  1.675116
11019 1  50.372583   4.140173  1.675116
11020 1  50.355853   5.560074  1.675116
11021 1  51.577158   6.284514  1.675116
11022 1  49.151277   3.415733  1.675116
11023 1  47.913242   4.111195  1.675116
11024 1  47.896511   5.531096  1.675116
11025 1  49.117817   6.255536  1.675116
11026 1  46.691936   3.386755  1.675116
11027 1  45.453900   4.082217  1.675116
11028 1  45.437170   5.502119  1.675116
11029 1  46.658476   6.226558  1.675116
11030 1  44.232595   3.357778  1.675116
11031 1  42.994559   4.053240  1.675116
11032 1  42.977829   5.473141  1.675116
11033 1  44.199134   6.197581  1.675116
11034 1  41.773253   3.328800  1.675116
11035 1  40.535217   4.024262  1.675116
11036 1  40.518487   5.444164  1.675116
11037 1  41.739793   6.168603  1.675116
11038 1  39.313912   3.299823  1.675116
11039 1  38.075876   3.995285  1.675116
11040 1  38.059146   5.415186  1.675116
11041 1  39.280451   6.139626  1.675116
11042 1  36.854570   3.270845  1.675116
11043 1  35.616534   3.966307  1.675116
11044 1  35.599804   5.386209  1.675116
11045 1  36.821110   6.110648  1.675116
11046 1  34.395229   3.241868  1.675116
11047 1  33.157193   3.937329  1.675116
11048 1  33.140463   5.357231  1.675116
11049 1  34.361768   6.081670  1.675116
11050 1  31.935887   3.212890  1.675116
11051 1  30.697852   3.908352  1.675116
11052 1  30.681121   5.328253  1.675116
11053 1  31.902427   6.052693  1.675116
11054 1  29.476546   3.183912  1.675116
11055 1  28.238510   3.879374  1.675116
11056 1  28.221780   5.299276  1.675116
11057 1  29.443086   6.023715  1.675116
11058 1  27.017205   3.154935  1.675116
11059 1  25.779169   3.850397  1.675116
11060 1  25.762438   5.270298  1.675116
11061 1  26.983744   5.994738  1.675116
11062 1  24.557863   3.125957  1.675116
11063 1  23.319827   3.821419  1.675116
11064 1  23.303097   5.241321  1.675116
11065 1  24.524403   5.965760  1.675116
11066 1  22.098522   3.096980  1.675116
11067 1  20.860486   3.792442  1.675116
11068 1  20.843756   5.212343  1.675116
11069 1  22.065061   5.936783  1.675116
11070 1  19.639180   3.068002  1.675116
11071 1  18.401144   3.763464  1.675116
11072 1  18.384414   5.183365  1.675116
11073 1  19.605720   5.907805  1.675116
11074 1  17.179839   3.039024  1.675116
11075 1  15.941803   3.734486  1.675116
11076 1  15.925073   5.154388  1.675116
11077 1  17.146378   5.878827  1.675116
11078 1  14.720497   3.010047  1.675116
11079 1  13.482462   3.705509  1.675116
11080 1  13.465731   5.125410  1.675116
11081 1  14.687037   5.849850  1.675116
11082 1  12.261156   2.981069  1.675116
11083 1  11.023120   3.676531  1.675116
11084 1  11.006390   5.096433  1.675116
11085 1  12.227695   5.820872  1.675116
11086 1   9.801814   2.952092  1.675116
11087 1   8.563779   3.647554  1.675116
11088 1   8.547048   5.067455  1.675116
11089 1   9.768354   5.791895  1.675116
11090 1   7.342473   2.923114  1.675116
11091 1   6.104437   3.618576  1.675116
11092 1   6.087707   5.038478  1.675116
11093 1   7.309013   5.762917  1.675116
11094 1   4.883132   2.894137  1.675116
11095 1   3.645096   3.589599  1.675116
11096 1   3.628366   5.009500  1.675116
11097 1   4.849671   5.733939  1.675116
11098 1   2.423790   2.865159  1.675116
11099 1   1.185754   3.560621  1.675116
11100 1   1.169024   4.980522  1.675116
11101 1   2.390330   5.704962  1.675116
11102 1  -0.035551   2.836181  1.675116
11103 1  -1.273587   3.531643  1.675116
11104 1  -1.290317   4.951545  1.675116
11105 1  -0.069012   5.675984  1.675116
11106 1  -2.494893   2.807204  1.675116
11107 1  -3.732929   3.502666  1.675116
11108 1  -3.749659   4.922567  1.675116
11109 1  -2.528353   5.647007  1.675116
11110 1  -4.954234   2.778226  1.675116
11111 1  -6.192270   3.473688  1.675116
11112 1  -6.209000   4.893590  1.675116
11113 1  -4.987695   5.618029  1.675116
11114 1  -7.413576   2.749249  1.675116
11115 1  -8.651611   3.444711  1.675116
11116 1  -8.668342   4.864612  1.675116
11117 1  -7.447036   5.589052  1.675116
11118 1  -9.872917   2.720271  1.675116
11119 1 -11.110953   3.415733  1.675116
11120 1 -11.127683   4.835634  1.675116
11121 1  -9.906377   5.560074  1.675116
11122 1 -12.332258   2.691294  1.675116
11123 1 -13.570294   3.386755  1.675116
11124 1 -13.587024   4.806657  1.675116
11125 1 -12.365719   5.531096  1.675116
11126 1 -14.791600   2.662316  1.675116
11127 1 -16.029636   3.357778  1.675116
11128 1 -16.046366   4.777679  1.675116
11129 1 -14.825060   5.502119  1.675116
11130 1 -17.250941   2.633338  1.675116
11131 1 -18.488977   3.328800  1.675116
11132 1 -18.505707   4.748702  1.675116
11133 1 -17.284402   5.473141  1.675116
11134 1 -19.710283   2.604361  1.675116
11135 1 -20.948319   3.299823  1.675116
11136 1 -20.965049   4.719724  1.675116
11137 1 -19.743743   5.444164  1.675116
11138 1 -22.169624   2.575383  1.675116
11139 1 -23.407660   3.270845  1.675116
11140 1 -23.424390   4.690747  1.675116
11141 1 -22.203085   5.415186  1.675116
11142 1 -24.628966   2.546406  1.675116
11143 1 -25.867001   3.241868  1.675116
11144 1 -25.883732   4.661769  1.675116
11145 1 -24.662426   5.386209  1.675116
11146 1 -27.088307   2.517428  1.675116
11147 1 -28.326343   3.212890  1.675116
11148 1 -28.343073   4.632791  1.675116
11149 1 -27.121767   5.357231  1.675116
11150 1 -29.547649   2.488450  1.675116
11151 1 -30.785684   3.183912  1.675116
11152 1 -30.802415   4.603814  1.675116
11153 1 -29.581109   5.328253  1.675116
11154 1 -32.006990   2.459473  1.675116
11155 1 -33.245026   3.154935  1.675116
11156 1 -33.261756   4.574836  1.675116
11157 1 -32.040450   5.299276  1.675116
11158 1 -34.466331   2.430495  1.675116
11159 1 -35.704367   3.125957  1.675116
11160 1 -35.721097   4.545859  1.675116
11161 1 -34.499792   5.270298  1.675116
11162 1 -36.925673   2.401518  1.675116
11163 1 -38.163709   3.096980  1.675116
11164 1 -38.180439   4.516881  1.675116
11165 1 -36.959133   5.241321  1.675116
11166 1 -39.385014   2.372540  1.675116
11167 1 -40.623050   3.068002  1.675116
11168 1 -40.639780   4.487904  1.675116
11169 1 -39.418475   5.212343  1.675116
11170 1 -41.844356   2.343563  1.675116
11171 1 -43.082392   3.039024  1.675116
11172 1 -43.099122   4.458926  1.675116
11173 1 -41.877816   5.183365  1.675116
11174 1 -44.303697   2.314585  1.675116
11175 1 -45.541733   3.010047  1.675116
11176 1 -45.558463   4.429948  1.675116
11177 1 -44.337158   5.154388  1.675116
11178 1 -46.763039   2.285607  1.675116
11179 1 -48.001074   2.981069  1.675116
11180 1 -48.017805   4.400971  1.675116
11181 1 -46.796499   5.125410  1.675116
11182 1 -49.222380   2.256630  1.675116
11183 1 -50.460416   2.952092  1.675116
11184 1 -50.477146   4.371993  1.675116
11185 1 -49.255840   5.096433  1.675116
11186 1 -51.681721   2.227652  1.675116
11187 1 -52.919757   2.923114  1.675116
11188 1 -52.936487   4.343016  1.675116
11189 1 -51.715182   5.067455  1.675116
11190 1 -54.141063   2.198675  1.675116
11191 1 -55.379099   2.894137  1.675116
11192 1 -55.395829   4.314038  1.675116
11193 1 -54.174523   5.038478  1.675116
11194 1 -56.600404   2.169697  1.675116
11195 1 -57.838440   2.865159  1.675116
11196 1 -57.855170   4.285060  1.675116
11197 1 -56.633865   5.009500  1.675116
11198 1 -59.059746   2.140720  1.675116
11199 1 -60.297782   2.836181  1.675116
11200 1 -60.314512   4.256083  1.675116
11201 1 -59.093206   4.980522  1.675116
11202 1 -61.519087   2.111742  1.675116
11203 1 -62.757123   2.807204  1.675116
11204 1 -62.773853   4.227105  1.675116
11205 1 -61.552548   4.951545  1.675116
11206 1 -63.978429   2.082764  1.675116
11207 1 -65.216464   2.778226  1.675116
11208 1 -65.233195   4.198128  1.675116
11209 1 -64.011889   4.922567  1.675116
11210 1 -66.437770   2.053787  1.675116
11211 1 -67.675806   2.749249  1.675116
11212 1 -67.692536   4.169150  1.675116
11213 1 -66.471230   4.893590  1.675116
11214 1 -68.897111   2.024809  1.675116
11215 1 -70.135147   2.720271  1.675116
11216 1 -70.151878   4.140173  1.675116
11217 1 -68.930572   4.864612  1.675116
11218 1 -71.356453   1.995832  1.675116
11219 1 -72.594489   2.691294  1.675116
11220 1 -72.611219   4.111195  1.675116
11221 1 -71.389913   4.835634  1.675116
11222 1 -73.815794   1.966854  1.675116
11223 1 -75.053830   2.662316  1.675116
11224 1 -75.070560   4.082217  1.675116
11225 1 -73.849255   4.806657  1.675116
11226 1 -76.275136   1.937876  1.675116
11227 1 -77.513172   2.633338  1.675116
11228 1 -77.529902   4.053240  1.675116
11229 1 -76.308596   4.777679  1.675116
11230 1 -78.734477   1.908899  1.675116
11231 1 -79.972513   2.604361  1.675116
11232 1 -79.989243   4.024262  1.675116
11233 1 -78.767938   4.748702  1.675116
11234 1 -81.193819   1.879921  1.675116
11235 1 -82.431854   2.575383  1.675116
11236 1 -82.448585   3.995285  1.675116
11237 1 -81.227279   4.719724  1.675116
11238 1 -83.653160   1.850944  1.675116
11239 1 -84.891196   2.546406  1.675116
11240 1 -84.907926   3.966307  1.675116
11241 1 -83.686621   4.690747  1.675116
11242 1 -86.112502   1.821966  1.675116
11243 1 -87.350537   2.517428  1.675116
11244 1 -87.367268   3.937329  1.675116
11245 1 -86.145962   4.661769  1.675116
11246 1 -88.571843   1.792989  1.675116
11247 1 -89.809879   2.488450  1.675116
11248 1 -89.826609   3.908352  1.675116
11249 1 -88.605303   4.632791  1.675116
11250 1  89.671855   8.863518  1.675116
11251 1  89.655125  10.283420  1.675116
11252 1  88.450550   8.139079  1.675116
11253 1  87.212514   8.834541  1.675116
11254 1  87.195784  10.254442  1.675116
11255 1  88.417089  10.978882  1.675116
11256 1  85.991208   8.110101  1.675116
11257 1  84.753173   8.805563  1.675116
11258 1  84.736442  10.225464  1.675116
11259 1  85.957748  10.949904  1.675116
11260 1  83.531867   8.081123  1.675116
11261 1  82.293831   8.776585  1.675116
11262 1  82.277101  10.196487  1.675116
11263 1  83.498406  10.920926  1.675116
11264 1  81.072525   8.052146  1.675116
11265 1  79.834490   8.747608  1.675116
11266 1  79.817759  10.167509  1.675116
11267 1  81.039065  10.891949  1.675116
11268 1  78.613184   8.023168  1.675116
11269 1  77.375148   8.718630  1.675116
11270 1  77.358418  10.138532  1.675116
11271 1  78.579724  10.862971  1.675116
11272 1  76.153843   7.994191  1.675116
11273 1  74.915807   8.689653  1.675116
11274 1  74.899077  10.109554  1.675116
11275 1  76.120382  10.833994  1.675116
11276 1  73.694501   7.965213  1.675116
11277 1  72.456465   8.660675  1.675116
11278 1  72.439735  10.080577  1.675116
11279 1  73.661041  10.805016  1.675116
11280 1  71.235160   7.936236  1.675116
11281 1  69.997124   8.631698  1.675116
11282 1  69.980394  10.051599  1.675116
11283 1  71.201699  10.776038  1.675116
11284 1  68.775818   7.907258  1.675116
11285 1  67.537782   8.602720  1.675116
11286 1  67.521052  10.022621  1.675116
11287 1  68.742358  10.747061  1.675116
11288 1  66.316477   7.878280  1.675116
11289 1  65.078441   8.573742  1.675116
11290 1  65.061711   9.993644  1.675116
11291 1  66.283016  10.718083  1.675116
11292 1  63.857135   7.849303  1.675116
11293 1  62.619100   8.544765  1.675116
11294 1  62.602369   9.964666  1.675116
11295 1  63.823675  10.689106  1.675116
11296 1  61.397794   7.820325  1.675116
11297 1  60.159758   8.515787  1.675116
11298 1  60.143028   9.935689  1.675116
11299 1  61.364334  10.660128  1.675116
11300 1  58.938453   7.791348  1.675116
11301 1  57.700417   8.486810  1.675116
11302 1  57.683687   9.906711  1.675116
11303 1  58.904992  10.631151  1.675116
11304 1  56.479111   7.762370  1.675116
11305 1  55.241075   8.457832  1.675116
11306 1  55.224345   9.877733  1.675116
11307 1  56.445651  10.602173  1.675116
11308 1  54.019770   7.733393  1.675116
11309 1  52.781734   8.428854  1.675116
11310 1  52.765004   9.848756  1.675116
11311 1  53.986309  10.573195  1.675116
11312 1  51.560428   7.704415  1.675116
11313 1  50.322392   8.399877  1.675116
11314 1  50.305662   9.819778  1.675116
11315 1  51.526968  10.544218  1.675116
11316 1  49.101087   7.675437  1.675116
11317 1  47.863051   8.370899  1.675116
11318 1  47.846321   9.790801  1.675116
11319 1  49.067626  10.515240  1.675116
11320 1  46.641745   7.646460  1.675116
11321 1  45.403710   8.341922  1.675116
11322 1  45.386979   9.761823  1.675116
11323 1  46.608285  10.486263  1.675116
11324 1  44.182404   7.617482  1.675116
11325 1  42.944368   8.312944  1.675116
11326 1  42.927638   9.732846  1.675116
11327 1  44.148944  10.457285  1.675116
11328 1  41.723063   7.588505  1.675116
11329 1  40.485027   8.283967  1.675116
11330 1  40.468296   9.703868  1.675116
11331 1  41.689602  10.428308  1.675116
11332 1  39.263721   7.559527  1.675116
11333 1  38.025685   8.254989  1.675116
11334 1  38.008955   9.674890  1.675116
11335 1  39.230261  10.399330  1.675116
11336 1  36.804380   7.530549  1.675116
11337 1  35.566344   8.226011  1.675116
11338 1  35.549614   9.645913  1.675116
11339 1  36.770919  10.370352  1.675116
11340 1  34.345038   7.501572  1.675116
11341 1  33.107002   8.197034  1.675116
11342 1  33.090272   9.616935  1.675116
11343 1  34.311578  10.341375  1.675116
11344 1  31.885697   7.472594  1.675116
11345 1  30.647661   8.168056  1.675116
11346 1  30.630931   9.587958  1.675116
11347 1  31.852236  10.312397  1.675116
11348 1  29.426355   7.443617  1.675116
11349 1  28.188319   8.139079  1.675116
11350 1  28.171589   9.558980  1.675116
11351 1  29.392895  10.283420  1.675116
11352 1  26.967014   7.414639  1.675116
11353 1  25.728978   8.110101  1.675116
11354 1  25.712248   9.530003  1.675116
11355 1  26.933553  10.254442  1.675116
11356 1  24.507672   7.385662  1.675116
11357 1  23.269637   8.081123  1.675116
11358 1  23.252906   9.501025  1.675116
11359 1  24.474212  10.225464  1.675116
11360 1  22.048331   7.356684  1.675116
11361 1  20.810295   8.052146  1.675116
11362 1  20.793565   9.472047  1.675116
11363 1  22.014871  10.196487  1.675116
11364 1  19.588990   7.327706  1.675116
11365 1  18.350954   8.023168  1.675116
11366 1  18.334224   9.443070  1.675116
11367 1  19.555529  10.167509  1.675116
11368 1  17.129648   7.298729  1.675116
11369 1  15.891612   7.994191  1.675116
11370 1  15.874882   9.414092  1.675116
11371 1  17.096188  10.138532  1.675116
11372 1  14.670307   7.269751  1.675116
11373 1  13.432271   7.965213  1.675116
11374 1  13.415541   9.385115  1.675116
11375 1  14.636846  10.109554  1.675116
11376 1  12.210965   7.240774  1.675116
11377 1  10.972929   7.936236  1.675116
11378 1  10.956199   9.356137  1.675116
11379 1  12.177505  10.080577  1.675116
11380 1   9.751624   7.211796  1.675116
11381 1   8.513588   7.907258  1.675116
11382 1   8.496858   9.327159  1.675116
11383 1   9.718163  10.051599  1.675116
11384 1   7.292282   7.182818  1.675116
11385 1   6.054247   7.878280  1.675116
11386 1   6.037516   9.298182  1.675116
11387 1   7.258822  10.022621  1.675116
11388 1   4.832941   7.153841  1.675116
11389 1   3.594905   7.849303  1.675116
11390 1   3.578175   9.269204  1.675116
11391 1   4.799481   9.993644  1.675116
11392 1   2.373600   7.124863  1.675116
11393 1   1.135564   7.820325  1.675116
11394 1   1.118833   9.240227  1.675116
11395 1   2.340139   9.964666  1.675116
11396 1  -0.085742   7.095886  1.675116
11397 1  -1.323778   7.791348  1.675116
11398 1  -1.340508   9.211249  1.675116
11399 1  -0.119202   9.935689  1.675116
11400 1  -2.545083   7.066908  1.675116
11401 1  -3.783119   7.762370  1.675116
11402 1  -3.799849   9.182272  1.675116
11403 1  -2.578544   9.906711  1.675116
11404 1  -5.004425   7.037931  1.675116
11405 1  -6.242461   7.733393  1.675116
11406 1  -6.259191   9.153294  1.675116
11407 1  -5.037885   9.877733  1.675116
11408 1  -7.463766   7.008953  1.675116
11409 1  -8.701802   7.704415  1.675116
11410 1  -8.718532   9.124316  1.675116
11411 1  -7.497227   9.848756  1.675116
11412 1  -9.923108   6.979975  1.675116
11413 1 -11.161143   7.675437  1.675116
11414 1 -11.177874   9.095339  1.675116
11415 1  -9.956568   9.819778  1.675116
11416 1 -12.382449   6.950998  1.675116
11417 1 -13.620485   7.646460  1.675116
11418 1 -13.637215   9.066361  1.675116
11419 1 -12.415910   9.790801  1.675116
11420 1 -14.841791   6.922020  1.675116
11421 1 -16.079826   7.617482  1.675116
11422 1 -16.096557   9.037384  1.675116
11423 1 -14.875251   9.761823  1.675116
11424 1 -17.301132   6.893043  1.675116
11425 1 -18.539168   7.588505  1.675116
11426 1 -18.555898   9.008406  1.675116
11427 1 -17.334592   9.732846  1.675116
11428 1 -19.760473   6.864065  1.675116
11429 1 -20.998509   7.559527  1.675116
11430 1 -21.015239   8.979428  1.675116
11431 1 -19.793934   9.703868  1.675116
11432 1 -22.219815   6.835088  1.675116
11433 1 -23.457851   7.530549  1.675116
11434 1 -23.474581   8.950451  1.675116
11435 1 -22.253275   9.674890  1.675116
11436 1 -24.679156   6.806110  1.675116
11437 1 -25.917192   7.501572  1.675116
11438 1 -25.933922   8.921473  1.675116
11439 1 -24.712617   9.645913  1.675116
11440 1 -27.138498   6.777132  1.675116
11441 1 -28.376534   7.472594  1.675116
11442 1 -28.393264   8.892496  1.675116
11443 1 -27.171958   9.616935  1.675116
11444 1 -29.597839   6.748155  1.675116
11445 1 -30.835875   7.443617  1.675116
11446 1 -30.852605   8.863518  1.675116
11447 1 -29.631300   9.587958  1.675116
11448 1 -32.057181   6.719177  1.675116
11449 1 -33.295216   7.414639  1.675116
11450 1 -33.311947   8.834541  1.675116
11451 1 -32.090641   9.558980  1.675116
11452 1 -34.516522   6.690200  1.675116
11453 1 -35.754558   7.385662  1.675116
11454 1 -35.771288   8.805563  1.675116
11455 1 -34.549982   9.530003  1.675116
11456 1 -36.975863   6.661222  1.675116
11457 1 -38.213899   7.356684  1.675116
11458 1 -38.230629   8.776585  1.675116
11459 1 -37.009324   9.501025  1.675116
11460 1 -39.435205   6.632244  1.675116
11461 1 -40.673241   7.327706  1.675116
11462 1 -40.689971   8.747608  1.675116
11463 1 -39.468665   9.472047  1.675116
11464 1 -41.894546   6.603267  1.675116
11465 1 -43.132582   7.298729  1.675116
11466 1 -43.149312   8.718630  1.675116
11467 1 -41.928007   9.443070  1.675116
11468 1 -44.353888   6.574289  1.675116
11469 1 -45.591924   7.269751  1.675116
11470 1 -45.608654   8.689653  1.675116
11471 1 -44.387348   9.414092  1.675116
11472 1 -46.813229   6.545312  1.675116
11473 1 -48.051265   7.240774  1.675116
11474 1 -48.067995   8.660675  1.675116
11475 1 -46.846690   9.385115  1.675116
11476 1 -49.272571   6.516334  1.675116
11477 1 -50.510606   7.211796  1.675116
11478 1 -50.527337   8.631698  1.675116
11479 1 -49.306031   9.356137  1.675116
11480 1 -51.731912   6.487357  1.675116
11481 1 -52.969948   7.182818  1.675116
11482 1 -52.986678   8.602720  1.675116
11483 1 -51.765372   9.327159  1.675116
11484 1 -54.191254   6.458379  1.675116
11485 1 -55.429289   7.153841  1.675116
11486 1 -55.446020   8.573742  1.675116
11487 1 -54.224714   9.298182  1.675116
11488 1 -56.650595   6.429401  1.675116
11489 1 -57.888631   7.124863  1.675116
11490 1 -57.905361   8.544765  1.675116
11491 1 -56.684055   9.269204  1.675116
11492 1 -59.109936   6.400424  1.675116
11493 1 -60.347972   7.095886  1.675116
11494 1 -60.364702   8.515787  1.675116
11495 1 -59.143397   9.240227  1.675116
11496 1 -61.569278   6.371446  1.675116
11497 1 -62.807314   7.066908  1.675116
11498 1 -62.824044   8.486810  1.675116
11499 1 -61.602738   9.211249  1.675116
11500 1 -64.028619   6.342469  1.675116
11501 1 -65.266655   7.037931  1.675116
11502 1 -65.283385   8.457832  1.675116
11503 1 -64.062080   9.182272  1.675116
11504 1 -66.487961   6.313491  1.675116
11505 1 -67.725997   7.008953  1.675116
11506 1 -67.742727   8.428854  1.675116
11507 1 -66.521421   9.153294  1.675116
11508 1 -68.947302   6.284514  1.675116
11509 1 -70.185338   6.979975  1.675116
11510 1 -70.202068   8.399877  1.675116
11511 1 -68.980763   9.124316  1.675116
11512 1 -71.406644   6.255536  1.675116
11513 1 -72.644679   6.950998  1.675116
11514 1 -72.661410   8.370899  1.675116
11515 1 -71.440104   9.095339  1.675116
11516 1 -73.865985   6.226558  1.675116
11517 1 -75.104021   6.922020  1.675116
11518 1 -75.120751   8.341922  1.675116
11519 1 -73.899445   9.066361  1.675116
11520 1 -76.325326   6.197581  1.675116
11521 1 -77.563362   6.893043  1.675116
11522 1 -77.580092   8.312944  1.675116
11523 1 -76.358787   9.037384  1.675116
11524 1 -78.784668   6.168603  1.675116
11525 1 -80.022704   6.864065  1.675116
11526 1 -80.039434   8.283967  1.675116
11527 1 -78.818128   9.008406  1.675116
11528 1 -81.244009   6.139626  1.675116
11529 1 -82.482045   6.835088  1.675116
11530 1 -82.498775   8.254989  1.675116
11531 1 -81.277470   8.979428  1.675116
11532 1 -83.703351   6.110648  1.675116
11533 1 -84.941387   6.806110  1.675116
11534 1 -84.958117   8.226011  1.675116
11535 1 -83.736811   8.950451  1.675116
11536 1 -86.162692   6.081670  1.675116
11537 1 -87.400728   6.777132  1.675116
11538 1 -87.417458   8.197034  1.675116
11539 1 -86.196153   8.921473  1.675116
11540 1 -88.622034   6.052693  1.675116
11541 1 -89.860069   6.748155  1.675116
11542 1 -89.876800   8.168056  1.675116
11543 1 -88.655494   8.892496  1.675116
11544 1  89.621665  13.123222  1.675116
11545 1  89.604935  14.543124  1.675116
11546 1  88.400359  12.398783  1.675116
11547 1  87.162323  13.094245  1.675116
11548 1  87.145593  14.514146  1.675116
11549 1  88.366899  15.238586  1.675116
11550 1  85.941018  12.369805  1.675116
11551 1  84.702982  13.065267  1.675116
11552 1  84.686252  14.485169  1.675116
11553 1  85.907557  15.209608  1.675116
11554 1  83.481676  12.340828  1.675116
11555 1  82.243640  13.036290  1.675116
11556 1  82.226910  14.456191  1.675116
11557 1  83.448216  15.180631  1.675116
11558 1  81.022335  12.311850  1.675116
11559 1  79.784299  13.007312  1.675116
11560 1  79.767569  14.427214  1.675116
11561 1  80.988874  15.151653  1.675116
11562 1  78.562993  12.282873  1.675116
11563 1  77.324958  12.978335  1.675116
11564 1  77.308227  14.398236  1.675116
11565 1  78.529533  15.122676  1.675116
11566 1  76.103652  12.253895  1.675116
11567 1  74.865616  12.949357  1.675116
11568 1  74.848886  14.369258  1.675116
11569 1  76.070192  15.093698  1.675116
11570 1  73.644311  12.224917  1.675116
11571 1  72.406275  12.920379  1.675116
11572 1  72.389544  14.340281  1.675116
11573 1  73.610850  15.064720  1.675116
11574 1  71.184969  12.195940  1.675116
11575 1  69.946933  12.891402  1.675116
11576 1  69.930203  14.311303  1.675116
11577 1  71.151509  15.035743  1.675116
11578 1  68.725628  12.166962  1.675116
11579 1  67.487592  12.862424  1.675116
11580 1  67.470862  14.282326  1.675116
11581 1  68.692167  15.006765  1.675116
11582 1  66.266286  12.137985  1.675116
11583 1  65.028250  12.833447  1.675116
11584 1  65.011520  14.253348  1.675116
11585 1  66.232826  14.977788  1.675116
11586 1  63.806945  12.109007  1.675116
11587 1  62.568909  12.804469  1.675116
11588 1  62.552179  14.224371  1.675116
11589 1  63.773484  14.948810  1.675116
11590 1  61.347603  12.080030  1.675116
11591 1  60.109568  12.775492  1.675116
11592 1  60.092837  14.195393  1.675116
11593 1  61.314143  14.919832  1.675116
11594 1  58.888262  12.051052  1.675116
11595 1  57.650226  12.746514  1.675116
11596 1  57.633496  14.166415  1.675116
11597 1  58.854801  14.890855  1.675116
11598 1  56.428920  12.022074  1.675116
11599 1  55.190885  12.717536  1.675116
11600 1  55.174154  14.137438  1.675116
11601 1  56.395460  14.861877  1.675116
11602 1  53.969579  11.993097  1.675116
11603 1  52.731543  12.688559  1.675116
11604 1  52.714813  14.108460  1.675116
11605 1  53.936119  14.832900  1.675116
11606 1  51.510238  11.964119  1.675116
11607 1  50.272202  12.659581  1.675116
11608 1  50.255472  14.079483  1.675116
11609 1  51.476777  14.803922  1.675116
11610 1  49.050896  11.935142  1.675116
11611 1  47.812860  12.630604  1.675116
11612 1  47.796130  14.050505  1.675116
11613 1  49.017436  14.774945  1.675116
11614 1  46.591555  11.906164  1.675116
11615 1  45.353519  12.601626  1.675116
11616 1  45.336789  14.021527  1.675116
11617 1  46.558094  14.745967  1.675116
11618 1  44.132213  11.877187  1.675116
11619 1  42.894177  12.572648  1.675116
11620 1  42.877447  13.992550  1.675116
11621 1  44.098753  14.716989  1.675116
11622 1  41.672872  11.848209  1.675116
11623 1  40.434836  12.543671  1.675116
11624 1  40.418106  13.963572  1.675116
11625 1  41.639411  14.688012  1.675116
11626 1  39.213530  11.819231  1.675116
11627 1  37.975495  12.514693  1.675116
11628 1  37.958764  13.934595  1.675116
11629 1  39.180070  14.659034  1.675116
11630 1  36.754189  11.790254  1.675116
11631 1  35.516153  12.485716  1.675116
11632 1  35.499423  13.905617  1.675116
11633 1  36.720729  14.630057  1.675116
11634 1  34.294848  11.761276  1.675116
11635 1  33.056812  12.456738  1.675116
11636 1  33.040082  13.876640  1.675116
11637 1  34.261387  14.601079  1.675116
11638 1  31.835506  11.732299  1.675116
11639 1  30.597470  12.427761  1.675116
11640 1  30.580740  13.847662  1.675116
11641 1  31.802046  14.572102  1.675116
11642 1  29.376165  11.703321  1.675116
11643 1  28.138129  12.398783  1.675116
11644 1  28.121399  13.818684  1.675116
11645 1  29.342704  14.543124  1.675116
11646 1  26.916823  11.674343  1.675116
11647 1  25.678787  12.369805  1.675116
11648 1  25.662057  13.789707  1.675116
11649 1  26.883363  14.514146  1.675116
11650 1  24.457482  11.645366  1.675116
11651 1  23.219446  12.340828  1.675116
11652 1  23.202716  13.760729  1.675116
11653 1  24.424021  14.485169  1.675116
11654 1  21.998140  11.616388  1.675116
11655 1  20.760105  12.311850  1.675116
11656 1  20.743374  13.731752  1.675116
11657 1  21.964680  14.456191  1.675116
11658 1  19.538799  11.587411  1.675116
11659 1  18.300763  12.282873  1.675116
11660 1  18.284033  13.702774  1.675116
11661 1  19.505339  14.427214  1.675116
11662 1  17.079458  11.558433  1.675116
11663 1  15.841422  12.253895  1.675116
11664 1  15.824691  13.673797  1.675116
11665 1  17.045997  14.398236  1.675116
11666 1  14.620116  11.529456  1.675116
11667 1  13.382080  12.224917  1.675116
11668 1  13.365350  13.644819  1.675116
11669 1  14.586656  14.369258  1.675116
11670 1  12.160775  11.500478  1.675116
11671 1  10.922739  12.195940  1.675116
11672 1  10.906009  13.615841  1.675116
11673 1  12.127314  14.340281  1.675116
11674 1   9.701433  11.471500  1.675116
11675 1   8.463397  12.166962  1.675116
11676 1   8.446667  13.586864  1.675116
11677 1   9.667973  14.311303  1.675116
11678 1   7.242092  11.442523  1.675116
11679 1   6.004056  12.137985  1.675116
11680 1   5.987326  13.557886  1.675116
11681 1   7.208631  14.282326  1.675116
11682 1   4.782750  11.413545  1.675116
11683 1   3.544714  12.109007  1.675116
11684 1   3.527984  13.528909  1.675116
11685 1   4.749290  14.253348  1.675116
11686 1   2.323409  11.384568  1.675116
11687 1   1.085373  12.080030  1.675116
11688 1   1.068643  13.499931  1.675116
11689 1   2.289948  14.224371  1.675116
11690 1  -0.135933  11.355590  1.675116
11691 1  -1.373968  12.051052  1.675116
11692 1  -1.390699  13.470953  1.675116
11693 1  -0.169393  14.195393  1.675116
11694 1  -2.595274  11.326612  1.675116
11695 1  -3.833310  12.022074  1.675116
11696 1  -3.850040  13.441976  1.675116
11697 1  -2.628734  14.166415  1.675116
11698 1  -5.054615  11.297635  1.675116
11699 1  -6.292651  11.993097  1.675116
11700 1  -6.309381  13.412998  1.675116
11701 1  -5.088076  14.137438  1.675116
11702 1  -7.513957  11.268657  1.675116
11703 1  -8.751993  11.964119  1.675116
11704 1  -8.768723  13.384021  1.675116
11705 1  -7.547417  14.108460  1.675116
11706 1  -9.973298  11.239680  1.675116
11707 1 -11.211334  11.935142  1.675116
11708 1 -11.228064  13.355043  1.675116
11709 1 -10.006759  14.079483  1.675116
11710 1 -12.432640  11.210702  1.675116
11711 1 -13.670676  11.906164  1.675116
11712 1 -13.687406  13.326066  1.675116
11713 1 -12.466100  14.050505  1.675116
11714 1 -14.891981  11.181725  1.675116
11715 1 -16.130017  11.877187  1.675116
11716 1 -16.146747  13.297088  1.675116
11717 1 -14.925442  14.021527  1.675116
11718 1 -17.351323  11.152747  1.675116
11719 1 -18.589358  11.848209  1.675116
11720 1 -18.606089  13.268110  1.675116
11721 1 -17.384783  13.992550  1.675116
11722 1 -19.810664  11.123769  1.675116
11723 1 -21.048700  11.819231  1.675116
11724 1 -21.065430  13.239133  1.675116
11725 1 -19.844124  13.963572  1.675116
11726 1 -22.270005  11.094792  1.675116
11727 1 -23.508041  11.790254  1.675116
11728 1 -23.524772  13.210155  1.675116
11729 1 -22.303466  13.934595  1.675116
11730 1 -24.729347  11.065814  1.675116
11731 1 -25.967383  11.761276  1.675116
11732 1 -25.984113  13.181178  1.675116
11733 1 -24.762807  13.905617  1.675116
11734 1 -27.188688  11.036837  1.675116
11735 1 -28.426724  11.732299  1.675116
11736 1 -28.443454  13.152200  1.675116
11737 1 -27.222149  13.876640  1.675116
11738 1 -29.648030  11.007859  1.675116
11739 1 -30.886066  11.703321  1.675116
11740 1 -30.902796  13.123222  1.675116
11741 1 -29.681490  13.847662  1.675116
11742 1 -32.107371  10.978882  1.675116
11743 1 -33.345407  11.674343  1.675116
11744 1 -33.362137  13.094245  1.675116
11745 1 -32.140832  13.818684  1.675116
11746 1 -34.566713  10.949904  1.675116
11747 1 -35.804748  11.645366  1.675116
11748 1 -35.821479  13.065267  1.675116
11749 1 -34.600173  13.789707  1.675116
11750 1 -37.026054  10.920926  1.675116
11751 1 -38.264090  11.616388  1.675116
11752 1 -38.280820  13.036290  1.675116
11753 1 -37.059515  13.760729  1.675116
11754 1 -39.485396  10.891949  1.675116
11755 1 -40.723431  11.587411  1.675116
11756 1 -40.740162  13.007312  1.675116
11757 1 -39.518856  13.731752  1.675116
11758 1 -41.944737  10.862971  1.675116
11759 1 -43.182773  11.558433  1.675116
11760 1 -43.199503  12.978335  1.675116
11761 1 -41.978197  13.702774  1.675116
11762 1 -44.404078  10.833994  1.675116
11763 1 -45.642114  11.529456  1.675116
11764 1 -45.658844  12.949357  1.675116
11765 1 -44.437539  13.673797  1.675116
11766 1 -46.863420  10.805016  1.675116
11767 1 -48.101456  11.500478  1.675116
11768 1 -48.118186  12.920379  1.675116
11769 1 -46.896880  13.644819  1.675116
11770 1 -49.322761  10.776038  1.675116
11771 1 -50.560797  11.471500  1.675116
11772 1 -50.577527  12.891402  1.675116
11773 1 -49.356222  13.615841  1.675116
11774 1 -51.782103  10.747061  1.675116
11775 1 -53.020139  11.442523  1.675116
11776 1 -53.036869  12.862424  1.675116
11777 1 -51.815563  13.586864  1.675116
11778 1 -54.241444  10.718083  1.675116
11779 1 -55.479480  11.413545  1.675116
11780 1 -55.496210  12.833447  1.675116
11781 1 -54.274905  13.557886  1.675116
11782 1 -56.700786  10.689106  1.675116
11783 1 -57.938821  11.384568  1.675116
11784 1 -57.955552  12.804469  1.675116
11785 1 -56.734246  13.528909  1.675116
11786 1 -59.160127  10.660128  1.675116
11787 1 -60.398163  11.355590  1.675116
11788 1 -60.414893  12.775492  1.675116
11789 1 -59.193587  13.499931  1.675116
11790 1 -61.619468  10.631151  1.675116
11791 1 -62.857504  11.326612  1.675116
11792 1 -62.874234  12.746514  1.675116
11793 1 -61.652929  13.470953  1.675116
11794 1 -64.078810  10.602173  1.675116
11795 1 -65.316846  11.297635  1.675116
11796 1 -65.333576  12.717536  1.675116
11797 1 -64.112270  13.441976  1.675116
11798 1 -66.538151  10.573195  1.675116
11799 1 -67.776187  11.268657  1.675116
11800 1 -67.792917  12.688559  1.675116
11801 1 -66.571612  13.412998  1.675116
11802 1 -68.997493  10.544218  1.675116
11803 1 -70.235529  11.239680  1.675116
11804 1 -70.252259  12.659581  1.675116
11805 1 -69.030953  13.384021  1.675116
11806 1 -71.456834  10.515240  1.675116
11807 1 -72.694870  11.210702  1.675116
11808 1 -72.711600  12.630604  1.675116
11809 1 -71.490295  13.355043  1.675116
11810 1 -73.916176  10.486263  1.675116
11811 1 -75.154211  11.181725  1.675116
11812 1 -75.170942  12.601626  1.675116
11813 1 -73.949636  13.326066  1.675116
11814 1 -76.375517  10.457285  1.675116
11815 1 -77.613553  11.152747  1.675116
11816 1 -77.630283  12.572648  1.675116
11817 1 -76.408978  13.297088  1.675116
11818 1 -78.834859  10.428308  1.675116
11819 1 -80.072894  11.123769  1.675116
11820 1 -80.089625  12.543671  1.675116
11821 1 -78.868319  13.268110  1.675116
11822 1 -81.294200  10.399330  1.675116
11823 1 -82.532236  11.094792  1.675116
11824 1 -82.548966  12.514693  1.675116
11825 1 -81.327660  13.239133  1.675116
11826 1 -83.753541  10.370352  1.675116
11827 1 -84.991577  11.065814  1.675116
11828 1 -85.008307  12.485716  1.675116
11829 1 -83.787002  13.210155  1.675116
11830 1 -86.212883  10.341375  1.675116
11831 1 -87.450919  11.036837  1.675116
11832 1 -87.467649  12.456738  1.675116
11833 1 -86.246343  13.181178  1.675116
11834 1 -88.672224  10.312397  1.675116
11835 1 -89.910260  11.007859  1.675116
11836 1 -89.926990  12.427761  1.675116
11837 1 -88.705685  13.152200  1.675116
11838 1  89.571474  17.382927  1.675116
11839 1  89.554744  18.802828  1.675116
11840 1  88.350169  16.658487  1.675116
11841 1  87.112133  17.353949  1.675116
11842 1  87.095402  18.773851  1.675116
11843 1  88.316708  19.498290  1.675116
11844 1  85.890827  16.629510  1.675116
11845 1  84.652791  17.324972  1.675116
11846 1  84.636061  18.744873  1.675116
11847 1  85.857367  19.469313  1.675116
11848 1  83.431486  16.600532  1.675116
11849 1  82.193450  17.295994  1.675116
11850 1  82.176720  18.715896  1.675116
11851 1  83.398025  19.440335  1.675116
11852 1  80.972144  16.571555  1.675116
11853 1  79.734108  17.267016  1.675116
11854 1  79.717378  18.686918  1.675116
11855 1  80.938684  19.411357  1.675116
11856 1  78.512803  16.542577  1.675116
11857 1  77.274767  17.238039  1.675116
11858 1  77.258037  18.657940  1.675116
11859 1  78.479342  19.382380  1.675116
11860 1  76.053461  16.513599  1.675116
11861 1  74.815426  17.209061  1.675116
11862 1  74.798695  18.628963  1.675116
11863 1  76.020001  19.353402  1.675116
11864 1  73.594120  16.484622  1.675116
11865 1  72.356084  17.180084  1.675116
11866 1  72.339354  18.599985  1.675116
11867 1  73.560659  19.324425  1.675116
11868 1  71.134778  16.455644  1.675116
11869 1  69.896743  17.151106  1.675116
11870 1  69.880012  18.571008  1.675116
11871 1  71.101318  19.295447  1.675116
11872 1  68.675437  16.426667  1.675116
11873 1  67.437401  17.122129  1.675116
11874 1  67.420671  18.542030  1.675116
11875 1  68.641977  19.266470  1.675116
11876 1  66.216096  16.397689  1.675116
11877 1  64.978060  17.093151  1.675116
11878 1  64.961330  18.513052  1.675116
11879 1  66.182635  19.237492  1.675116
11880 1  63.756754  16.368711  1.675116
11881 1  62.518718  17.064173  1.675116
11882 1  62.501988  18.484075  1.675116
11883 1  63.723294  19.208514  1.675116
11884 1  61.297413  16.339734  1.675116
11885 1  60.059377  17.035196  1.675116
11886 1  60.042647  18.455097  1.675116
11887 1  61.263952  19.179537  1.675116
11888 1  58.838071  16.310756  1.675116
11889 1  57.600035  17.006218  1.675116
11890 1  57.583305  18.426120  1.675116
11891 1  58.804611  19.150559  1.675116
11892 1  56.378730  16.281779  1.675116
11893 1  55.140694  16.977241  1.675116
11894 1  55.123964  18.397142  1.675116
11895 1  56.345269  19.121582  1.675116
11896 1  53.919388  16.252801  1.675116
11897 1  52.681353  16.948263  1.675116
11898 1  52.664622  18.368165  1.675116
11899 1  53.885928  19.092604  1.675116
11900 1  51.460047  16.223824  1.675116
11901 1  50.222011  16.919286  1.675116
11902 1  50.205281  18.339187  1.675116
11903 1  51.426587  19.063626  1.675116
11904 1  49.000706  16.194846  1.675116
11905 1  47.762670  16.890308  1.675116
11906 1  47.745939  18.310209  1.675116
11907 1  48.967245  19.034649  1.675116
11908 1  46.541364  16.165868  1.675116
11909 1  45.303328  16.861330  1.675116
11910 1  45.286598  18.281232  1.675116
11911 1  46.507904  19.005671  1.675116
11912 1  44.082023  16.136891  1.675116
11913 1  42.843987  16.832353  1.675116
11914 1  42.827257  18.252254  1.675116
11915 1  44.048562  18.976694  1.675116
11916 1  41.622681  16.107913  1.675116
11917 1  40.384645  16.803375  1.675116
11918 1  40.367915  18.223277  1.675116
11919 1  41.589221  18.947716  1.675116
11920 1  39.163340  16.078936  1.675116
11921 1  37.925304  16.774398  1.675116
11922 1  37.908574  18.194299  1.675116
11923 1  39.129879  18.918739  1.675116
11924 1  36.703998  16.049958  1.675116
11925 1  35.465963  16.745420  1.675116
11926 1  35.449232  18.165321  1.675116
11927 1  36.670538  18.889761  1.675116
11928 1  34.244657  16.020981  1.675116
11929 1  33.006621  16.716442  1.675116
11930 1  32.989891  18.136344  1.675116
11931 1  34.211196  18.860783  1.675116
11932 1  31.785315  15.992003  1.675116
11933 1  30.547280  16.687465  1.675116
11934 1  30.530549  18.107366  1.675116
11935 1  31.751855  18.831806  1.675116
11936 1  29.325974  15.963025  1.675116
11937 1  28.087938  16.658487  1.675116
11938 1  28.071208  18.078389  1.675116
11939 1  29.292514  18.802828  1.675116
11940 1  26.866633  15.934048  1.675116
11941 1  25.628597  16.629510  1.675116
11942 1  25.611867  18.049411  1.675116
11943 1  26.833172  18.773851  1.675116
11944 1  24.407291  15.905070  1.675116
11945 1  23.169255  16.600532  1.675116
11946 1  23.152525  18.020434  1.675116
11947 1  24.373831  18.744873  1.675116
11948 1  21.947950  15.876093  1.675116
11949 1  20.709914  16.571555  1.675116
11950 1  20.693184  17.991456  1.675116
11951 1  21.914489  18.715896  1.675116
11952 1  19.488608  15.847115  1.675116
11953 1  18.250572  16.542577  1.675116
11954 1  18.233842  17.962478  1.675116
11955 1  19.455148  18.686918  1.675116
11956 1  17.029267  15.818137  1.675116
11957 1  15.791231  16.513599  1.675116
11958 1  15.774501  17.933501  1.675116
11959 1  16.995806  18.657940  1.675116
11960 1  14.569925  15.789160  1.675116
11961 1  13.331890  16.484622  1.675116
11962 1  13.315159  17.904523  1.675116
11963 1  14.536465  18.628963  1.675116
11964 1  12.110584  15.760182  1.675116
11965 1  10.872548  16.455644  1.675116
11966 1  10.855818  17.875546  1.675116
11967 1  12.077124  18.599985  1.675116
11968 1   9.651243  15.731205  1.675116
11969 1   8.413207  16.426667  1.675116
11970 1   8.396477  17.846568  1.675116
11971 1   9.617782  18.571008  1.675116
11972 1   7.191901  15.702227  1.675116
11973 1   5.953865  16.397689  1.675116
11974 1   5.937135  17.817591  1.675116
11975 1   7.158441  18.542030  1.675116
11976 1   4.732560  15.673250  1.675116
11977 1   3.494524  16.368711  1.675116
11978 1   3.477794  17.788613  1.675116
11979 1   4.699099  18.513052  1.675116
11980 1   2.273218  15.644272  1.675116
11981 1   1.035182  16.339734  1.675116
11982 1   1.018452  17.759635  1.675116
11983 1   2.239758  18.484075  1.675116
11984 1  -0.186123  15.615294  1.675116
11985 1  -1.424159  16.310756  1.675116
11986 1  -1.440889  17.730658  1.675116
11987 1  -0.219584  18.455097  1.675116
11988 1  -2.645465  15.586317  1.675116
11989 1  -3.883500  16.281779  1.675116
11990 1  -3.900231  17.701680  1.675116
11991 1  -2.678925  18.426120  1.675116
11992 1  -5.104806  15.557339  1.675116
11993 1  -6.342842  16.252801  1.675116
11994 1  -6.359572  17.672703  1.675116
11995 1  -5.138266  18.397142  1.675116
11996 1  -7.564148  15.528362  1.675116
11997 1  -8.802183  16.223824  1.675116
11998 1  -8.818914  17.643725  1.675116
11999 1  -7.597608  18.368165  1.675116
12000 1 -10.023489  15.499384  1.675116
12001 1 -11.261525  16.194846  1.675116
12002 1 -11.278255  17.614747  1.675116
12003 1 -10.056949  18.339187  1.675116
12004 1 -12.482830  15.470406  1.675116
12005 1 -13.720866  16.165868  1.675116
12006 1 -13.737596  17.585770  1.675116
12007 1 -12.516291  18.310209  1.675116
12008 1 -14.942172  15.441429  1.675116
12009 1 -16.180208  16.136891  1.675116
12010 1 -16.196938  17.556792  1.675116
12011 1 -14.975632  18.281232  1.675116
12012 1 -17.401513  15.412451  1.675116
12013 1 -18.639549  16.107913  1.675116
12014 1 -18.656279  17.527815  1.675116
12015 1 -17.434974  18.252254  1.675116
12016 1 -19.860855  15.383474  1.675116
12017 1 -21.098891  16.078936  1.675116
12018 1 -21.115621  17.498837  1.675116
12019 1 -19.894315  18.223277  1.675116
12020 1 -22.320196  15.354496  1.675116
12021 1 -23.558232  16.049958  1.675116
12022 1 -23.574962  17.469860  1.675116
12023 1 -22.353657  18.194299  1.675116
12024 1 -24.779538  15.325519  1.675116
12025 1 -26.017573  16.020981  1.675116
12026 1 -26.034304  17.440882  1.675116
12027 1 -24.812998  18.165321  1.675116
12028 1 -27.238879  15.296541  1.675116
12029 1 -28.476915  15.992003  1.675116
12030 1 -28.493645  17.411904  1.675116
12031 1 -27.272339  18.136344  1.675116
12032 1 -29.698220  15.267563  1.675116
12033 1 -30.936256  15.963025  1.675116
12034 1 -30.952986  17.382927  1.675116
12035 1 -29.731681  18.107366  1.675116
12036 1 -32.157562  15.238586  1.675116
12037 1 -33.395598  15.934048  1.675116
12038 1 -33.412328  17.353949  1.675116
12039 1 -32.191022  18.078389  1.675116
12040 1 -34.616903  15.209608  1.675116
12041 1 -35.854939  15.905070  1.675116
12042 1 -35.871669  17.324972  1.675116
12043 1 -34.650364  18.049411  1.675116
12044 1 -37.076245  15.180631  1.675116
12045 1 -38.314281  15.876093  1.675116
12046 1 -38.331011  17.295994  1.675116
12047 1 -37.109705  18.020434  1.675116
12048 1 -39.535586  15.151653  1.675116
12049 1 -40.773622  15.847115  1.675116
12050 1 -40.790352  17.267016  1.675116
12051 1 -39.569047  17.991456  1.675116
12052 1 -41.994928  15.122676  1.675116
12053 1 -43.232963  15.818137  1.675116
12054 1 -43.249694  17.238039  1.675116
12055 1 -42.028388  17.962478  1.675116
12056 1 -44.454269  15.093698  1.675116
12057 1 -45.692305  15.789160  1.675116
12058 1 -45.709035  17.209061  1.675116
12059 1 -44.487729  17.933501  1.675116
12060 1 -46.913610  15.064720  1.675116
12061 1 -48.151646  15.760182  1.675116
12062 1 -48.168377  17.180084  1.675116
12063 1 -46.947071  17.904523  1.675116
12064 1 -49.372952  15.035743  1.675116
12065 1 -50.610988  15.731205  1.675116
12066 1 -50.627718  17.151106  1.675116
12067 1 -49.406412  17.875546  1.675116
12068 1 -51.832293  15.006765  1.675116
12069 1 -53.070329  15.702227  1.675116
12070 1 -53.087059  17.122129  1.675116
12071 1 -51.865754  17.846568  1.675116
12072 1 -54.291635  14.977788  1.675116
12073 1 -55.529671  15.673250  1.675116
12074 1 -55.546401  17.093151  1.675116
12075 1 -54.325095  17.817591  1.675116
12076 1 -56.750976  14.948810  1.675116
12077 1 -57.989012  15.644272  1.675116
12078 1 -58.005742  17.064173  1.675116
12079 1 -56.784437  17.788613  1.675116
12080 1 -59.210318  14.919832  1.675116
12081 1 -60.448353  15.615294  1.675116
12082 1 -60.465084  17.035196  1.675116
12083 1 -59.243778  17.759635  1.675116
12084 1 -61.669659  14.890855  1.675116
12085 1 -62.907695  15.586317  1.675116
12086 1 -62.924425  17.006218  1.675116
12087 1 -61.703120  17.730658  1.675116
12088 1 -64.129001  14.861877  1.675116
12089 1 -65.367036  15.557339  1.675116
12090 1 -65.383767  16.977241  1.675116
12091 1 -64.162461  17.701680  1.675116
12092 1 -66.588342  14.832900  1.675116
12093 1 -67.826378  15.528362  1.675116
12094 1 -67.843108  16.948263  1.675116
12095 1 -66.621802  17.672703  1.675116
12096 1 -69.047683  14.803922  1.675116
12097 1 -70.285719  15.499384  1.675116
12098 1 -70.302449  16.919286  1.675116
12099 1 -69.081144  17.643725  1.675116
12100 1 -71.507025  14.774945  1.675116
12101 1 -72.745061  15.470406  1.675116
12102 1 -72.761791  16.890308  1.675116
12103 1 -71.540485  17.614747  1.675116
12104 1 -73.966366  14.745967  1.675116
12105 1 -75.204402  15.441429  1.675116
12106 1 -75.221132  16.861330  1.675116
12107 1 -73.999827  17.585770  1.675116
12108 1 -76.425708  14.716989  1.675116
12109 1 -77.663744  15.412451  1.675116
12110 1 -77.680474  16.832353  1.675116
12111 1 -76.459168  17.556792  1.675116
12112 1 -78.885049  14.688012  1.675116
12113 1 -80.123085  15.383474  1.675116
12114 1 -80.139815  16.803375  1.675116
12115 1 -78.918510  17.527815  1.675116
12116 1 -81.344391  14.659034  1.675116
12117 1 -82.582426  15.354496  1.675116
12118 1 -82.599157  16.774398  1.675116
12119 1 -81.377851  17.498837  1.675116
12120 1 -83.803732  14.630057  1.675116
12121 1 -85.041768  15.325519  1.675116
12122 1 -85.058498  16.745420  1.675116
12123 1 -83.837192  17.469860  1.675116
12124 1 -86.263073  14.601079  1.675116
12125 1 -87.501109  15.296541  1.675116
12126 1 -87.517839  16.716442  1.675116
12127 1 -86.296534  17.440882  1.675116
12128 1 -88.722415  14.572102  1.675116
12129 1 -89.960451  15.267563  1.675116
12130 1 -89.977181  16.687465  1.675116
12131 1 -88.755875  17.411904  1.675116
12132 1  89.521283  21.642631  1.675116
12133 1  89.504553  23.062533  1.675116
12134 1  88.299978  20.918192  1.675116
12135 1  87.061942  21.613654  1.675116
12136 1  87.045212  23.033555  1.675116
12137 1  88.266517  23.757994  1.675116
12138 1  85.840636  20.889214  1.675116
12139 1  84.602601  21.584676  1.675116
12140 1  84.585870  23.004577  1.675116
12141 1  85.807176  23.729017  1.675116
12142 1  83.381295  20.860236  1.675116
12143 1  82.143259  21.555698  1.675116
12144 1  82.126529  22.975600  1.675116
12145 1  83.347835  23.700039  1.675116
12146 1  80.921954  20.831259  1.675116
12147 1  79.683918  21.526721  1.675116
12148 1  79.667188  22.946622  1.675116
12149 1  80.888493  23.671062  1.675116
12150 1  78.462612  20.802281  1.675116
12151 1  77.224576  21.497743  1.675116
12152 1  77.207846  22.917645  1.675116
12153 1  78.429152  23.642084  1.675116
12154 1  76.003271  20.773304  1.675116
12155 1  74.765235  21.468766  1.675116
12156 1  74.748505  22.888667  1.675116
12157 1  75.969810  23.613107  1.675116
12158 1  73.543929  20.744326  1.675116
12159 1  72.305893  21.439788  1.675116
12160 1  72.289163  22.859690  1.675116
12161 1  73.510469  23.584129  1.675116
12162 1  71.084588  20.715349  1.675116
12163 1  69.846552  21.410810  1.675116
12164 1  69.829822  22.830712  1.675116
12165 1  71.051127  23.555151  1.675116
12166 1  68.625246  20.686371  1.675116
12167 1  67.387211  21.381833  1.675116
12168 1  67.370480  22.801734  1.675116
12169 1  68.591786  23.526174  1.675116
12170 1  66.165905  20.657393  1.675116
12171 1  64.927869  21.352855  1.675116
12172 1  64.911139  22.772757  1.675116
12173 1  66.132445  23.497196  1.675116
12174 1  63.706564  20.628416  1.675116
12175 1  62.468528  21.323878  1.675116
12176 1  62.451797  22.743779  1.675116
12177 1  63.673103  23.468219  1.675116
12178 1  61.247222  20.599438  1.675116
12179 1  60.009186  21.294900  1.675116
12180 1  59.992456  22.714802  1.675116
12181 1  61.213762  23.439241  1.675116
12182 1  58.787881  20.570461  1.675116
12183 1  57.549845  21.265923  1.675116
12184 1  57.533115  22.685824  1.675116
12185 1  58.754420  23.410264  1.675116
12186 1  56.328539  20.541483  1.675116
12187 1  55.090503  21.236945  1.675116
12188 1  55.073773  22.656846  1.675116
12189 1  56.295079  23.381286  1.675116
12190 1  53.869198  20.512505  1.675116
12191 1  52.631162  21.207967  1.675116
12192 1  52.614432  22.627869  1.675116
12193 1  53.835737  23.352308  1.675116
12194 1  51.409856  20.483528  1.675116
12195 1  50.171820  21.178990  1.675116
12196 1  50.155090  22.598891  1.675116
12197 1  51.376396  23.323331  1.675116
12198 1  48.950515  20.454550  1.675116
12199 1  47.712479  21.150012  1.675116
12200 1  47.695749  22.569914  1.675116
12201 1  48.917054  23.294353  1.675116
12202 1  46.491173  20.425573  1.675116
12203 1  45.253138  21.121035  1.675116
12204 1  45.236407  22.540936  1.675116
12205 1  46.457713  23.265376  1.675116
12206 1  44.031832  20.396595  1.675116
12207 1  42.793796  21.092057  1.675116
12208 1  42.777066  22.511959  1.675116
12209 1  43.998372  23.236398  1.675116
12210 1  41.572491  20.367618  1.675116
12211 1  40.334455  21.063080  1.675116
12212 1  40.317725  22.482981  1.675116
12213 1  41.539030  23.207420  1.675116
12214 1  39.113149  20.338640  1.675116
12215 1  37.875113  21.034102  1.675116
12216 1  37.858383  22.454003  1.675116
12217 1  39.079689  23.178443  1.675116
12218 1  36.653808  20.309662  1.675116
12219 1  35.415772  21.005124  1.675116
12220 1  35.399042  22.425026  1.675116
12221 1  36.620347  23.149465  1.675116
12222 1  34.194466  20.280685  1.675116
12223 1  32.956430  20.976147  1.675116
12224 1  32.939700  22.396048  1.675116
12225 1  34.161006  23.120488  1.675116
12226 1  31.735125  20.251707  1.675116
12227 1  30.497089  20.947169  1.675116
12228 1  30.480359  22.367071  1.675116
12229 1  31.701664  23.091510  1.675116
12230 1  29.275783  20.222730  1.675116
12231 1  28.037748  20.918192  1.675116
12232 1  28.021017  22.338093  1.675116
12233 1  29.242323  23.062533  1.675116
12234 1  26.816442  20.193752  1.675116
12235 1  25.578406  20.889214  1.675116
12236 1  25.561676  22.309115  1.675116
12237 1  26.782982  23.033555  1.675116
12238 1  24.357101  20.164775  1.675116
12239 1  23.119065  20.860236  1.675116
12240 1  23.102334  22.280138  1.675116
12241 1  24.323640  23.004577  1.675116
12242 1  21.897759  20.135797  1.675116
12243 1  20.659723  20.831259  1.675116
12244 1  20.642993  22.251160  1.675116
12245 1  21.864299  22.975600  1.675116
12246 1  19.438418  20.106819  1.675116
12247 1  18.200382  20.802281  1.675116
12248 1  18.183652  22.222183  1.675116
12249 1  19.404957  22.946622  1.675116
12250 1  16.979076  20.077842  1.675116
12251 1  15.741040  20.773304  1.675116
12252 1  15.724310  22.193205  1.675116
12253 1  16.945616  22.917645  1.675116
12254 1  14.519735  20.048864  1.675116
12255 1  13.281699  20.744326  1.675116
12256 1  13.264969  22.164228  1.675116
12257 1  14.486274  22.888667  1.675116
12258 1  12.060393  20.019887  1.675116
12259 1  10.822358  20.715349  1.675116
12260 1  10.805627  22.135250  1.675116
12261 1  12.026933  22.859690  1.675116
12262 1   9.601052  19.990909  1.675116
12263 1   8.363016  20.686371  1.675116
12264 1   8.346286  22.106272  1.675116
12265 1   9.567591  22.830712  1.675116
12266 1   7.141710  19.961931  1.675116
12267 1   5.903675  20.657393  1.675116
12268 1   5.886944  22.077295  1.675116
12269 1   7.108250  22.801734  1.675116
12270 1   4.682369  19.932954  1.675116
12271 1   3.444333  20.628416  1.675116
12272 1   3.427603  22.048317  1.675116
12273 1   4.648909  22.772757  1.675116
12274 1   2.223028  19.903976  1.675116
12275 1   0.984992  20.599438  1.675116
12276 1   0.968262  22.019340  1.675116
12277 1   2.189567  22.743779  1.675116
12278 1  -0.236314  19.874999  1.675116
12279 1  -1.474350  20.570461  1.675116
12280 1  -1.491080  21.990362  1.675116
12281 1  -0.269774  22.714802  1.675116
12282 1  -2.695655  19.846021  1.675116
12283 1  -3.933691  20.541483  1.675116
12284 1  -3.950421  21.961385  1.675116
12285 1  -2.729116  22.685824  1.675116
12286 1  -5.154997  19.817044  1.675116
12287 1  -6.393033  20.512505  1.675116
12288 1  -6.409763  21.932407  1.675116
12289 1  -5.188457  22.656846  1.675116
12290 1  -7.614338  19.788066  1.675116
12291 1  -8.852374  20.483528  1.675116
12292 1  -8.869104  21.903429  1.675116
12293 1  -7.647799  22.627869  1.675116
12294 1 -10.073680  19.759088  1.675116
12295 1 -11.311715  20.454550  1.675116
12296 1 -11.328446  21.874452  1.675116
12297 1 -10.107140  22.598891  1.675116
12298 1 -12.533021  19.730111  1.675116
12299 1 -13.771057  20.425573  1.675116
12300 1 -13.787787  21.845474  1.675116
12301 1 -12.566481  22.569914  1.675116
12302 1 -14.992362  19.701133  1.675116
12303 1 -16.230398  20.396595  1.675116
12304 1 -16.247128  21.816497  1.675116
12305 1 -15.025823  22.540936  1.675116
12306 1 -17.451704  19.672156  1.675116
12307 1 -18.689740  20.367618  1.675116
12308 1 -18.706470  21.787519  1.675116
12309 1 -17.485164  22.511959  1.675116
12310 1 -19.911045  19.643178  1.675116
12311 1 -21.149081  20.338640  1.675116
12312 1 -21.165811  21.758541  1.675116
12313 1 -19.944506  22.482981  1.675116
12314 1 -22.370387  19.614200  1.675116
12315 1 -23.608423  20.309662  1.675116
12316 1 -23.625153  21.729564  1.675116
12317 1 -22.403847  22.454003  1.675116
12318 1 -24.829728  19.585223  1.675116
12319 1 -26.067764  20.280685  1.675116
12320 1 -26.084494  21.700586  1.675116
12321 1 -24.863189  22.425026  1.675116
12322 1 -27.289070  19.556245  1.675116
12323 1 -28.527105  20.251707  1.675116
12324 1 -28.543836  21.671609  1.675116
12325 1 -27.322530  22.396048  1.675116
12326 1 -29.748411  19.527268  1.675116
12327 1 -30.986447  20.222730  1.675116
12328 1 -31.003177  21.642631  1.675116
12329 1 -29.781871  22.367071  1.675116
12330 1 -32.207753  19.498290  1.675116
12331 1 -33.445788  20.193752  1.675116
12332 1 -33.462519  21.613654  1.675116
12333 1 -32.241213  22.338093  1.675116
12334 1 -34.667094  19.469313  1.675116
12335 1 -35.905130  20.164775  1.675116
12336 1 -35.921860  21.584676  1.675116
12337 1 -34.700554  22.309115  1.675116
12338 1 -37.126435  19.440335  1.675116
12339 1 -38.364471  20.135797  1.675116
12340 1 -38.381201  21.555698  1.675116
12341 1 -37.159896  22.280138  1.675116
12342 1 -39.585777  19.411357  1.675116
12343 1 -40.823813  20.106819  1.675116
12344 1 -40.840543  21.526721  1.675116
12345 1 -39.619237  22.251160  1.675116
12346 1 -42.045118  19.382380  1.675116
12347 1 -43.283154  20.077842  1.675116
12348 1 -43.299884  21.497743  1.675116
12349 1 -42.078579  22.222183  1.675116
12350 1 -44.504460  19.353402  1.675116
12351 1 -45.742496  20.048864  1.675116
12352 1 -45.759226  21.468766  1.675116
12353 1 -44.537920  22.193205  1.675116
12354 1 -46.963801  19.324425  1.675116
12355 1 -48.201837  20.019887  1.675116
12356 1 -48.218567  21.439788  1.675116
12357 1 -46.997262  22.164228  1.675116
12358 1 -49.423143  19.295447  1.675116
12359 1 -50.661178  19.990909  1.675116
12360 1 -50.677909  21.410810  1.675116
12361 1 -49.456603  22.135250  1.675116
12362 1 -51.882484  19.266470  1.675116
12363 1 -53.120520  19.961931  1.675116
12364 1 -53.137250  21.381833  1.675116
12365 1 -51.915944  22.106272  1.675116
12366 1 -54.341825  19.237492  1.675116
12367 1 -55.579861  19.932954  1.675116
12368 1 -55.596591  21.352855  1.675116
12369 1 -54.375286  22.077295  1.675116
12370 1 -56.801167  19.208514  1.675116
12371 1 -58.039203  19.903976  1.675116
12372 1 -58.055933  21.323878  1.675116
12373 1 -56.834627  22.048317  1.675116
12374 1 -59.260508  19.179537  1.675116
12375 1 -60.498544  19.874999  1.675116
12376 1 -60.515274  21.294900  1.675116
12377 1 -59.293969  22.019340  1.675116
12378 1 -61.719850  19.150559  1.675116
12379 1 -62.957886  19.846021  1.675116
12380 1 -62.974616  21.265923  1.675116
12381 1 -61.753310  21.990362  1.675116
12382 1 -64.179191  19.121582  1.675116
12383 1 -65.417227  19.817044  1.675116
12384 1 -65.433957  21.236945  1.675116
12385 1 -64.212652  21.961385  1.675116
12386 1 -66.638533  19.092604  1.675116
12387 1 -67.876568  19.788066  1.675116
12388 1 -67.893299  21.207967  1.675116
12389 1 -66.671993  21.932407  1.675116
12390 1 -69.097874  19.063626  1.675116
12391 1 -70.335910  19.759088  1.675116
12392 1 -70.352640  21.178990  1.675116
12393 1 -69.131334  21.903429  1.675116
12394 1 -71.557215  19.034649  1.675116
12395 1 -72.795251  19.730111  1.675116
12396 1 -72.811982  21.150012  1.675116
12397 1 -71.590676  21.874452  1.675116
12398 1 -74.016557  19.005671  1.675116
12399 1 -75.254593  19.701133  1.675116
12400 1 -75.271323  21.121035  1.675116
12401 1 -74.050017  21.845474  1.675116
12402 1 -76.475898  18.976694  1.675116
12403 1 -77.713934  19.672156  1.675116
12404 1 -77.730664  21.092057  1.675116
12405 1 -76.509359  21.816497  1.675116
12406 1 -78.935240  18.947716  1.675116
12407 1 -80.173276  19.643178  1.675116
12408 1 -80.190006  21.063080  1.675116
12409 1 -78.968700  21.787519  1.675116
12410 1 -81.394581  18.918739  1.675116
12411 1 -82.632617  19.614200  1.675116
12412 1 -82.649347  21.034102  1.675116
12413 1 -81.428042  21.758541  1.675116
12414 1 -83.853923  18.889761  1.675116
12415 1 -85.091958  19.585223  1.675116
12416 1 -85.108689  21.005124  1.675116
12417 1 -83.887383  21.729564  1.675116
12418 1 -86.313264  18.860783  1.675116
12419 1 -87.551300  19.556245  1.675116
12420 1 -87.568030  20.976147  1.675116
12421 1 -86.346725  21.700586  1.675116
12422 1 -88.772606  18.831806  1.675116
12423 1 -90.010641  19.527268  1.675116
12424 1 -90.027372  20.947169  1.675116
12425 1 -88.806066  21.671609  1.675116
12426 1  89.471093  25.902335  1.675116
12427 1  89.454363  27.322237  1.675116
12428 1  88.249787  25.177896  1.675116
12429 1  87.011751  25.873358  1.675116
12430 1  86.995021  27.293259  1.675116
12431 1  88.216327  28.017699  1.675116
12432 1  85.790446  25.148918  1.675116
12433 1  84.552410  25.844380  1.675116
12434 1  84.535680  27.264282  1.675116
12435 1  85.756985  27.988721  1.675116
12436 1  83.331104  25.119941  1.675116
12437 1  82.093069  25.815403  1.675116
12438 1  82.076338  27.235304  1.675116
12439 1  83.297644  27.959744  1.675116
12440 1  80.871763  25.090963  1.675116
12441 1  79.633727  25.786425  1.675116
12442 1  79.616997  27.206327  1.675116
12443 1  80.838302  27.930766  1.675116
12444 1  78.412421  25.061986  1.675116
12445 1  77.174386  25.757448  1.675116
12446 1  77.157655  27.177349  1.675116
12447 1  78.378961  27.901788  1.675116
12448 1  75.953080  25.033008  1.675116
12449 1  74.715044  25.728470  1.675116
12450 1  74.698314  27.148371  1.675116
12451 1  75.919620  27.872811  1.675116
12452 1  73.493739  25.004030  1.675116
12453 1  72.255703  25.699492  1.675116
12454 1  72.238973  27.119394  1.675116
12455 1  73.460278  27.843833  1.675116
12456 1  71.034397  24.975053  1.675116
12457 1  69.796361  25.670515  1.675116
12458 1  69.779631  27.090416  1.675116
12459 1  71.000937  27.814856  1.675116
12460 1  68.575056  24.946075  1.675116
12461 1  67.337020  25.641537  1.675116
12462 1  67.320290  27.061439  1.675116
12463 1  68.541595  27.785878  1.675116
12464 1  66.115714  24.917098  1.675116
12465 1  64.877678  25.612560  1.675116
12466 1  64.860948  27.032461  1.675116
12467 1  66.082254  27.756901  1.675116
12468 1  63.656373  24.888120  1.675116
12469 1  62.418337  25.583582  1.675116
12470 1  62.401607  27.003484  1.675116
12471 1  63.622912  27.727923  1.675116
12472 1  61.197031  24.859143  1.675116
12473 1  59.958996  25.554604  1.675116
12474 1  59.942265  26.974506  1.675116
12475 1  61.163571  27.698945  1.675116
12476 1  58.737690  24.830165  1.675116
12477 1  57.499654  25.525627  1.675116
12478 1  57.482924  26.945528  1.675116
12479 1  58.704230  27.669968  1.675116
12480 1  56.278349  24.801187  1.675116
12481 1  55.040313  25.496649  1.675116
12482 1  55.023583  26.916551  1.675116
12483 1  56.244888  27.640990  1.675116
12484 1  53.819007  24.772210  1.675116
12485 1  52.580971  25.467672  1.675116
12486 1  52.564241  26.887573  1.675116
12487 1  53.785547  27.612013  1.675116
12488 1  51.359666  24.743232  1.675116
12489 1  50.121630  25.438694  1.675116
12490 1  50.104900  26.858596  1.675116
12491 1  51.326205  27.583035  1.675116
12492 1  48.900324  24.714255  1.675116
12493 1  47.662288  25.409717  1.675116
12494 1  47.645558  26.829618  1.675116
12495 1  48.866864  27.554058  1.675116
12496 1  46.440983  24.685277  1.675116
12497 1  45.202947  25.380739  1.675116
12498 1  45.186217  26.800640  1.675116
12499 1  46.407522  27.525080  1.675116
12500 1  43.981641  24.656299  1.675116
12501 1  42.743606  25.351761  1.675116
12502 1  42.726875  26.771663  1.675116
12503 1  43.948181  27.496102  1.675116
12504 1  41.522300  24.627322  1.675116
12505 1  40.284264  25.322784  1.675116
12506 1  40.267534  26.742685  1.675116
12507 1  41.488840  27.467125  1.675116
12508 1  39.062959  24.598344  1.675116
12509 1  37.824923  25.293806  1.675116
12510 1  37.808192  26.713708  1.675116
12511 1  39.029498  27.438147  1.675116
12512 1  36.603617  24.569367  1.675116
12513 1  35.365581  25.264829  1.675116
12514 1  35.348851  26.684730  1.675116
12515 1  36.570157  27.409170  1.675116
12516 1  34.144276  24.540389  1.675116
12517 1  32.906240  25.235851  1.675116
12518 1  32.889510  26.655753  1.675116
12519 1  34.110815  27.380192  1.675116
12520 1  31.684934  24.511412  1.675116
12521 1  30.446898  25.206874  1.675116
12522 1  30.430168  26.626775  1.675116
12523 1  31.651474  27.351214  1.675116
12524 1  29.225593  24.482434  1.675116
12525 1  27.987557  25.177896  1.675116
12526 1  27.970827  26.597797  1.675116
12527 1  29.192132  27.322237  1.675116
12528 1  26.766251  24.453456  1.675116
12529 1  25.528215  25.148918  1.675116
12530 1  25.511485  26.568820  1.675116
12531 1  26.732791  27.293259  1.675116
12532 1  24.306910  24.424479  1.675116
12533 1  23.068874  25.119941  1.675116
12534 1  23.052144  26.539842  1.675116
12535 1  24.273449  27.264282  1.675116
12536 1  21.847568  24.395501  1.675116
12537 1  20.609533  25.090963  1.675116
12538 1  20.592802  26.510865  1.675116
12539 1  21.814108  27.235304  1.675116
12540 1  19.388227  24.366524  1.675116
12541 1  18.150191  25.061986  1.675116
12542 1  18.133461  26.481887  1.675116
12543 1  19.354767  27.206327  1.675116
12544 1  16.928886  24.337546  1.675116
12545 1  15.690850  25.033008  1.675116
12546 1  15.674120  26.452909  1.675116
12547 1  16.895425  27.177349  1.675116
12548 1  14.469544  24.308569  1.675116
12549 1  13.231508  25.004030  1.675116
12550 1  13.214778  26.423932  1.675116
12551 1  14.436084  27.148371  1.675116
12552 1  12.010203  24.279591  1.675116
12553 1  10.772167  24.975053  1.675116
12554 1  10.755437  26.394954  1.675116
12555 1  11.976742  27.119394  1.675116
12556 1   9.550861  24.250613  1.675116
12557 1   8.312825  24.946075  1.675116
12558 1   8.296095  26.365977  1.675116
12559 1   9.517401  27.090416  1.675116
12560 1   7.091520  24.221636  1.675116
12561 1   5.853484  24.917098  1.675116
12562 1   5.836754  26.336999  1.675116
12563 1   7.058059  27.061439  1.675116
12564 1   4.632178  24.192658  1.675116
12565 1   3.394143  24.888120  1.675116
12566 1   3.377412  26.308022  1.675116
12567 1   4.598718  27.032461  1.675116
12568 1   2.172837  24.163681  1.675116
12569 1   0.934801  24.859143  1.675116
12570 1   0.918071  26.279044  1.675116
12571 1   2.139377  27.003484  1.675116
12572 1  -0.286504  24.134703  1.675116
12573 1  -1.524540  24.830165  1.675116
12574 1  -1.541271  26.250066  1.675116
12575 1  -0.319965  26.974506  1.675116
12576 1  -2.745846  24.105725  1.675116
12577 1  -3.983882  24.801187  1.675116
12578 1  -4.000612  26.221089  1.675116
12579 1  -2.779306  26.945528  1.675116
12580 1  -5.205187  24.076748  1.675116
12581 1  -6.443223  24.772210  1.675116
12582 1  -6.459953  26.192111  1.675116
12583 1  -5.238648  26.916551  1.675116
12584 1  -7.664529  24.047770  1.675116
12585 1  -8.902565  24.743232  1.675116
12586 1  -8.919295  26.163134  1.675116
12587 1  -7.697989  26.887573  1.675116
12588 1 -10.123870  24.018793  1.675116
12589 1 -11.361906  24.714255  1.675116
12590 1 -11.378636  26.134156  1.675116
12591 1 -10.157331  26.858596  1.675116
12592 1 -12.583212  23.989815  1.675116
12593 1 -13.821247  24.685277  1.675116
12594 1 -13.837978  26.105179  1.675116
12595 1 -12.616672  26.829618  1.675116
12596 1 -15.042553  23.960838  1.675116
12597 1 -16.280589  24.656299  1.675116
12598 1 -16.297319  26.076201  1.675116
12599 1 -15.076014  26.800640  1.675116
12600 1 -17.501895  23.931860  1.675116
12601 1 -18.739930  24.627322  1.675116
12602 1 -18.756661  26.047223  1.675116
12603 1 -17.535355  26.771663  1.675116
12604 1 -19.961236  23.902882  1.675116
12605 1 -21.199272  24.598344  1.675116
12606 1 -21.216002  26.018246  1.675116
12607 1 -19.994696  26.742685  1.675116
12608 1 -22.420577  23.873905  1.675116
12609 1 -23.658613  24.569367  1.675116
12610 1 -23.675343  25.989268  1.675116
12611 1 -22.454038  26.713708  1.675116
12612 1 -24.879919  23.844927  1.675116
12613 1 -26.117955  24.540389  1.675116
12614 1 -26.134685  25.960291  1.675116
12615 1 -24.913379  26.684730  1.675116
12616 1 -27.339260  23.815950  1.675116
12617 1 -28.577296  24.511412  1.675116
12618 1 -28.594026  25.931313  1.675116
12619 1 -27.372721  26.655753  1.675116
12620 1 -29.798602  23.786972  1.675116
12621 1 -31.036638  24.482434  1.675116
12622 1 -31.053368  25.902335  1.675116
12623 1 -29.832062  26.626775  1.675116
12624 1 -32.257943  23.757994  1.675116
12625 1 -33.495979  24.453456  1.675116
12626 1 -33.512709  25.873358  1.675116
12627 1 -32.291404  26.597797  1.675116
12628 1 -34.717285  23.729017  1.675116
12629 1 -35.955320  24.424479  1.675116
12630 1 -35.972051  25.844380  1.675116
12631 1 -34.750745  26.568820  1.675116
12632 1 -37.176626  23.700039  1.675116
12633 1 -38.414662  24.395501  1.675116
12634 1 -38.431392  25.815403  1.675116
12635 1 -37.210086  26.539842  1.675116
12636 1 -39.635967  23.671062  1.675116
12637 1 -40.874003  24.366524  1.675116
12638 1 -40.890733  25.786425  1.675116
12639 1 -39.669428  26.510865  1.675116
12640 1 -42.095309  23.642084  1.675116
12641 1 -43.333345  24.337546  1.675116
12642 1 -43.350075  25.757448  1.675116
12643 1 -42.128769  26.481887  1.675116
12644 1 -44.554650  23.613107  1.675116
12645 1 -45.792686  24.308569  1.675116
12646 1 -45.809416  25.728470  1.675116
12647 1 -44.588111  26.452909  1.675116
12648 1 -47.013992  23.584129  1.675116
12649 1 -48.252028  24.279591  1.675116
12650 1 -48.268758  25.699492  1.675116
12651 1 -47.047452  26.423932  1.675116
12652 1 -49.473333  23.555151  1.675116
12653 1 -50.711369  24.250613  1.675116
12654 1 -50.728099  25.670515  1.675116
12655 1 -49.506794  26.394954  1.675116
12656 1 -51.932675  23.526174  1.675116
12657 1 -53.170710  24.221636  1.675116
12658 1 -53.187441  25.641537  1.675116
12659 1 -51.966135  26.365977  1.675116
12660 1 -54.392016  23.497196  1.675116
12661 1 -55.630052  24.192658  1.675116
12662 1 -55.646782  25.612560  1.675116
12663 1 -54.425477  26.336999  1.675116
12664 1 -56.851358  23.468219  1.675116
12665 1 -58.089393  24.163681  1.675116
12666 1 -58.106124  25.583582  1.675116
12667 1 -56.884818  26.308022  1.675116
12668 1 -59.310699  23.439241  1.675116
12669 1 -60.548735  24.134703  1.675116
12670 1 -60.565465  25.554604  1.675116
12671 1 -59.344159  26.279044  1.675116
12672 1 -61.770040  23.410264  1.675116
12673 1 -63.008076  24.105725  1.675116
12674 1 -63.024806  25.525627  1.675116
12675 1 -61.803501  26.250066  1.675116
12676 1 -64.229382  23.381286  1.675116
12677 1 -65.467418  24.076748  1.675116
12678 1 -65.484148  25.496649  1.675116
12679 1 -64.262842  26.221089  1.675116
12680 1 -66.688723  23.352308  1.675116
12681 1 -67.926759  24.047770  1.675116
12682 1 -67.943489  25.467672  1.675116
12683 1 -66.722184  26.192111  1.675116
12684 1 -69.148065  23.323331  1.675116
12685 1 -70.386101  24.018793  1.675116
12686 1 -70.402831  25.438694  1.675116
12687 1 -69.181525  26.163134  1.675116
12688 1 -71.607406  23.294353  1.675116
12689 1 -72.845442  23.989815  1.675116
12690 1 -72.862172  25.409717  1.675116
12691 1 -71.640867  26.134156  1.675116
12692 1 -74.066748  23.265376  1.675116
12693 1 -75.304783  23.960838  1.675116
12694 1 -75.321514  25.380739  1.675116
12695 1 -74.100208  26.105179  1.675116
12696 1 -76.526089  23.236398  1.675116
12697 1 -77.764125  23.931860  1.675116
12698 1 -77.780855  25.351761  1.675116
12699 1 -76.559549  26.076201  1.675116
12700 1 -78.985430  23.207420  1.675116
12701 1 -80.223466  23.902882  1.675116
12702 1 -80.240196  25.322784  1.675116
12703 1 -79.018891  26.047223  1.675116
12704 1 -81.444772  23.178443  1.675116
12705 1 -82.682808  23.873905  1.675116
12706 1 -82.699538  25.293806  1.675116
12707 1 -81.478232  26.018246  1.675116
12708 1 -83.904113  23.149465  1.675116
12709 1 -85.142149  23.844927  1.675116
12710 1 -85.158879  25.264829  1.675116
12711 1 -83.937574  25.989268  1.675116
12712 1 -86.363455  23.120488  1.675116
12713 1 -87.601491  23.815950  1.675116
12714 1 -87.618221  25.235851  1.675116
12715 1 -86.396915  25.960291  1.675116
12716 1 -88.822796  23.091510  1.675116
12717 1 -90.060832  23.786972  1.675116
12718 1 -90.077562  25.206874  1.675116
12719 1 -88.856257  25.931313  1.675116
12720 1  89.420902  30.162040  1.675116
12721 1  89.404172  31.581941  1.675116
12722 1  88.199597  29.437600  1.675116
12723 1  86.961561  30.133062  1.675116
12724 1  86.944831  31.552964  1.675116
12725 1  88.166136  32.277403  1.675116
12726 1  85.740255  29.408623  1.675116
12727 1  84.502219  30.104085  1.675116
12728 1  84.485489  31.523986  1.675116
12729 1  85.706795  32.248426  1.675116
12730 1  83.280914  29.379645  1.675116
12731 1  82.042878  30.075107  1.675116
12732 1  82.026148  31.495008  1.675116
12733 1  83.247453  32.219448  1.675116
12734 1  80.821572  29.350668  1.675116
12735 1  79.583536  30.046129  1.675116
12736 1  79.566806  31.466031  1.675116
12737 1  80.788112  32.190470  1.675116
12738 1  78.362231  29.321690  1.675116
12739 1  77.124195  30.017152  1.675116
12740 1  77.107465  31.437053  1.675116
12741 1  78.328770  32.161493  1.675116
12742 1  75.902889  29.292712  1.675116
12743 1  74.664854  29.988174  1.675116
12744 1  74.648123  31.408076  1.675116
12745 1  75.869429  32.132515  1.675116
12746 1  73.443548  29.263735  1.675116
12747 1  72.205512  29.959197  1.675116
12748 1  72.188782  31.379098  1.675116
12749 1  73.410088  32.103538  1.675116
12750 1  70.984207  29.234757  1.675116
12751 1  69.746171  29.930219  1.675116
12752 1  69.729440  31.350121  1.675116
12753 1  70.950746  32.074560  1.675116
12754 1  68.524865  29.205780  1.675116
12755 1  67.286829  29.901242  1.675116
12756 1  67.270099  31.321143  1.675116
12757 1  68.491405  32.045582  1.675116
12758 1  66.065524  29.176802  1.675116
12759 1  64.827488  29.872264  1.675116
12760 1  64.810758  31.292165  1.675116
12761 1  66.032063  32.016605  1.675116
12762 1  63.606182  29.147824  1.675116
12763 1  62.368146  29.843286  1.675116
12764 1  62.351416  31.263188  1.675116
12765 1  63.572722  31.987627  1.675116
12766 1  61.146841  29.118847  1.675116
12767 1  59.908805  29.814309  1.675116
12768 1  59.892075  31.234210  1.675116
12769 1  61.113380  31.958650  1.675116
12770 1  58.687499  29.089869  1.675116
12771 1  57.449464  29.785331  1.675116
12772 1  57.432733  31.205233  1.675116
12773 1  58.654039  31.929672  1.675116
12774 1  56.228158  29.060892  1.675116
12775 1  54.990122  29.756354  1.675116
12776 1  54.973392  31.176255  1.675116
12777 1  56.194697  31.900695  1.675116
12778 1  53.768816  29.031914  1.675116
12779 1  52.530781  29.727376  1.675116
12780 1  52.514050  31.147278  1.675116
12781 1  53.735356  31.871717  1.675116
12782 1  51.309475  29.002937  1.675116
12783 1  50.071439  29.698398  1.675116
12784 1  50.054709  31.118300  1.675116
12785 1  51.276015  31.842739  1.675116
12786 1  48.850134  28.973959  1.675116
12787 1  47.612098  29.669421  1.675116
12788 1  47.595368  31.089322  1.675116
12789 1  48.816673  31.813762  1.675116
12790 1  46.390792  28.944981  1.675116
12791 1  45.152756  29.640443  1.675116
12792 1  45.136026  31.060345  1.675116
12793 1  46.357332  31.784784  1.675116
12794 1  43.931451  28.916004  1.675116
12795 1  42.693415  29.611466  1.675116
12796 1  42.676685  31.031367  1.675116
12797 1  43.897990  31.755807  1.675116
12798 1  41.472109  28.887026  1.675116
12799 1  40.234073  29.582488  1.675116
12800 1  40.217343  31.002390  1.675116
12801 1  41.438649  31.726829  1.675116
12802 1  39.012768  28.858049  1.675116
12803 1  37.774732  29.553511  1.675116
12804 1  37.758002  30.973412  1.675116
12805 1  38.979307  31.697852  1.675116
12806 1  36.553426  28.829071  1.675116
12807 1  35.315391  29.524533  1.675116
12808 1  35.298660  30.944434  1.675116
12809 1  36.519966  31.668874  1.675116
12810 1  34.094085  28.800093  1.675116
12811 1  32.856049  29.495555  1.675116
12812 1  32.839319  30.915457  1.675116
12813 1  34.060625  31.639896  1.675116
12814 1  31.634744  28.771116  1.675116
12815 1  30.396708  29.466578  1.675116
12816 1  30.379978  30.886479  1.675116
12817 1  31.601283  31.610919  1.675116
12818 1  29.175402  28.742138  1.675116
12819 1  27.937366  29.437600  1.675116
12820 1  27.920636  30.857502  1.675116
12821 1  29.141942  31.581941  1.675116
12822 1  26.716061  28.713161  1.675116
12823 1  25.478025  29.408623  1.675116
12824 1  25.461295  30.828524  1.675116
12825 1  26.682600  31.552964  1.675116
12826 1  24.256719  28.684183  1.675116
12827 1  23.018683  29.379645  1.675116
12828 1  23.001953  30.799547  1.675116
12829 1  24.223259  31.523986  1.675116
12830 1  21.797378  28.655206  1.675116
12831 1  20.559342  29.350668  1.675116
12832 1  20.542612  30.770569  1.675116
12833 1  21.763917  31.495008  1.675116
12834 1  19.338036  28.626228  1.675116
12835 1  18.100001  29.321690  1.675116
12836 1  18.083270  30.741591  1.675116
12837 1  19.304576  31.466031  1.675116
12838 1  16.878695  28.597250  1.675116
12839 1  15.640659  29.292712  1.675116
12840 1  15.623929  30.712614  1.675116
12841 1  16.845235  31.437053  1.675116
12842 1  14.419353  28.568273  1.675116
12843 1  13.181318  29.263735  1.675116
12844 1  13.164587  30.683636  1.675116
12845 1  14.385893  31.408076  1.675116
12846 1  11.960012  28.539295  1.675116
12847 1  10.721976  29.234757  1.675116
12848 1  10.705246  30.654659  1.675116
12849 1  11.926552  31.379098  1.675116
12850 1   9.500671  28.510318  1.675116
12851 1   8.262635  29.205780  1.675116
12852 1   8.245905  30.625681  1.675116
12853 1   9.467210  31.350121  1.675116
12854 1   7.041329  28.481340  1.675116
12855 1   5.803293  29.176802  1.675116
12856 1   5.786563  30.596703  1.675116
12857 1   7.007869  31.321143  1.675116
12858 1   4.581988  28.452363  1.675116
12859 1   3.343952  29.147824  1.675116
12860 1   3.327222  30.567726  1.675116
12861 1   4.548527  31.292165  1.675116
12862 1   2.122646  28.423385  1.675116
12863 1   0.884610  29.118847  1.675116
12864 1   0.867880  30.538748  1.675116
12865 1   2.089186  31.263188  1.675116
12866 1  -0.336695  28.394407  1.675116
12867 1  -1.574731  29.089869  1.675116
12868 1  -1.591461  30.509771  1.675116
12869 1  -0.370156  31.234210  1.675116
12870 1  -2.796037  28.365430  1.675116
12871 1  -4.034072  29.060892  1.675116
12872 1  -4.050803  30.480793  1.675116
12873 1  -2.829497  31.205233  1.675116
12874 1  -5.255378  28.336452  1.675116
12875 1  -6.493414  29.031914  1.675116
12876 1  -6.510144  30.451816  1.675116
12877 1  -5.288838  31.176255  1.675116
12878 1  -7.714719  28.307475  1.675116
12879 1  -8.952755  29.002937  1.675116
12880 1  -8.969485  30.422838  1.675116
12881 1  -7.748180  31.147278  1.675116
12882 1 -10.174061  28.278497  1.675116
12883 1 -11.412097  28.973959  1.675116
12884 1 -11.428827  30.393860  1.675116
12885 1 -10.207521  31.118300  1.675116
12886 1 -12.633402  28.249519  1.675116
12887 1 -13.871438  28.944981  1.675116
12888 1 -13.888168  30.364883  1.675116
12889 1 -12.666863  31.089322  1.675116
12890 1 -15.092744  28.220542  1.675116
12891 1 -16.330780  28.916004  1.675116
12892 1 -16.347510  30.335905  1.675116
12893 1 -15.126204  31.060345  1.675116
12894 1 -17.552085  28.191564  1.675116
12895 1 -18.790121  28.887026  1.675116
12896 1 -18.806851  30.306928  1.675116
12897 1 -17.585546  31.031367  1.675116
12898 1 -20.011427  28.162587  1.675116
12899 1 -21.249462  28.858049  1.675116
12900 1 -21.266193  30.277950  1.675116
12901 1 -20.044887  31.002390  1.675116
12902 1 -22.470768  28.133609  1.675116
12903 1 -23.708804  28.829071  1.675116
12904 1 -23.725534  30.248973  1.675116
12905 1 -22.504228  30.973412  1.675116
12906 1 -24.930109  28.104632  1.675116
12907 1 -26.168145  28.800093  1.675116
12908 1 -26.184876  30.219995  1.675116
12909 1 -24.963570  30.944434  1.675116
12910 1 -27.389451  28.075654  1.675116
12911 1 -28.627487  28.771116  1.675116
12912 1 -28.644217  30.191017  1.675116
12913 1 -27.422911  30.915457  1.675116
12914 1 -29.848792  28.046676  1.675116
12915 1 -31.086828  28.742138  1.675116
12916 1 -31.103558  30.162040  1.675116
12917 1 -29.882253  30.886479  1.675116
12918 1 -32.308134  28.017699  1.675116
12919 1 -33.546170  28.713161  1.675116
12920 1 -33.562900  30.133062  1.675116
12921 1 -32.341594  30.857502  1.675116
12922 1 -34.767475  27.988721  1.675116
12923 1 -36.005511  28.684183  1.675116
12924 1 -36.022241  30.104085  1.675116
12925 1 -34.800936  30.828524  1.675116
12926 1 -37.226817  27.959744  1.675116
12927 1 -38.464852  28.655206  1.675116
12928 1 -38.481583  30.075107  1.675116
12929 1 -37.260277  30.799547  1.675116
12930 1 -39.686158  27.930766  1.675116
12931 1 -40.924194  28.626228  1.675116
12932 1 -40.940924  30.046129  1.675116
12933 1 -39.719619  30.770569  1.675116
12934 1 -42.145500  27.901788  1.675116
12935 1 -43.383535  28.597250  1.675116
12936 1 -43.400266  30.017152  1.675116
12937 1 -42.178960  30.741591  1.675116
12938 1 -44.604841  27.872811  1.675116
12939 1 -45.842877  28.568273  1.675116
12940 1 -45.859607  29.988174  1.675116
12941 1 -44.638301  30.712614  1.675116
12942 1 -47.064182  27.843833  1.675116
12943 1 -48.302218  28.539295  1.675116
12944 1 -48.318948  29.959197  1.675116
12945 1 -47.097643  30.683636  1.675116
12946 1 -49.523524  27.814856  1.675116
12947 1 -50.761560  28.510318  1.675116
12948 1 -50.778290  29.930219  1.675116
12949 1 -49.556984  30.654659  1.675116
12950 1 -51.982865  27.785878  1.675116
12951 1 -53.220901  28.481340  1.675116
12952 1 -53.237631  29.901242  1.675116
12953 1 -52.016326  30.625681  1.675116
12954 1 -54.442207  27.756901  1.675116
12955 1 -55.680243  28.452363  1.675116
12956 1 -55.696973  29.872264  1.675116
12957 1 -54.475667  30.596703  1.675116
12958 1 -56.901548  27.727923  1.675116
12959 1 -58.139584  28.423385  1.675116
12960 1 -58.156314  29.843286  1.675116
12961 1 -56.935009  30.567726  1.675116
12962 1 -59.360890  27.698945  1.675116
12963 1 -60.598925  28.394407  1.675116
12964 1 -60.615656  29.814309  1.675116
12965 1 -59.394350  30.538748  1.675116
12966 1 -61.820231  27.669968  1.675116
12967 1 -63.058267  28.365430  1.675116
12968 1 -63.074997  29.785331  1.675116
12969 1 -61.853691  30.509771  1.675116
12970 1 -64.279572  27.640990  1.675116
12971 1 -65.517608  28.336452  1.675116
12972 1 -65.534338  29.756354  1.675116
12973 1 -64.313033  30.480793  1.675116
12974 1 -66.738914  27.612013  1.675116
12975 1 -67.976950  28.307475  1.675116
12976 1 -67.993680  29.727376  1.675116
12977 1 -66.772374  30.451816  1.675116
12978 1 -69.198255  27.583035  1.675116
12979 1 -70.436291  28.278497  1.675116
12980 1 -70.453021  29.698398  1.675116
12981 1 -69.231716  30.422838  1.675116
12982 1 -71.657597  27.554058  1.675116
12983 1 -72.895633  28.249519  1.675116
12984 1 -72.912363  29.669421  1.675116
12985 1 -71.691057  30.393860  1.675116
12986 1 -74.116938  27.525080  1.675116
12987 1 -75.354974  28.220542  1.675116
12988 1 -75.371704  29.640443  1.675116
12989 1 -74.150399  30.364883  1.675116
12990 1 -76.576280  27.496102  1.675116
12991 1 -77.814315  28.191564  1.675116
12992 1 -77.831046  29.611466  1.675116
12993 1 -76.609740  30.335905  1.675116
12994 1 -79.035621  27.467125  1.675116
12995 1 -80.273657  28.162587  1.675116
12996 1 -80.290387  29.582488  1.675116
12997 1 -79.069082  30.306928  1.675116
12998 1 -81.494963  27.438147  1.675116
12999 1 -82.732998  28.133609  1.675116
13000 1 -82.749729  29.553511  1.675116
13001 1 -81.528423  30.277950  1.675116
13002 1 -83.954304  27.409170  1.675116
13003 1 -85.192340  28.104632  1.675116
13004 1 -85.209070  29.524533  1.675116
13005 1 -83.987764  30.248973  1.675116
13006 1 -86.413645  27.380192  1.675116
13007 1 -87.651681  28.075654  1.675116
13008 1 -87.668411  29.495555  1.675116
13009 1 -86.447106  30.219995  1.675116
13010 1 -88.872987  27.351214  1.675116
13011 1 -90.111023  28.046676  1.675116
13012 1 -90.127753  29.466578  1.675116
13013 1 -88.906447  30.191017  1.675116
13014 1  89.370712  34.421744  1.675116
13015 1  89.353981  35.841646  1.675116
13016 1  88.149406  33.697305  1.675116
13017 1  86.911370  34.392767  1.675116
13018 1  86.894640  35.812668  1.675116
13019 1  88.115946  36.537107  1.675116
13020 1  85.690065  33.668327  1.675116
13021 1  84.452029  34.363789  1.675116
13022 1  84.435298  35.783690  1.675116
13023 1  85.656604  36.508130  1.675116
13024 1  83.230723  33.639349  1.675116
13025 1  81.992687  34.334811  1.675116
13026 1  81.975957  35.754713  1.675116
13027 1  83.197263  36.479152  1.675116
13028 1  80.771382  33.610372  1.675116
13029 1  79.533346  34.305834  1.675116
13030 1  79.516616  35.725735  1.675116
13031 1  80.737921  36.450175  1.675116
13032 1  78.312040  33.581394  1.675116
13033 1  77.074004  34.276856  1.675116
13034 1  77.057274  35.696758  1.675116
13035 1  78.278580  36.421197  1.675116
13036 1  75.852699  33.552417  1.675116
13037 1  74.614663  34.247879  1.675116
13038 1  74.597933  35.667780  1.675116
13039 1  75.819238  36.392220  1.675116
13040 1  73.393357  33.523439  1.675116
13041 1  72.155322  34.218901  1.675116
13042 1  72.138591  35.638802  1.675116
13043 1  73.359897  36.363242  1.675116
13044 1  70.934016  33.494462  1.675116
13045 1  69.695980  34.189923  1.675116
13046 1  69.679250  35.609825  1.675116
13047 1  70.900555  36.334264  1.675116
13048 1  68.474674  33.465484  1.675116
13049 1  67.236639  34.160946  1.675116
13050 1  67.219908  35.580847  1.675116
13051 1  68.441214  36.305287  1.675116
13052 1  66.015333  33.436506  1.675116
13053 1  64.777297  34.131968  1.675116
13054 1  64.760567  35.551870  1.675116
13055 1  65.981873  36.276309  1.675116
13056 1  63.555992  33.407529  1.675116
13057 1  62.317956  34.102991  1.675116
13058 1  62.301226  35.522892  1.675116
13059 1  63.522531  36.247332  1.675116
13060 1  61.096650  33.378551  1.675116
13061 1  59.858614  34.074013  1.675116
13062 1  59.841884  35.493915  1.675116
13063 1  61.063190  36.218354  1.675116
13064 1  58.637309  33.349574  1.675116
13065 1  57.399273  34.045036  1.675116
13066 1  57.382543  35.464937  1.675116
13067 1  58.603848  36.189376  1.675116
13068 1  56.177967  33.320596  1.675116
13069 1  54.939931  34.016058  1.675116
13070 1  54.923201  35.435959  1.675116
13071 1  56.144507  36.160399  1.675116
13072 1  53.718626  33.291618  1.675116
13073 1  52.480590  33.987080  1.675116
13074 1  52.463860  35.406982  1.675116
13075 1  53.685165  36.131421  1.675116
13076 1  51.259284  33.262641  1.675116
13077 1  50.021249  33.958103  1.675116
13078 1  50.004518  35.378004  1.675116
13079 1  51.225824  36.102444  1.675116
13080 1  48.799943  33.233663  1.675116
13081 1  47.561907  33.929125  1.675116
13082 1  47.545177  35.349027  1.675116
13083 1  48.766483  36.073466  1.675116
13084 1  46.340602  33.204686  1.675116
13085 1  45.102566  33.900148  1.675116
13086 1  45.085835  35.320049  1.675116
13087 1  46.307141  36.044489  1.675116
13088 1  43.881260  33.175708  1.675116
13089 1  42.643224  33.871170  1.675116
13090 1  42.626494  35.291071  1.675116
13091 1  43.847800  36.015511  1.675116
13092 1  41.421919  33.146731  1.675116
13093 1  40.183883  33.842192  1.675116
13094 1  40.167153  35.262094  1.675116
13095 1  41.388458  35.986533  1.675116
13096 1  38.962577  33.117753  1.675116
13097 1  37.724541  33.813215  1.675116
13098 1  37.707811  35.233116  1.675116
13099 1  38.929117  35.957556  1.675116
13100 1  36.503236  33.088775  1.675116
13101 1  35.265200  33.784237  1.675116
13102 1  35.248470  35.204139  1.675116
13103 1  36.469775  35.928578  1.675116
13104 1  34.043894  33.059798  1.675116
13105 1  32.805859  33.755260  1.675116
13106 1  32.789128  35.175161  1.675116
13107 1  34.010434  35.899601  1.675116
13108 1  31.584553  33.030820  1.675116
13109 1  30.346517  33.726282  1.675116
13110 1  30.329787  35.146184  1.675116
13111 1  31.551092  35.870623  1.675116
13112 1  29.125211  33.001843  1.675116
13113 1  27.887176  33.697305  1.675116
13114 1  27.870445  35.117206  1.675116
13115 1  29.091751  35.841646  1.675116
13116 1  26.665870  32.972865  1.675116
13117 1  25.427834  33.668327  1.675116
13118 1  25.411104  35.088228  1.675116
13119 1  26.632410  35.812668  1.675116
13120 1  24.206529  32.943887  1.675116
13121 1  22.968493  33.639349  1.675116
13122 1  22.951763  35.059251  1.675116
13123 1  24.173068  35.783690  1.675116
13124 1  21.747187  32.914910  1.675116
13125 1  20.509151  33.610372  1.675116
13126 1  20.492421  35.030273  1.675116
13127 1  21.713727  35.754713  1.675116
13128 1  19.287846  32.885932  1.675116
13129 1  18.049810  33.581394  1.675116
13130 1  18.033080  35.001296  1.675116
13131 1  19.254385  35.725735  1.675116
13132 1  16.828504  32.856955  1.675116
13133 1  15.590468  33.552417  1.675116
13134 1  15.573738  34.972318  1.675116
13135 1  16.795044  35.696758  1.675116
13136 1  14.369163  32.827977  1.675116
13137 1  13.131127  33.523439  1.675116
13138 1  13.114397  34.943341  1.675116
13139 1  14.335702  35.667780  1.675116
13140 1  11.909821  32.799000  1.675116
13141 1  10.671786  33.494462  1.675116
13142 1  10.655055  34.914363  1.675116
13143 1  11.876361  35.638802  1.675116
13144 1   9.450480  32.770022  1.675116
13145 1   8.212444  33.465484  1.675116
13146 1   8.195714  34.885385  1.675116
13147 1   9.417020  35.609825  1.675116
13148 1   6.991139  32.741044  1.675116
13149 1   5.753103  33.436506  1.675116
13150 1   5.736373  34.856408  1.675116
13151 1   6.957678  35.580847  1.675116
13152 1   4.531797  32.712067  1.675116
13153 1   3.293761  33.407529  1.675116
13154 1   3.277031  34.827430  1.675116
13155 1   4.498337  35.551870  1.675116
13156 1   2.072456  32.683089  1.675116
13157 1   0.834420  33.378551  1.675116
13158 1   0.817690  34.798453  1.675116
13159 1   2.038995  35.522892  1.675116
13160 1  -0.386886  32.654112  1.675116
13161 1  -1.624922  33.349574  1.675116
13162 1  -1.641652  34.769475  1.675116
13163 1  -0.420346  35.493915  1.675116
13164 1  -2.846227  32.625134  1.675116
13165 1  -4.084263  33.320596  1.675116
13166 1  -4.100993  34.740497  1.675116
13167 1  -2.879688  35.464937  1.675116
13168 1  -5.305569  32.596157  1.675116
13169 1  -6.543604  33.291618  1.675116
13170 1  -6.560335  34.711520  1.675116
13171 1  -5.339029  35.435959  1.675116
13172 1  -7.764910  32.567179  1.675116
13173 1  -9.002946  33.262641  1.675116
13174 1  -9.019676  34.682542  1.675116
13175 1  -7.798370  35.406982  1.675116
13176 1 -10.224252  32.538201  1.675116
13177 1 -11.462287  33.233663  1.675116
13178 1 -11.479018  34.653565  1.675116
13179 1 -10.257712  35.378004  1.675116
13180 1 -12.683593  32.509224  1.675116
13181 1 -13.921629  33.204686  1.675116
13182 1 -13.938359  34.624587  1.675116
13183 1 -12.717053  35.349027  1.675116
13184 1 -15.142934  32.480246  1.675116
13185 1 -16.380970  33.175708  1.675116
13186 1 -16.397700  34.595610  1.675116
13187 1 -15.176395  35.320049  1.675116
13188 1 -17.602276  32.451269  1.675116
13189 1 -18.840312  33.146731  1.675116
13190 1 -18.857042  34.566632  1.675116
13191 1 -17.635736  35.291071  1.675116
13192 1 -20.061617  32.422291  1.675116
13193 1 -21.299653  33.117753  1.675116
13194 1 -21.316383  34.537654  1.675116
13195 1 -20.095078  35.262094  1.675116
13196 1 -22.520959  32.393313  1.675116
13197 1 -23.758995  33.088775  1.675116
13198 1 -23.775725  34.508677  1.675116
13199 1 -22.554419  35.233116  1.675116
13200 1 -24.980300  32.364336  1.675116
13201 1 -26.218336  33.059798  1.675116
13202 1 -26.235066  34.479699  1.675116
13203 1 -25.013761  35.204139  1.675116
13204 1 -27.439642  32.335358  1.675116
13205 1 -28.677677  33.030820  1.675116
13206 1 -28.694408  34.450722  1.675116
13207 1 -27.473102  35.175161  1.675116
13208 1 -29.898983  32.306381  1.675116
13209 1 -31.137019  33.001843  1.675116
13210 1 -31.153749  34.421744  1.675116
13211 1 -29.932443  35.146184  1.675116
13212 1 -32.358324  32.277403  1.675116
13213 1 -33.596360  32.972865  1.675116
13214 1 -33.613090  34.392767  1.675116
13215 1 -32.391785  35.117206  1.675116
13216 1 -34.817666  32.248426  1.675116
13217 1 -36.055702  32.943887  1.675116
13218 1 -36.072432  34.363789  1.675116
13219 1 -34.851126  35.088228  1.675116
13220 1 -37.277007  32.219448  1.675116
13221 1 -38.515043  32.914910  1.675116
13222 1 -38.531773  34.334811  1.675116
13223 1 -37.310468  35.059251  1.675116
13224 1 -39.736349  32.190470  1.675116
13225 1 -40.974385  32.885932  1.675116
13226 1 -40.991115  34.305834  1.675116
13227 1 -39.769809  35.030273  1.675116
13228 1 -42.195690  32.161493  1.675116
13229 1 -43.433726  32.856955  1.675116
13230 1 -43.450456  34.276856  1.675116
13231 1 -42.229151  35.001296  1.675116
13232 1 -44.655032  32.132515  1.675116
13233 1 -45.893067  32.827977  1.675116
13234 1 -45.909798  34.247879  1.675116
13235 1 -44.688492  34.972318  1.675116
13236 1 -47.114373  32.103538  1.675116
13237 1 -48.352409  32.799000  1.675116
13238 1 -48.369139  34.218901  1.675116
13239 1 -47.147833  34.943341  1.675116
13240 1 -49.573714  32.074560  1.675116
13241 1 -50.811750  32.770022  1.675116
13242 1 -50.828481  34.189923  1.675116
13243 1 -49.607175  34.914363  1.675116
13244 1 -52.033056  32.045582  1.675116
13245 1 -53.271092  32.741044  1.675116
13246 1 -53.287822  34.160946  1.675116
13247 1 -52.066516  34.885385  1.675116
13248 1 -54.492397  32.016605  1.675116
13249 1 -55.730433  32.712067  1.675116
13250 1 -55.747163  34.131968  1.675116
13251 1 -54.525858  34.856408  1.675116
13252 1 -56.951739  31.987627  1.675116
13253 1 -58.189775  32.683089  1.675116
13254 1 -58.206505  34.102991  1.675116
13255 1 -56.985199  34.827430  1.675116
13256 1 -59.411080  31.958650  1.675116
13257 1 -60.649116  32.654112  1.675116
13258 1 -60.665846  34.074013  1.675116
13259 1 -59.444541  34.798453  1.675116
13260 1 -61.870422  31.929672  1.675116
13261 1 -63.108457  32.625134  1.675116
13262 1 -63.125188  34.045036  1.675116
13263 1 -61.903882  34.769475  1.675116
13264 1 -64.329763  31.900695  1.675116
13265 1 -65.567799  32.596157  1.675116
13266 1 -65.584529  34.016058  1.675116
13267 1 -64.363224  34.740497  1.675116
13268 1 -66.789105  31.871717  1.675116
13269 1 -68.027140  32.567179  1.675116
13270 1 -68.043871  33.987080  1.675116
13271 1 -66.822565  34.711520  1.675116
13272 1 -69.248446  31.842739  1.675116
13273 1 -70.486482  32.538201  1.675116
13274 1 -70.503212  33.958103  1.675116
13275 1 -69.281906  34.682542  1.675116
13276 1 -71.707787  31.813762  1.675116
13277 1 -72.945823  32.509224  1.675116
13278 1 -72.962553  33.929125  1.675116
13279 1 -71.741248  34.653565  1.675116
13280 1 -74.167129  31.784784  1.675116
13281 1 -75.405165  32.480246  1.675116
13282 1 -75.421895  33.900148  1.675116
13283 1 -74.200589  34.624587  1.675116
13284 1 -76.626470  31.755807  1.675116
13285 1 -77.864506  32.451269  1.675116
13286 1 -77.881236  33.871170  1.675116
13287 1 -76.659931  34.595610  1.675116
13288 1 -79.085812  31.726829  1.675116
13289 1 -80.323848  32.422291  1.675116
13290 1 -80.340578  33.842192  1.675116
13291 1 -79.119272  34.566632  1.675116
13292 1 -81.545153  31.697852  1.675116
13293 1 -82.783189  32.393313  1.675116
13294 1 -82.799919  33.813215  1.675116
13295 1 -81.578614  34.537654  1.675116
13296 1 -84.004495  31.668874  1.675116
13297 1 -85.242530  32.364336  1.675116
13298 1 -85.259261  33.784237  1.675116
13299 1 -84.037955  34.508677  1.675116
13300 1 -86.463836  31.639896  1.675116
13301 1 -87.701872  32.335358  1.675116
13302 1 -87.718602  33.755260  1.675116
13303 1 -86.497296  34.479699  1.675116
13304 1 -88.923177  31.610919  1.675116
13305 1 -90.161213  32.306381  1.675116
13306 1 -90.177944  33.726282  1.675116
13307 1 -88.956638  34.450722  1.675116
13308 1  89.320521  38.681448  1.675116
13309 1  89.303791  40.101350  1.675116
13310 1  88.099215  37.957009  1.675116
13311 1  86.861179  38.652471  1.675116
13312 1  86.844449  40.072372  1.675116
13313 1  88.065755  40.796812  1.675116
13314 1  85.639874  37.928031  1.675116
13315 1  84.401838  38.623493  1.675116
13316 1  84.385108  40.043395  1.675116
13317 1  85.606413  40.767834  1.675116
13318 1  83.180532  37.899054  1.675116
13319 1  81.942497  38.594516  1.675116
13320 1  81.925766  40.014417  1.675116
13321 1  83.147072  40.738857  1.675116
13322 1  80.721191  37.870076  1.675116
13323 1  79.483155  38.565538  1.675116
13324 1  79.466425  39.985440  1.675116
13325 1  80.687731  40.709879  1.675116
13326 1  78.261850  37.841099  1.675116
13327 1  77.023814  38.536561  1.675116
13328 1  77.007084  39.956462  1.675116
13329 1  78.228389  40.680901  1.675116
13330 1  75.802508  37.812121  1.675116
13331 1  74.564472  38.507583  1.675116
13332 1  74.547742  39.927484  1.675116
13333 1  75.769048  40.651924  1.675116
13334 1  73.343167  37.783143  1.675116
13335 1  72.105131  38.478605  1.675116
13336 1  72.088401  39.898507  1.675116
13337 1  73.309706  40.622946  1.675116
13338 1  70.883825  37.754166  1.675116
13339 1  69.645789  38.449628  1.675116
13340 1  69.629059  39.869529  1.675116
13341 1  70.850365  40.593969  1.675116
13342 1  68.424484  37.725188  1.675116
13343 1  67.186448  38.420650  1.675116
13344 1  67.169718  39.840552  1.675116
13345 1  68.391023  40.564991  1.675116
13346 1  65.965142  37.696211  1.675116
13347 1  64.727107  38.391673  1.675116
13348 1  64.710376  39.811574  1.675116
13349 1  65.931682  40.536014  1.675116
13350 1  63.505801  37.667233  1.675116
13351 1  62.267765  38.362695  1.675116
13352 1  62.251035  39.782596  1.675116
13353 1  63.472341  40.507036  1.675116
13354 1  61.046460  37.638256  1.675116
13355 1  59.808424  38.333717  1.675116
13356 1  59.791693  39.753619  1.675116
13357 1  61.012999  40.478058  1.675116
13358 1  58.587118  37.609278  1.675116
13359 1  57.349082  38.304740  1.675116
13360 1  57.332352  39.724641  1.675116
13361 1  58.553658  40.449081  1.675116
13362 1  56.127777  37.580300  1.675116
13363 1  54.889741  38.275762  1.675116
13364 1  54.873011  39.695664  1.675116
13365 1  56.094316  40.420103  1.675116
13366 1  53.668435  37.551323  1.675116
13367 1  52.430399  38.246785  1.675116
13368 1  52.413669  39.666686  1.675116
13369 1  53.634975  40.391126  1.675116
13370 1  51.209094  37.522345  1.675116
13371 1  49.971058  38.217807  1.675116
13372 1  49.954328  39.637709  1.675116
13373 1  51.175633  40.362148  1.675116
13374 1  48.749752  37.493368  1.675116
13375 1  47.511716  38.188830  1.675116
13376 1  47.494986  39.608731  1.675116
13377 1  48.716292  40.333170  1.675116
13378 1  46.290411  37.464390  1.675116
13379 1  45.052375  38.159852  1.675116
13380 1  45.035645  39.579753  1.675116
13381 1  46.256950  40.304193  1.675116
13382 1  43.831069  37.435412  1.675116
13383 1  42.593034  38.130874  1.675116
13384 1  42.576303  39.550776  1.675116
13385 1  43.797609  40.275215  1.675116
13386 1  41.371728  37.406435  1.675116
13387 1  40.133692  38.101897  1.675116
13388 1  40.116962  39.521798  1.675116
13389 1  41.338268  40.246238  1.675116
13390 1  38.912387  37.377457  1.675116
13391 1  37.674351  38.072919  1.675116
13392 1  37.657621  39.492821  1.675116
13393 1  38.878926  40.217260  1.675116
13394 1  36.453045  37.348480  1.675116
13395 1  35.215009  38.043942  1.675116
13396 1  35.198279  39.463843  1.675116
13397 1  36.419585  40.188283  1.675116
13398 1  33.993704  37.319502  1.675116
13399 1  32.755668  38.014964  1.675116
13400 1  32.738938  39.434865  1.675116
13401 1  33.960243  40.159305  1.675116
13402 1  31.534362  37.290525  1.675116
13403 1  30.296326  37.985986  1.675116
13404 1  30.279596  39.405888  1.675116
13405 1  31.500902  40.130327  1.675116
13406 1  29.075021  37.261547  1.675116
13407 1  27.836985  37.957009  1.675116
13408 1  27.820255  39.376910  1.675116
13409 1  29.041560  40.101350  1.675116
13410 1  26.615679  37.232569  1.675116
13411 1  25.377644  37.928031  1.675116
13412 1  25.360913  39.347933  1.675116
13413 1  26.582219  40.072372  1.675116
13414 1  24.156338  37.203592  1.675116
13415 1  22.918302  37.899054  1.675116
13416 1  22.901572  39.318955  1.675116
13417 1  24.122878  40.043395  1.675116
13418 1  21.696997  37.174614  1.675116
13419 1  20.458961  37.870076  1.675116
13420 1  20.442230  39.289978  1.675116
13421 1  21.663536  40.014417  1.675116
13422 1  19.237655  37.145637  1.675116
13423 1  17.999619  37.841099  1.675116
13424 1  17.982889  39.261000  1.675116
13425 1  19.204195  39.985440  1.675116
13426 1  16.778314  37.116659  1.675116
13427 1  15.540278  37.812121  1.675116
13428 1  15.523548  39.232022  1.675116
13429 1  16.744853  39.956462  1.675116
13430 1  14.318972  37.087681  1.675116
13431 1  13.080936  37.783143  1.675116
13432 1  13.064206  39.203045  1.675116
13433 1  14.285512  39.927484  1.675116
13434 1  11.859631  37.058704  1.675116
13435 1  10.621595  37.754166  1.675116
13436 1  10.604865  39.174067  1.675116
13437 1  11.826170  39.898507  1.675116
13438 1   9.400289  37.029726  1.675116
13439 1   8.162254  37.725188  1.675116
13440 1   8.145523  39.145090  1.675116
13441 1   9.366829  39.869529  1.675116
13442 1   6.940948  37.000749  1.675116
13443 1   5.702912  37.696211  1.675116
13444 1   5.686182  39.116112  1.675116
13445 1   6.907487  39.840552  1.675116
13446 1   4.481606  36.971771  1.675116
13447 1   3.243571  37.667233  1.675116
13448 1   3.226840  39.087135  1.675116
13449 1   4.448146  39.811574  1.675116
13450 1   2.022265  36.942794  1.675116
13451 1   0.784229  37.638256  1.675116
13452 1   0.767499  39.058157  1.675116
13453 1   1.988805  39.782596  1.675116
13454 1  -0.437076  36.913816  1.675116
13455 1  -1.675112  37.609278  1.675116
13456 1  -1.691842  39.029179  1.675116
13457 1  -0.470537  39.753619  1.675116
13458 1  -2.896418  36.884838  1.675116
13459 1  -4.134454  37.580300  1.675116
13460 1  -4.151184  39.000202  1.675116
13461 1  -2.929878  39.724641  1.675116
13462 1  -5.355759  36.855861  1.675116
13463 1  -6.593795  37.551323  1.675116
13464 1  -6.610525  38.971224  1.675116
13465 1  -5.389220  39.695664  1.675116
13466 1  -7.815101  36.826883  1.675116
13467 1  -9.053137  37.522345  1.675116
13468 1  -9.069867  38.942247  1.675116
13469 1  -7.848561  39.666686  1.675116
13470 1 -10.274442  36.797906  1.675116
13471 1 -11.512478  37.493368  1.675116
13472 1 -11.529208  38.913269  1.675116
13473 1 -10.307903  39.637709  1.675116
13474 1 -12.733784  36.768928  1.675116
13475 1 -13.971819  37.464390  1.675116
13476 1 -13.988550  38.884291  1.675116
13477 1 -12.767244  39.608731  1.675116
13478 1 -15.193125  36.739951  1.675116
13479 1 -16.431161  37.435412  1.675116
13480 1 -16.447891  38.855314  1.675116
13481 1 -15.226585  39.579753  1.675116
13482 1 -17.652466  36.710973  1.675116
13483 1 -18.890502  37.406435  1.675116
13484 1 -18.907232  38.826336  1.675116
13485 1 -17.685927  39.550776  1.675116
13486 1 -20.111808  36.681995  1.675116
13487 1 -21.349844  37.377457  1.675116
13488 1 -21.366574  38.797359  1.675116
13489 1 -20.145268  39.521798  1.675116
13490 1 -22.571149  36.653018  1.675116
13491 1 -23.809185  37.348480  1.675116
13492 1 -23.825915  38.768381  1.675116
13493 1 -22.604610  39.492821  1.675116
13494 1 -25.030491  36.624040  1.675116
13495 1 -26.268527  37.319502  1.675116
13496 1 -26.285257  38.739404  1.675116
13497 1 -25.063951  39.463843  1.675116
13498 1 -27.489832  36.595063  1.675116
13499 1 -28.727868  37.290525  1.675116
13500 1 -28.744598  38.710426  1.675116
13501 1 -27.523293  39.434865  1.675116
13502 1 -29.949174  36.566085  1.675116
13503 1 -31.187209  37.261547  1.675116
13504 1 -31.203940  38.681448  1.675116
13505 1 -29.982634  39.405888  1.675116
13506 1 -32.408515  36.537107  1.675116
13507 1 -33.646551  37.232569  1.675116
13508 1 -33.663281  38.652471  1.675116
13509 1 -32.441975  39.376910  1.675116
13510 1 -34.867857  36.508130  1.675116
13511 1 -36.105892  37.203592  1.675116
13512 1 -36.122623  38.623493  1.675116
13513 1 -34.901317  39.347933  1.675116
13514 1 -37.327198  36.479152  1.675116
13515 1 -38.565234  37.174614  1.675116
13516 1 -38.581964  38.594516  1.675116
13517 1 -37.360658  39.318955  1.675116
13518 1 -39.786539  36.450175  1.675116
13519 1 -41.024575  37.145637  1.675116
13520 1 -41.041305  38.565538  1.675116
13521 1 -39.820000  39.289978  1.675116
13522 1 -42.245881  36.421197  1.675116
13523 1 -43.483917  37.116659  1.675116
13524 1 -43.500647  38.536561  1.675116
13525 1 -42.279341  39.261000  1.675116
13526 1 -44.705222  36.392220  1.675116
13527 1 -45.943258  37.087681  1.675116
13528 1 -45.959988  38.507583  1.675116
13529 1 -44.738683  39.232022  1.675116
13530 1 -47.164564  36.363242  1.675116
13531 1 -48.402600  37.058704  1.675116
13532 1 -48.419330  38.478605  1.675116
13533 1 -47.198024  39.203045  1.675116
13534 1 -49.623905  36.334264  1.675116
13535 1 -50.861941  37.029726  1.675116
13536 1 -50.878671  38.449628  1.675116
13537 1 -49.657366  39.174067  1.675116
13538 1 -52.083247  36.305287  1.675116
13539 1 -53.321282  37.000749  1.675116
13540 1 -53.338013  38.420650  1.675116
13541 1 -52.116707  39.145090  1.675116
13542 1 -54.542588  36.276309  1.675116
13543 1 -55.780624  36.971771  1.675116
13544 1 -55.797354  38.391673  1.675116
13545 1 -54.576048  39.116112  1.675116
13546 1 -57.001929  36.247332  1.675116
13547 1 -58.239965  36.942794  1.675116
13548 1 -58.256695  38.362695  1.675116
13549 1 -57.035390  39.087135  1.675116
13550 1 -59.461271  36.218354  1.675116
13551 1 -60.699307  36.913816  1.675116
13552 1 -60.716037  38.333717  1.675116
13553 1 -59.494731  39.058157  1.675116
13554 1 -61.920612  36.189376  1.675116
13555 1 -63.158648  36.884838  1.675116
13556 1 -63.175378  38.304740  1.675116
13557 1 -61.954073  39.029179  1.675116
13558 1 -64.379954  36.160399  1.675116
13559 1 -65.617990  36.855861  1.675116
13560 1 -65.634720  38.275762  1.675116
13561 1 -64.413414  39.000202  1.675116
13562 1 -66.839295  36.131421  1.675116
13563 1 -68.077331  36.826883  1.675116
13564 1 -68.094061  38.246785  1.675116
13565 1 -66.872756  38.971224  1.675116
13566 1 -69.298637  36.102444  1.675116
13567 1 -70.536672  36.797906  1.675116
13568 1 -70.553403  38.217807  1.675116
13569 1 -69.332097  38.942247  1.675116
13570 1 -71.757978  36.073466  1.675116
13571 1 -72.996014  36.768928  1.675116
13572 1 -73.012744  38.188830  1.675116
13573 1 -71.791438  38.913269  1.675116
13574 1 -74.217319  36.044489  1.675116
13575 1 -75.455355  36.739951  1.675116
13576 1 -75.472086  38.159852  1.675116
13577 1 -74.250780  38.884291  1.675116
13578 1 -76.676661  36.015511  1.675116
13579 1 -77.914697  36.710973  1.675116
13580 1 -77.931427  38.130874  1.675116
13581 1 -76.710121  38.855314  1.675116
13582 1 -79.136002  35.986533  1.675116
13583 1 -80.374038  36.681995  1.675116
13584 1 -80.390768  38.101897  1.675116
13585 1 -79.169463  38.826336  1.675116
13586 1 -81.595344  35.957556  1.675116
13587 1 -82.833380  36.653018  1.675116
13588 1 -82.850110  38.072919  1.675116
13589 1 -81.628804  38.797359  1.675116
13590 1 -84.054685  35.928578  1.675116
13591 1 -85.292721  36.624040  1.675116
13592 1 -85.309451  38.043942  1.675116
13593 1 -84.088146  38.768381  1.675116
13594 1 -86.514027  35.899601  1.675116
13595 1 -87.752062  36.595063  1.675116
13596 1 -87.768793  38.014964  1.675116
13597 1 -86.547487  38.739404  1.675116
13598 1 -88.973368  35.870623  1.675116
13599 1 -90.211404  36.566085  1.675116
13600 1 -90.228134  37.985986  1.675116
13601 1 -89.006829  38.710426  1.675116
13602 1  89.270330  42.941153  1.675116
13603 1  89.253600  44.361054  1.675116
13604 1  88.049025  42.216713  1.675116
13605 1  86.810989  42.912175  1.675116
13606 1  86.794259  44.332077  1.675116
13607 1  88.015564  45.056516  1.675116
13608 1  85.589683  42.187736  1.675116
13609 1  84.351647  42.883198  1.675116
13610 1  84.334917  44.303099  1.675116
13611 1  85.556223  45.027539  1.675116
13612 1  83.130342  42.158758  1.675116
13613 1  81.892306  42.854220  1.675116
13614 1  81.875576  44.274121  1.675116
13615 1  83.096881  44.998561  1.675116
13616 1  80.671000  42.129780  1.675116
13617 1  79.432965  42.825242  1.675116
13618 1  79.416234  44.245144  1.675116
13619 1  80.637540  44.969583  1.675116
13620 1  78.211659  42.100803  1.675116
13621 1  76.973623  42.796265  1.675116
13622 1  76.956893  44.216166  1.675116
13623 1  78.178198  44.940606  1.675116
13624 1  75.752317  42.071825  1.675116
13625 1  74.514282  42.767287  1.675116
13626 1  74.497551  44.187189  1.675116
13627 1  75.718857  44.911628  1.675116
13628 1  73.292976  42.042848  1.675116
13629 1  72.054940  42.738310  1.675116
13630 1  72.038210  44.158211  1.675116
13631 1  73.259516  44.882651  1.675116
13632 1  70.833635  42.013870  1.675116
13633 1  69.595599  42.709332  1.675116
13634 1  69.578869  44.129234  1.675116
13635 1  70.800174  44.853673  1.675116
13636 1  68.374293  41.984893  1.675116
13637 1  67.136257  42.680355  1.675116
13638 1  67.119527  44.100256  1.675116
13639 1  68.340833  44.824695  1.675116
13640 1  65.914952  41.955915  1.675116
13641 1  64.676916  42.651377  1.675116
13642 1  64.660186  44.071278  1.675116
13643 1  65.881491  44.795718  1.675116
13644 1  63.455610  41.926937  1.675116
13645 1  62.217574  42.622399  1.675116
13646 1  62.200844  44.042301  1.675116
13647 1  63.422150  44.766740  1.675116
13648 1  60.996269  41.897960  1.675116
13649 1  59.758233  42.593422  1.675116
13650 1  59.741503  44.013323  1.675116
13651 1  60.962808  44.737763  1.675116
13652 1  58.536927  41.868982  1.675116
13653 1  57.298892  42.564444  1.675116
13654 1  57.282161  43.984346  1.675116
13655 1  58.503467  44.708785  1.675116
13656 1  56.077586  41.840005  1.675116
13657 1  54.839550  42.535467  1.675116
13658 1  54.822820  43.955368  1.675116
13659 1  56.044126  44.679808  1.675116
13660 1  53.618245  41.811027  1.675116
13661 1  52.380209  42.506489  1.675116
13662 1  52.363479  43.926390  1.675116
13663 1  53.584784  44.650830  1.675116
13664 1  51.158903  41.782050  1.675116
13665 1  49.920867  42.477511  1.675116
13666 1  49.904137  43.897413  1.675116
13667 1  51.125443  44.621852  1.675116
13668 1  48.699562  41.753072  1.675116
13669 1  47.461526  42.448534  1.675116
13670 1  47.444796  43.868435  1.675116
13671 1  48.666101  44.592875  1.675116
13672 1  46.240220  41.724094  1.675116
13673 1  45.002184  42.419556  1.675116
13674 1  44.985454  43.839458  1.675116
13675 1  46.206760  44.563897  1.675116
13676 1  43.780879  41.695117  1.675116
13677 1  42.542843  42.390579  1.675116
13678 1  42.526113  43.810480  1.675116
13679 1  43.747418  44.534920  1.675116
13680 1  41.321537  41.666139  1.675116
13681 1  40.083502  42.361601  1.675116
13682 1  40.066771  43.781503  1.675116
13683 1  41.288077  44.505942  1.675116
13684 1  38.862196  41.637162  1.675116
13685 1  37.624160  42.332624  1.675116
13686 1  37.607430  43.752525  1.675116
13687 1  38.828736  44.476964  1.675116
13688 1  36.402854  41.608184  1.675116
13689 1  35.164819  42.303646  1.675116
13690 1  35.148088  43.723547  1.675116
13691 1  36.369394  44.447987  1.675116
13692 1  33.943513  41.579206  1.675116
13693 1  32.705477  42.274668  1.675116
13694 1  32.688747  43.694570  1.675116
13695 1  33.910053  44.419009  1.675116
13696 1  31.484172  41.550229  1.675116
13697 1  30.246136  42.245691  1.675116
13698 1  30.229406  43.665592  1.675116
13699 1  31.450711  44.390032  1.675116
13700 1  29.024830  41.521251  1.675116
13701 1  27.786794  42.216713  1.675116
13702 1  27.770064  43.636615  1.675116
13703 1  28.991370  44.361054  1.675116
13704 1  26.565489  41.492274  1.675116
13705 1  25.327453  42.187736  1.675116
13706 1  25.310723  43.607637  1.675116
13707 1  26.532028  44.332077  1.675116
13708 1  24.106147  41.463296  1.675116
13709 1  22.868111  42.158758  1.675116
13710 1  22.851381  43.578659  1.675116
13711 1  24.072687  44.303099  1.675116
13712 1  21.646806  41.434319  1.675116
13713 1  20.408770  42.129780  1.675116
13714 1  20.392040  43.549682  1.675116
13715 1  21.613345  44.274121  1.675116
13716 1  19.187464  41.405341  1.675116
13717 1  17.949429  42.100803  1.675116
13718 1  17.932698  43.520704  1.675116
13719 1  19.154004  44.245144  1.675116
13720 1  16.728123  41.376363  1.675116
13721 1  15.490087  42.071825  1.675116
13722 1  15.473357  43.491727  1.675116
13723 1  16.694663  44.216166  1.675116
13724 1  14.268782  41.347386  1.675116
13725 1  13.030746  42.042848  1.675116
13726 1  13.014016  43.462749  1.675116
13727 1  14.235321  44.187189  1.675116
13728 1  11.809440  41.318408  1.675116
13729 1  10.571404  42.013870  1.675116
13730 1  10.554674  43.433772  1.675116
13731 1  11.775980  44.158211  1.675116
13732 1   9.350099  41.289431  1.675116
13733 1   8.112063  41.984893  1.675116
13734 1   8.095333  43.404794  1.675116
13735 1   9.316638  44.129234  1.675116
13736 1   6.890757  41.260453  1.675116
13737 1   5.652721  41.955915  1.675116
13738 1   5.635991  43.375816  1.675116
13739 1   6.857297  44.100256  1.675116
13740 1   4.431416  41.231475  1.675116
13741 1   3.193380  41.926937  1.675116
13742 1   3.176650  43.346839  1.675116
13743 1   4.397955  44.071278  1.675116
13744 1   1.972074  41.202498  1.675116
13745 1   0.734039  41.897960  1.675116
13746 1   0.717308  43.317861  1.675116
13747 1   1.938614  44.042301  1.675116
13748 1  -0.487267  41.173520  1.675116
13749 1  -1.725303  41.868982  1.675116
13750 1  -1.742033  43.288884  1.675116
13751 1  -0.520727  44.013323  1.675116
13752 1  -2.946608  41.144543  1.675116
13753 1  -4.184644  41.840005  1.675116
13754 1  -4.201375  43.259906  1.675116
13755 1  -2.980069  43.984346  1.675116
13756 1  -5.405950  41.115565  1.675116
13757 1  -6.643986  41.811027  1.675116
13758 1  -6.660716  43.230929  1.675116
13759 1  -5.439410  43.955368  1.675116
13760 1  -7.865291  41.086588  1.675116
13761 1  -9.103327  41.782050  1.675116
13762 1  -9.120057  43.201951  1.675116
13763 1  -7.898752  43.926390  1.675116
13764 1 -10.324633  41.057610  1.675116
13765 1 -11.562669  41.753072  1.675116
13766 1 -11.579399  43.172973  1.675116
13767 1 -10.358093  43.897413  1.675116
13768 1 -12.783974  41.028632  1.675116
13769 1 -14.022010  41.724094  1.675116
13770 1 -14.038740  43.143996  1.675116
13771 1 -12.817435  43.868435  1.675116
13772 1 -15.243316  40.999655  1.675116
13773 1 -16.481351  41.695117  1.675116
13774 1 -16.498082  43.115018  1.675116
13775 1 -15.276776  43.839458  1.675116
13776 1 -17.702657  40.970677  1.675116
13777 1 -18.940693  41.666139  1.675116
13778 1 -18.957423  43.086041  1.675116
13779 1 -17.736118  43.810480  1.675116
13780 1 -20.161999  40.941700  1.675116
13781 1 -21.400034  41.637162  1.675116
13782 1 -21.416765  43.057063  1.675116
13783 1 -20.195459  43.781503  1.675116
13784 1 -22.621340  40.912722  1.675116
13785 1 -23.859376  41.608184  1.675116
13786 1 -23.876106  43.028085  1.675116
13787 1 -22.654800  43.752525  1.675116
13788 1 -25.080681  40.883745  1.675116
13789 1 -26.318717  41.579206  1.675116
13790 1 -26.335447  42.999108  1.675116
13791 1 -25.114142  43.723547  1.675116
13792 1 -27.540023  40.854767  1.675116
13793 1 -28.778059  41.550229  1.675116
13794 1 -28.794789  42.970130  1.675116
13795 1 -27.573483  43.694570  1.675116
13796 1 -29.999364  40.825789  1.675116
13797 1 -31.237400  41.521251  1.675116
13798 1 -31.254130  42.941153  1.675116
13799 1 -30.032825  43.665592  1.675116
13800 1 -32.458706  40.796812  1.675116
13801 1 -33.696742  41.492274  1.675116
13802 1 -33.713472  42.912175  1.675116
13803 1 -32.492166  43.636615  1.675116
13804 1 -34.918047  40.767834  1.675116
13805 1 -36.156083  41.463296  1.675116
13806 1 -36.172813  42.883198  1.675116
13807 1 -34.951508  43.607637  1.675116
13808 1 -37.377389  40.738857  1.675116
13809 1 -38.615424  41.434319  1.675116
13810 1 -38.632155  42.854220  1.675116
13811 1 -37.410849  43.578659  1.675116
13812 1 -39.836730  40.709879  1.675116
13813 1 -41.074766  41.405341  1.675116
13814 1 -41.091496  42.825242  1.675116
13815 1 -39.870190  43.549682  1.675116
13816 1 -42.296071  40.680901  1.675116
13817 1 -43.534107  41.376363  1.675116
13818 1 -43.550837  42.796265  1.675116
13819 1 -42.329532  43.520704  1.675116
13820 1 -44.755413  40.651924  1.675116
13821 1 -45.993449  41.347386  1.675116
13822 1 -46.010179  42.767287  1.675116
13823 1 -44.788873  43.491727  1.675116
13824 1 -47.214754  40.622946  1.675116
13825 1 -48.452790  41.318408  1.675116
13826 1 -48.469520  42.738310  1.675116
13827 1 -47.248215  43.462749  1.675116
13828 1 -49.674096  40.593969  1.675116
13829 1 -50.912132  41.289431  1.675116
13830 1 -50.928862  42.709332  1.675116
13831 1 -49.707556  43.433772  1.675116
13832 1 -52.133437  40.564991  1.675116
13833 1 -53.371473  41.260453  1.675116
13834 1 -53.388203  42.680355  1.675116
13835 1 -52.166898  43.404794  1.675116
13836 1 -54.592779  40.536014  1.675116
13837 1 -55.830814  41.231475  1.675116
13838 1 -55.847545  42.651377  1.675116
13839 1 -54.626239  43.375816  1.675116
13840 1 -57.052120  40.507036  1.675116
13841 1 -58.290156  41.202498  1.675116
13842 1 -58.306886  42.622399  1.675116
13843 1 -57.085581  43.346839  1.675116
13844 1 -59.511462  40.478058  1.675116
13845 1 -60.749497  41.173520  1.675116
13846 1 -60.766228  42.593422  1.675116
13847 1 -59.544922  43.317861  1.675116
13848 1 -61.970803  40.449081  1.675116
13849 1 -63.208839  41.144543  1.675116
13850 1 -63.225569  42.564444  1.675116
13851 1 -62.004263  43.288884  1.675116
13852 1 -64.430144  40.420103  1.675116
13853 1 -65.668180  41.115565  1.675116
13854 1 -65.684910  42.535467  1.675116
13855 1 -64.463605  43.259906  1.675116
13856 1 -66.889486  40.391126  1.675116
13857 1 -68.127522  41.086588  1.675116
13858 1 -68.144252  42.506489  1.675116
13859 1 -66.922946  43.230929  1.675116
13860 1 -69.348827  40.362148  1.675116
13861 1 -70.586863  41.057610  1.675116
13862 1 -70.603593  42.477511  1.675116
13863 1 -69.382288  43.201951  1.675116
13864 1 -71.808169  40.333170  1.675116
13865 1 -73.046205  41.028632  1.675116
13866 1 -73.062935  42.448534  1.675116
13867 1 -71.841629  43.172973  1.675116
13868 1 -74.267510  40.304193  1.675116
13869 1 -75.505546  40.999655  1.675116
13870 1 -75.522276  42.419556  1.675116
13871 1 -74.300971  43.143996  1.675116
13872 1 -76.726852  40.275215  1.675116
13873 1 -77.964887  40.970677  1.675116
13874 1 -77.981618  42.390579  1.675116
13875 1 -76.760312  43.115018  1.675116
13876 1 -79.186193  40.246238  1.675116
13877 1 -80.424229  40.941700  1.675116
13878 1 -80.440959  42.361601  1.675116
13879 1 -79.219653  43.086041  1.675116
13880 1 -81.645534  40.217260  1.675116
13881 1 -82.883570  40.912722  1.675116
13882 1 -82.900300  42.332624  1.675116
13883 1 -81.678995  43.057063  1.675116
13884 1 -84.104876  40.188283  1.675116
13885 1 -85.342912  40.883745  1.675116
13886 1 -85.359642  42.303646  1.675116
13887 1 -84.138336  43.028085  1.675116
13888 1 -86.564217  40.159305  1.675116
13889 1 -87.802253  40.854767  1.675116
13890 1 -87.818983  42.274668  1.675116
13891 1 -86.597678  42.999108  1.675116
13892 1 -89.023559  40.130327  1.675116
13893 1 -90.261595  40.825789  1.675116
13894 1 -90.278325  42.245691  1.675116
13895 1 -89.057019  42.970130  1.675116
13896 1  89.220140  47.200857  1.675116
13897 1  89.203409  48.620758  1.675116
13898 1  87.998834  46.476418  1.675116
13899 1  86.760798  47.171879  1.675116
13900 1  86.744068  48.591781  1.675116
13901 1  87.965374  49.316220  1.675116
13902 1  85.539493  46.447440  1.675116
13903 1  84.301457  47.142902  1.675116
13904 1  84.284727  48.562803  1.675116
13905 1  85.506032  49.287243  1.675116
13906 1  83.080151  46.418462  1.675116
13907 1  81.842115  47.113924  1.675116
13908 1  81.825385  48.533826  1.675116
13909 1  83.046691  49.258265  1.675116
13910 1  80.620810  46.389485  1.675116
13911 1  79.382774  47.084947  1.675116
13912 1  79.366044  48.504848  1.675116
13913 1  80.587349  49.229288  1.675116
13914 1  78.161468  46.360507  1.675116
13915 1  76.923432  47.055969  1.675116
13916 1  76.906702  48.475871  1.675116
13917 1  78.128008  49.200310  1.675116
13918 1  75.702127  46.331530  1.675116
13919 1  74.464091  47.026992  1.675116
13920 1  74.447361  48.446893  1.675116
13921 1  75.668666  49.171333  1.675116
13922 1  73.242785  46.302552  1.675116
13923 1  72.004750  46.998014  1.675116
13924 1  71.988019  48.417915  1.675116
13925 1  73.209325  49.142355  1.675116
13926 1  70.783444  46.273574  1.675116
13927 1  69.545408  46.969036  1.675116
13928 1  69.528678  48.388938  1.675116
13929 1  70.749984  49.113377  1.675116
13930 1  68.324103  46.244597  1.675116
13931 1  67.086067  46.940059  1.675116
13932 1  67.069336  48.359960  1.675116
13933 1  68.290642  49.084400  1.675116
13934 1  65.864761  46.215619  1.675116
13935 1  64.626725  46.911081  1.675116
13936 1  64.609995  48.330983  1.675116
13937 1  65.831301  49.055422  1.675116
13938 1  63.405420  46.186642  1.675116
13939 1  62.167384  46.882104  1.675116
13940 1  62.150654  48.302005  1.675116
13941 1  63.371959  49.026445  1.675116
13942 1  60.946078  46.157664  1.675116
13943 1  59.708042  46.853126  1.675116
13944 1  59.691312  48.273028  1.675116
13945 1  60.912618  48.997467  1.675116
13946 1  58.486737  46.128687  1.675116
13947 1  57.248701  46.824149  1.675116
13948 1  57.231971  48.244050  1.675116
13949 1  58.453276  48.968489  1.675116
13950 1  56.027395  46.099709  1.675116
13951 1  54.789360  46.795171  1.675116
13952 1  54.772629  48.215072  1.675116
13953 1  55.993935  48.939512  1.675116
13954 1  53.568054  46.070731  1.675116
13955 1  52.330018  46.766193  1.675116
13956 1  52.313288  48.186095  1.675116
13957 1  53.534593  48.910534  1.675116
13958 1  51.108712  46.041754  1.675116
13959 1  49.870677  46.737216  1.675116
13960 1  49.853946  48.157117  1.675116
13961 1  51.075252  48.881557  1.675116
13962 1  48.649371  46.012776  1.675116
13963 1  47.411335  46.708238  1.675116
13964 1  47.394605  48.128140  1.675116
13965 1  48.615911  48.852579  1.675116
13966 1  46.190030  45.983799  1.675116
13967 1  44.951994  46.679261  1.675116
13968 1  44.935264  48.099162  1.675116
13969 1  46.156569  48.823602  1.675116
13970 1  43.730688  45.954821  1.675116
13971 1  42.492652  46.650283  1.675116
13972 1  42.475922  48.070184  1.675116
13973 1  43.697228  48.794624  1.675116
13974 1  41.271347  45.925844  1.675116
13975 1  40.033311  46.621305  1.675116
13976 1  40.016581  48.041207  1.675116
13977 1  41.237886  48.765646  1.675116
13978 1  38.812005  45.896866  1.675116
13979 1  37.573969  46.592328  1.675116
13980 1  37.557239  48.012229  1.675116
13981 1  38.778545  48.736669  1.675116
13982 1  36.352664  45.867888  1.675116
13983 1  35.114628  46.563350  1.675116
13984 1  35.097898  47.983252  1.675116
13985 1  36.319203  48.707691  1.675116
13986 1  33.893322  45.838911  1.675116
13987 1  32.655287  46.534373  1.675116
13988 1  32.638556  47.954274  1.675116
13989 1  33.859862  48.678714  1.675116
13990 1  31.433981  45.809933  1.675116
13991 1  30.195945  46.505395  1.675116
13992 1  30.179215  47.925297  1.675116
13993 1  31.400521  48.649736  1.675116
13994 1  28.974640  45.780956  1.675116
13995 1  27.736604  46.476418  1.675116
13996 1  27.719874  47.896319  1.675116
13997 1  28.941179  48.620758  1.675116
13998 1  26.515298  45.751978  1.675116
13999 1  25.277262  46.447440  1.675116
14000 1  25.260532  47.867341  1.675116
14001 1  26.481838  48.591781  1.675116
14002 1  24.055957  45.723000  1.675116
14003 1  22.817921  46.418462  1.675116
14004 1  22.801191  47.838364  1.675116
14005 1  24.022496  48.562803  1.675116
14006 1  21.596615  45.694023  1.675116
14007 1  20.358579  46.389485  1.675116
14008 1  20.341849  47.809386  1.675116
14009 1  21.563155  48.533826  1.675116
14010 1  19.137274  45.665045  1.675116
14011 1  17.899238  46.360507  1.675116
14012 1  17.882508  47.780409  1.675116
14013 1  19.103813  48.504848  1.675116
14014 1  16.677932  45.636068  1.675116
14015 1  15.439897  46.331530  1.675116
14016 1  15.423166  47.751431  1.675116
14017 1  16.644472  48.475871  1.675116
14018 1  14.218591  45.607090  1.675116
14019 1  12.980555  46.302552  1.675116
14020 1  12.963825  47.722453  1.675116
14021 1  14.185131  48.446893  1.675116
14022 1  11.759249  45.578113  1.675116
14023 1  10.521214  46.273574  1.675116
14024 1  10.504483  47.693476  1.675116
14025 1  11.725789  48.417915  1.675116
14026 1   9.299908  45.549135  1.675116
14027 1   8.061872  46.244597  1.675116
14028 1   8.045142  47.664498  1.675116
14029 1   9.266448  48.388938  1.675116
14030 1   6.840567  45.520157  1.675116
14031 1   5.602531  46.215619  1.675116
14032 1   5.585801  47.635521  1.675116
14033 1   6.807106  48.359960  1.675116
14034 1   4.381225  45.491180  1.675116
14035 1   3.143189  46.186642  1.675116
14036 1   3.126459  47.606543  1.675116
14037 1   4.347765  48.330983  1.675116
14038 1   1.921884  45.462202  1.675116
14039 1   0.683848  46.157664  1.675116
14040 1   0.667118  47.577566  1.675116
14041 1   1.888423  48.302005  1.675116
14042 1  -0.537458  45.433225  1.675116
14043 1  -1.775494  46.128687  1.675116
14044 1  -1.792224  47.548588  1.675116
14045 1  -0.570918  48.273028  1.675116
14046 1  -2.996799  45.404247  1.675116
14047 1  -4.234835  46.099709  1.675116
14048 1  -4.251565  47.519610  1.675116
14049 1  -3.030260  48.244050  1.675116
14050 1  -5.456141  45.375269  1.675116
14051 1  -6.694176  46.070731  1.675116
14052 1  -6.710907  47.490633  1.675116
14053 1  -5.489601  48.215072  1.675116
14054 1  -7.915482  45.346292  1.675116
14055 1  -9.153518  46.041754  1.675116
14056 1  -9.170248  47.461655  1.675116
14057 1  -7.948942  48.186095  1.675116
14058 1 -10.374823  45.317314  1.675116
14059 1 -11.612859  46.012776  1.675116
14060 1 -11.629589  47.432678  1.675116
14061 1 -10.408284  48.157117  1.675116
14062 1 -12.834165  45.288337  1.675116
14063 1 -14.072201  45.983799  1.675116
14064 1 -14.088931  47.403700  1.675116
14065 1 -12.867625  48.128140  1.675116
14066 1 -15.293506  45.259359  1.675116
14067 1 -16.531542  45.954821  1.675116
14068 1 -16.548272  47.374723  1.675116
14069 1 -15.326967  48.099162  1.675116
14070 1 -17.752848  45.230382  1.675116
14071 1 -18.990884  45.925844  1.675116
14072 1 -19.007614  47.345745  1.675116
14073 1 -17.786308  48.070184  1.675116
14074 1 -20.212189  45.201404  1.675116
14075 1 -21.450225  45.896866  1.675116
14076 1 -21.466955  47.316767  1.675116
14077 1 -20.245650  48.041207  1.675116
14078 1 -22.671531  45.172426  1.675116
14079 1 -23.909566  45.867888  1.675116
14080 1 -23.926297  47.287790  1.675116
14081 1 -22.704991  48.012229  1.675116
14082 1 -25.130872  45.143449  1.675116
14083 1 -26.368908  45.838911  1.675116
14084 1 -26.385638  47.258812  1.675116
14085 1 -25.164332  47.983252  1.675116
14086 1 -27.590213  45.114471  1.675116
14087 1 -28.828249  45.809933  1.675116
14088 1 -28.844980  47.229835  1.675116
14089 1 -27.623674  47.954274  1.675116
14090 1 -30.049555  45.085494  1.675116
14091 1 -31.287591  45.780956  1.675116
14092 1 -31.304321  47.200857  1.675116
14093 1 -30.083015  47.925297  1.675116
14094 1 -32.508896  45.056516  1.675116
14095 1 -33.746932  45.751978  1.675116
14096 1 -33.763662  47.171879  1.675116
14097 1 -32.542357  47.896319  1.675116
14098 1 -34.968238  45.027539  1.675116
14099 1 -36.206274  45.723000  1.675116
14100 1 -36.223004  47.142902  1.675116
14101 1 -35.001698  47.867341  1.675116
14102 1 -37.427579  44.998561  1.675116
14103 1 -38.665615  45.694023  1.675116
14104 1 -38.682345  47.113924  1.675116
14105 1 -37.461040  47.838364  1.675116
14106 1 -39.886921  44.969583  1.675116
14107 1 -41.124956  45.665045  1.675116
14108 1 -41.141687  47.084947  1.675116
14109 1 -39.920381  47.809386  1.675116
14110 1 -42.346262  44.940606  1.675116
14111 1 -43.584298  45.636068  1.675116
14112 1 -43.601028  47.055969  1.675116
14113 1 -42.379723  47.780409  1.675116
14114 1 -44.805604  44.911628  1.675116
14115 1 -46.043639  45.607090  1.675116
14116 1 -46.060370  47.026992  1.675116
14117 1 -44.839064  47.751431  1.675116
14118 1 -47.264945  44.882651  1.675116
14119 1 -48.502981  45.578113  1.675116
14120 1 -48.519711  46.998014  1.675116
14121 1 -47.298405  47.722453  1.675116
14122 1 -49.724286  44.853673  1.675116
14123 1 -50.962322  45.549135  1.675116
14124 1 -50.979052  46.969036  1.675116
14125 1 -49.757747  47.693476  1.675116
14126 1 -52.183628  44.824695  1.675116
14127 1 -53.421664  45.520157  1.675116
14128 1 -53.438394  46.940059  1.675116
14129 1 -52.217088  47.664498  1.675116
14130 1 -54.642969  44.795718  1.675116
14131 1 -55.881005  45.491180  1.675116
14132 1 -55.897735  46.911081  1.675116
14133 1 -54.676430  47.635521  1.675116
14134 1 -57.102311  44.766740  1.675116
14135 1 -58.340347  45.462202  1.675116
14136 1 -58.357077  46.882104  1.675116
14137 1 -57.135771  47.606543  1.675116
14138 1 -59.561652  44.737763  1.675116
14139 1 -60.799688  45.433225  1.675116
14140 1 -60.816418  46.853126  1.675116
14141 1 -59.595113  47.577566  1.675116
14142 1 -62.020994  44.708785  1.675116
14143 1 -63.259029  45.404247  1.675116
14144 1 -63.275760  46.824149  1.675116
14145 1 -62.054454  47.548588  1.675116
14146 1 -64.480335  44.679808  1.675116
14147 1 -65.718371  45.375269  1.675116
14148 1 -65.735101  46.795171  1.675116
14149 1 -64.513795  47.519610  1.675116
14150 1 -66.939676  44.650830  1.675116
14151 1 -68.177712  45.346292  1.675116
14152 1 -68.194443  46.766193  1.675116
14153 1 -66.973137  47.490633  1.675116
14154 1 -69.399018  44.621852  1.675116
14155 1 -70.637054  45.317314  1.675116
14156 1 -70.653784  46.737216  1.675116
14157 1 -69.432478  47.461655  1.675116
14158 1 -71.858359  44.592875  1.675116
14159 1 -73.096395  45.288337  1.675116
14160 1 -73.113125  46.708238  1.675116
14161 1 -71.891820  47.432678  1.675116
14162 1 -74.317701  44.563897  1.675116
14163 1 -75.555737  45.259359  1.675116
14164 1 -75.572467  46.679261  1.675116
14165 1 -74.351161  47.403700  1.675116
14166 1 -76.777042  44.534920  1.675116
14167 1 -78.015078  45.230382  1.675116
14168 1 -78.031808  46.650283  1.675116
14169 1 -76.810503  47.374723  1.675116
14170 1 -79.236384  44.505942  1.675116
14171 1 -80.474419  45.201404  1.675116
14172 1 -80.491150  46.621305  1.675116
14173 1 -79.269844  47.345745  1.675116
14174 1 -81.695725  44.476964  1.675116
14175 1 -82.933761  45.172426  1.675116
14176 1 -82.950491  46.592328  1.675116
14177 1 -81.729186  47.316767  1.675116
14178 1 -84.155067  44.447987  1.675116
14179 1 -85.393102  45.143449  1.675116
14180 1 -85.409833  46.563350  1.675116
14181 1 -84.188527  47.287790  1.675116
14182 1 -86.614408  44.419009  1.675116
14183 1 -87.852444  45.114471  1.675116
14184 1 -87.869174  46.534373  1.675116
14185 1 -86.647868  47.258812  1.675116
14186 1 -89.073749  44.390032  1.675116
14187 1 -90.311785  45.085494  1.675116
14188 1 -90.328515  46.505395  1.675116
14189 1 -89.107210  47.229835  1.675116
14190 1  89.169949  51.460561  1.675116
14191 1  87.948643  50.736122  1.675116
14192 1  86.710608  51.431584  1.675116
14193 1  85.489302  50.707144  1.675116
14194 1  84.251266  51.402606  1.675116
14195 1  83.029961  50.678167  1.675116
14196 1  81.791925  51.373629  1.675116
14197 1  80.570619  50.649189  1.675116
14198 1  79.332583  51.344651  1.675116
14199 1  78.111278  50.620212  1.675116
14200 1  76.873242  51.315673  1.675116
14201 1  75.651936  50.591234  1.675116
14202 1  74.413900  51.286696  1.675116
14203 1  73.192595  50.562256  1.675116
14204 1  71.954559  51.257718  1.675116
14205 1  70.733253  50.533279  1.675116
14206 1  69.495217  51.228741  1.675116
14207 1  68.273912  50.504301  1.675116
14208 1  67.035876  51.199763  1.675116
14209 1  65.814570  50.475324  1.675116
14210 1  64.576535  51.170786  1.675116
14211 1  63.355229  50.446346  1.675116
14212 1  62.117193  51.141808  1.675116
14213 1  60.895888  50.417368  1.675116
14214 1  59.657852  51.112830  1.675116
14215 1  58.436546  50.388391  1.675116
14216 1  57.198510  51.083853  1.675116
14217 1  55.977205  50.359413  1.675116
14218 1  54.739169  51.054875  1.675116
14219 1  53.517863  50.330436  1.675116
14220 1  52.279827  51.025898  1.675116
14221 1  51.058522  50.301458  1.675116
14222 1  49.820486  50.996920  1.675116
14223 1  48.599180  50.272481  1.675116
14224 1  47.361145  50.967943  1.675116
14225 1  46.139839  50.243503  1.675116
14226 1  44.901803  50.938965  1.675116
14227 1  43.680498  50.214525  1.675116
14228 1  42.442462  50.909987  1.675116
14229 1  41.221156  50.185548  1.675116
14230 1  39.983120  50.881010  1.675116
14231 1  38.761815  50.156570  1.675116
14232 1  37.523779  50.852032  1.675116
14233 1  36.302473  50.127593  1.675116
14234 1  35.064437  50.823055  1.675116
14235 1  33.843132  50.098615  1.675116
14236 1  32.605096  50.794077  1.675116
14237 1  31.383790  50.069638  1.675116
14238 1  30.145755  50.765099  1.675116
14239 1  30.129024  52.185001  1.675116
14240 1  28.924449  50.040660  1.675116
14241 1  27.686413  50.736122  1.675116
14242 1  27.669683  52.156023  1.675116
14243 1  26.465107  50.011682  1.675116
14244 1  25.227072  50.707144  1.675116
14245 1  25.210341  52.127046  1.675116
14246 1  24.005766  49.982705  1.675116
14247 1  22.767730  50.678167  1.675116
14248 1  22.751000  52.098068  1.675116
14249 1  21.546425  49.953727  1.675116
14250 1  20.308389  50.649189  1.675116
14251 1  20.291659  52.069091  1.675116
14252 1  19.087083  49.924750  1.675116
14253 1  17.849047  50.620212  1.675116
14254 1  17.832317  52.040113  1.675116
14255 1  16.627742  49.895772  1.675116
14256 1  15.389706  50.591234  1.675116
14257 1  15.372976  52.011135  1.675116
14258 1  14.168400  49.866794  1.675116
14259 1  12.930364  50.562256  1.675116
14260 1  12.913634  51.982158  1.675116
14261 1  11.709059  49.837817  1.675116
14262 1  10.471023  50.533279  1.675116
14263 1  10.454293  51.953180  1.675116
14264 1   9.249717  49.808839  1.675116
14265 1   8.011682  50.504301  1.675116
14266 1   7.994951  51.924203  1.675116
14267 1   6.790376  49.779862  1.675116
14268 1   5.552340  50.475324  1.675116
14269 1   5.535610  51.895225  1.675116
14270 1   4.331035  49.750884  1.675116
14271 1   3.092999  50.446346  1.675116
14272 1   3.076269  51.866247  1.675116
14273 1   1.871693  49.721907  1.675116
14274 1   0.633657  50.417368  1.675116
14275 1   0.616927  51.837270  1.675116
14276 1  -0.587648  49.692929  1.675116
14277 1  -1.825684  50.388391  1.675116
14278 1  -1.842414  51.808292  1.675116
14279 1  -3.046990  49.663951  1.675116
14280 1  -4.285026  50.359413  1.675116
14281 1  -4.301756  51.779315  1.675116
14282 1  -5.506331  49.634974  1.675116
14283 1  -6.744367  50.330436  1.675116
14284 1  -6.761097  51.750337  1.675116
14285 1  -7.965673  49.605996  1.675116
14286 1  -9.203708  50.301458  1.675116
14287 1  -9.220439  51.721360  1.675116
14288 1 -10.425014  49.577019  1.675116
14289 1 -11.663050  50.272481  1.675116
14290 1 -11.679780  51.692382  1.675116
14291 1 -12.884356  49.548041  1.675116
14292 1 -14.122391  50.243503  1.675116
14293 1 -14.139122  51.663404  1.675116
14294 1 -15.343697  49.519063  1.675116
14295 1 -16.581733  50.214525  1.675116
14296 1 -16.598463  51.634427  1.675116
14297 1 -17.803038  49.490086  1.675116
14298 1 -19.041074  50.185548  1.675116
14299 1 -19.057804  51.605449  1.675116
14300 1 -20.262380  49.461108  1.675116
14301 1 -21.500416  50.156570  1.675116
14302 1 -21.517146  51.576472  1.675116
14303 1 -22.721721  49.432131  1.675116
14304 1 -23.959757  50.127593  1.675116
14305 1 -23.976487  51.547494  1.675116
14306 1 -25.181063  49.403153  1.675116
14307 1 -26.419099  50.098615  1.675116
14308 1 -26.435829  51.518517  1.675116
14309 1 -27.640404  49.374176  1.675116
14310 1 -28.878440  50.069638  1.675116
14311 1 -28.895170  51.489539  1.675116
14312 1 -30.099746  49.345198  1.675116
14313 1 -31.337781  50.040660  1.675116
14314 1 -31.354512  51.460561  1.675116
14315 1 -30.133206  52.185001  1.675116
14316 1 -32.559087  49.316220  1.675116
14317 1 -33.797123  50.011682  1.675116
14318 1 -33.813853  51.431584  1.675116
14319 1 -32.592547  52.156023  1.675116
14320 1 -35.018428  49.287243  1.675116
14321 1 -36.256464  49.982705  1.675116
14322 1 -36.273194  51.402606  1.675116
14323 1 -35.051889  52.127046  1.675116
14324 1 -37.477770  49.258265  1.675116
14325 1 -38.715806  49.953727  1.675116
14326 1 -38.732536  51.373629  1.675116
14327 1 -37.511230  52.098068  1.675116
14328 1 -39.937111  49.229288  1.675116
14329 1 -41.175147  49.924750  1.675116
14330 1 -41.191877  51.344651  1.675116
14331 1 -39.970572  52.069091  1.675116
14332 1 -42.396453  49.200310  1.675116
14333 1 -43.634489  49.895772  1.675116
14334 1 -43.651219  51.315673  1.675116
14335 1 -42.429913  52.040113  1.675116
14336 1 -44.855794  49.171333  1.675116
14337 1 -46.093830  49.866794  1.675116
14338 1 -46.110560  51.286696  1.675116
14339 1 -44.889255  52.011135  1.675116
14340 1 -47.315136  49.142355  1.675116
14341 1 -48.553171  49.837817  1.675116
14342 1 -48.569902  51.257718  1.675116
14343 1 -47.348596  51.982158  1.675116
14344 1 -49.774477  49.113377  1.675116
14345 1 -51.012513  49.808839  1.675116
14346 1 -51.029243  51.228741  1.675116
14347 1 -49.807937  51.953180  1.675116
14348 1 -52.233818  49.084400  1.675116
14349 1 -53.471854  49.779862  1.675116
14350 1 -53.488585  51.199763  1.675116
14351 1 -52.267279  51.924203  1.675116
14352 1 -54.693160  49.055422  1.675116
14353 1 -55.931196  49.750884  1.675116
14354 1 -55.947926  51.170786  1.675116
14355 1 -54.726620  51.895225  1.675116
14356 1 -57.152501  49.026445  1.675116
14357 1 -58.390537  49.721907  1.675116
14358 1 -58.407267  51.141808  1.675116
14359 1 -57.185962  51.866247  1.675116
14360 1 -59.611843  48.997467  1.675116
14361 1 -60.849879  49.692929  1.675116
14362 1 -60.866609  51.112830  1.675116
14363 1 -59.645303  51.837270  1.675116
14364 1 -62.071184  48.968489  1.675116
14365 1 -63.309220  49.663951  1.675116
14366 1 -63.325950  51.083853  1.675116
14367 1 -62.104645  51.808292  1.675116
14368 1 -64.530526  48.939512  1.675116
14369 1 -65.768561  49.634974  1.675116
14370 1 -65.785292  51.054875  1.675116
14371 1 -64.563986  51.779315  1.675116
14372 1 -66.989867  48.910534  1.675116
14373 1 -68.227903  49.605996  1.675116
14374 1 -68.244633  51.025898  1.675116
14375 1 -67.023328  51.750337  1.675116
14376 1 -69.449209  48.881557  1.675116
14377 1 -70.687244  49.577019  1.675116
14378 1 -70.703975  50.996920  1.675116
14379 1 -69.482669  51.721360  1.675116
14380 1 -71.908550  48.852579  1.675116
14381 1 -73.146586  49.548041  1.675116
14382 1 -73.163316  50.967943  1.675116
14383 1 -71.942010  51.692382  1.675116
14384 1 -74.367891  48.823602  1.675116
14385 1 -75.605927  49.519063  1.675116
14386 1 -75.622657  50.938965  1.675116
14387 1 -74.401352  51.663404  1.675116
14388 1 -76.827233  48.794624  1.675116
14389 1 -78.065269  49.490086  1.675116
14390 1 -78.081999  50.909987  1.675116
14391 1 -76.860693  51.634427  1.675116
14392 1 -79.286574  48.765646  1.675116
14393 1 -80.524610  49.461108  1.675116
14394 1 -80.541340  50.881010  1.675116
14395 1 -79.320035  51.605449  1.675116
14396 1 -81.745916  48.736669  1.675116
14397 1 -82.983952  49.432131  1.675116
14398 1 -83.000682  50.852032  1.675116
14399 1 -81.779376  51.576472  1.675116
14400 1 -84.205257  48.707691  1.675116
14401 1 -85.443293  49.403153  1.675116
14402 1 -85.460023  50.823055  1.675116
14403 1 -84.238718  51.547494  1.675116
14404 1 -86.664599  48.678714  1.675116
14405 1 -87.902634  49.374176  1.675116
14406 1 -87.919365  50.794077  1.675116
14407 1 -86.698059  51.518517  1.675116
14408 1 -89.123940  48.649736  1.675116
14409 1 -90.361976  49.345198  1.675116
14410 1 -90.378706  50.765099  1.675116
14411 1 -89.157400  51.489539  1.675116