# Lorenzo Manunza 14th April 2025

20889 atoms
1 atom types

-108.84036 108.83689 xlo xhi
-62.84703 62.82898 ylo yhi
-10001.67508 9998.32492 zlo zhi

Masses

1 12.011 # C

Atoms

    1 1   33.818410 -62.822966 -1.67508
    2 1   31.359015 -62.798900 -1.67508
    3 1   28.899621 -62.774833 -1.67508
    4 1   26.440227 -62.750766 -1.67508
    5 1   23.980832 -62.726700 -1.67508
    6 1   21.521438 -62.702633 -1.67508
    7 1   19.062044 -62.678566 -1.67508
    8 1   16.602649 -62.654500 -1.67508
    9 1   14.143255 -62.630433 -1.67508
   10 1   11.683860 -62.606367 -1.67508
   11 1    9.224466 -62.582300 -1.67508
   12 1    6.765072 -62.558233 -1.67508
   13 1    4.305677 -62.534167 -1.67508
   14 1    1.846283 -62.510100 -1.67508
   15 1   -0.613112 -62.486033 -1.67508
   16 1   -3.072506 -62.461967 -1.67508
   17 1   -5.531900 -62.437900 -1.67508
   18 1   -7.991295 -62.413833 -1.67508
   19 1  -10.450689 -62.389767 -1.67508
   20 1  -12.910084 -62.365700 -1.67508
   21 1  -15.369478 -62.341633 -1.67508
   22 1  -17.828872 -62.317567 -1.67508
   23 1  -20.288267 -62.293500 -1.67508
   24 1  -22.747661 -62.269433 -1.67508
   25 1  -25.207056 -62.245367 -1.67508
   26 1  -27.666450 -62.221300 -1.67508
   27 1  -30.125844 -62.197234 -1.67508
   28 1  -32.585239 -62.173167 -1.67508
   29 1  -35.044633 -62.149100 -1.67508
   30 1  -38.740672 -62.822966 -1.67508
   31 1  -37.504028 -62.125034 -1.67508
   32 1  -41.200067 -62.798900 -1.67508
   33 1  -39.963422 -62.100967 -1.67508
   34 1  -43.659461 -62.774833 -1.67508
   35 1  -42.422816 -62.076900 -1.67508
   36 1  -46.118855 -62.750766 -1.67508
   37 1  -44.882211 -62.052834 -1.67508
   38 1  -48.578250 -62.726700 -1.67508
   39 1  -47.341605 -62.028767 -1.67508
   40 1  -51.037644 -62.702633 -1.67508
   41 1  -49.801000 -62.004700 -1.67508
   42 1  -53.497039 -62.678566 -1.67508
   43 1  -52.260394 -61.980634 -1.67508
   44 1  -55.956433 -62.654500 -1.67508
   45 1  -54.719788 -61.956567 -1.67508
   46 1  -58.415827 -62.630433 -1.67508
   47 1  -57.179183 -61.932500 -1.67508
   48 1  -60.875222 -62.606367 -1.67508
   49 1  -59.638577 -61.908434 -1.67508
   50 1  -63.334616 -62.582300 -1.67508
   51 1  -62.097972 -61.884367 -1.67508
   52 1  -65.794011 -62.558233 -1.67508
   53 1  -64.557366 -61.860301 -1.67508
   54 1  -68.253405 -62.534167 -1.67508
   55 1  -67.016760 -61.836234 -1.67508
   56 1  -70.712799 -62.510100 -1.67508
   57 1  -69.476155 -61.812167 -1.67508
   58 1  -73.172194 -62.486033 -1.67508
   59 1  -71.935549 -61.788101 -1.67508
   60 1  -75.631588 -62.461967 -1.67508
   61 1  -74.394944 -61.764034 -1.67508
   62 1  -78.090983 -62.437900 -1.67508
   63 1  -76.854338 -61.739967 -1.67508
   64 1  -80.550377 -62.413833 -1.67508
   65 1  -79.313732 -61.715901 -1.67508
   66 1  -83.009771 -62.389767 -1.67508
   67 1  -81.773127 -61.691834 -1.67508
   68 1  -85.469166 -62.365700 -1.67508
   69 1  -84.232521 -61.667767 -1.67508
   70 1  -87.928560 -62.341633 -1.67508
   71 1  -86.691916 -61.643701 -1.67508
   72 1  -90.387955 -62.317567 -1.67508
   73 1  -89.151310 -61.619634 -1.67508
   74 1  -92.847349 -62.293500 -1.67508
   75 1  -91.610704 -61.595567 -1.67508
   76 1  -95.306743 -62.269433 -1.67508
   77 1  -94.070099 -61.571501 -1.67508
   78 1  -97.766138 -62.245367 -1.67508
   79 1  -96.529493 -61.547434 -1.67508
   80 1 -100.225532 -62.221300 -1.67508
   81 1  -98.988888 -61.523368 -1.67508
   82 1 -102.684927 -62.197234 -1.67508
   83 1 -101.448282 -61.499301 -1.67508
   84 1 -105.144321 -62.173167 -1.67508
   85 1 -103.907676 -61.475234 -1.67508
   86 1 -107.603715 -62.149100 -1.67508
   87 1 -106.367071 -61.451168 -1.67508
   88 1 -108.826465 -61.427101 -1.67508
   89 1  107.614137 -62.125034 -1.67508
   90 1  106.391387 -61.403034 -1.67508
   91 1  106.405282 -59.983102 -1.67508
   92 1  107.641926 -59.285170 -1.67508
   93 1  105.154742 -62.100967 -1.67508
   94 1  103.931993 -61.378968 -1.67508
   95 1  103.945887 -59.959036 -1.67508
   96 1  105.182532 -59.261103 -1.67508
   97 1  102.695348 -62.076900 -1.67508
   98 1  101.472598 -61.354901 -1.67508
   99 1  101.486493 -59.934969 -1.67508
  100 1  102.723138 -59.237036 -1.67508
  101 1  100.235953 -62.052834 -1.67508
  102 1   99.013204 -61.330834 -1.67508
  103 1   99.027099 -59.910902 -1.67508
  104 1  100.263743 -59.212970 -1.67508
  105 1   97.776559 -62.028767 -1.67508
  106 1   96.553809 -61.306768 -1.67508
  107 1   96.567704 -59.886836 -1.67508
  108 1   97.804349 -59.188903 -1.67508
  109 1   95.317165 -62.004700 -1.67508
  110 1   94.094415 -61.282701 -1.67508
  111 1   94.108310 -59.862769 -1.67508
  112 1   95.344954 -59.164836 -1.67508
  113 1   92.857770 -61.980634 -1.67508
  114 1   91.635021 -61.258634 -1.67508
  115 1   91.648915 -59.838702 -1.67508
  116 1   92.885560 -59.140770 -1.67508
  117 1   90.398376 -61.956567 -1.67508
  118 1   89.175626 -61.234568 -1.67508
  119 1   89.189521 -59.814636 -1.67508
  120 1   90.426166 -59.116703 -1.67508
  121 1   87.938981 -61.932500 -1.67508
  122 1   86.716232 -61.210501 -1.67508
  123 1   86.730127 -59.790569 -1.67508
  124 1   87.966771 -59.092636 -1.67508
  125 1   85.479587 -61.908434 -1.67508
  126 1   84.256837 -61.186435 -1.67508
  127 1   84.270732 -59.766502 -1.67508
  128 1   85.507377 -59.068570 -1.67508
  129 1   83.020193 -61.884367 -1.67508
  130 1   81.797443 -61.162368 -1.67508
  131 1   81.811338 -59.742436 -1.67508
  132 1   83.047982 -59.044503 -1.67508
  133 1   80.560798 -61.860301 -1.67508
  134 1   79.338049 -61.138301 -1.67508
  135 1   79.351943 -59.718369 -1.67508
  136 1   80.588588 -59.020437 -1.67508
  137 1   78.101404 -61.836234 -1.67508
  138 1   76.878654 -61.114235 -1.67508
  139 1   76.892549 -59.694303 -1.67508
  140 1   78.129194 -58.996370 -1.67508
  141 1   75.642010 -61.812167 -1.67508
  142 1   74.419260 -61.090168 -1.67508
  143 1   74.433155 -59.670236 -1.67508
  144 1   75.669799 -58.972303 -1.67508
  145 1   73.182615 -61.788101 -1.67508
  146 1   71.959865 -61.066101 -1.67508
  147 1   71.973760 -59.646169 -1.67508
  148 1   73.210405 -58.948237 -1.67508
  149 1   70.723221 -61.764034 -1.67508
  150 1   69.500471 -61.042035 -1.67508
  151 1   69.514366 -59.622103 -1.67508
  152 1   70.751010 -58.924170 -1.67508
  153 1   68.263826 -61.739967 -1.67508
  154 1   67.041077 -61.017968 -1.67508
  155 1   67.054971 -59.598036 -1.67508
  156 1   68.291616 -58.900103 -1.67508
  157 1   65.804432 -61.715901 -1.67508
  158 1   64.581682 -60.993901 -1.67508
  159 1   64.595577 -59.573969 -1.67508
  160 1   65.832222 -58.876037 -1.67508
  161 1   63.345038 -61.691834 -1.67508
  162 1   62.122288 -60.969835 -1.67508
  163 1   62.136183 -59.549903 -1.67508
  164 1   63.372827 -58.851970 -1.67508
  165 1   60.885643 -61.667767 -1.67508
  166 1   59.662893 -60.945768 -1.67508
  167 1   59.676788 -59.525836 -1.67508
  168 1   60.913433 -58.827903 -1.67508
  169 1   58.426249 -61.643701 -1.67508
  170 1   57.203499 -60.921701 -1.67508
  171 1   57.217394 -59.501769 -1.67508
  172 1   58.454039 -58.803837 -1.67508
  173 1   55.966854 -61.619634 -1.67508
  174 1   54.744105 -60.897635 -1.67508
  175 1   54.757999 -59.477703 -1.67508
  176 1   55.994644 -58.779770 -1.67508
  177 1   53.507460 -61.595567 -1.67508
  178 1   52.284710 -60.873568 -1.67508
  179 1   52.298605 -59.453636 -1.67508
  180 1   53.535250 -58.755703 -1.67508
  181 1   51.048066 -61.571501 -1.67508
  182 1   49.825316 -60.849501 -1.67508
  183 1   49.839211 -59.429569 -1.67508
  184 1   51.075855 -58.731637 -1.67508
  185 1   48.588671 -61.547434 -1.67508
  186 1   47.365921 -60.825435 -1.67508
  187 1   47.379816 -59.405503 -1.67508
  188 1   48.616461 -58.707570 -1.67508
  189 1   46.129277 -61.523368 -1.67508
  190 1   44.906527 -60.801368 -1.67508
  191 1   44.920422 -59.381436 -1.67508
  192 1   46.157067 -58.683503 -1.67508
  193 1   43.669882 -61.499301 -1.67508
  194 1   42.447133 -60.777302 -1.67508
  195 1   42.461027 -59.357370 -1.67508
  196 1   43.697672 -58.659437 -1.67508
  197 1   41.210488 -61.475234 -1.67508
  198 1   39.987738 -60.753235 -1.67508
  199 1   40.001633 -59.333303 -1.67508
  200 1   41.238278 -58.635370 -1.67508
  201 1   38.751094 -61.451168 -1.67508
  202 1   37.528344 -60.729168 -1.67508
  203 1   37.542239 -59.309236 -1.67508
  204 1   38.778883 -58.611304 -1.67508
  205 1   36.291699 -61.427101 -1.67508
  206 1   35.068949 -60.705102 -1.67508
  207 1   35.082844 -59.285170 -1.67508
  208 1   36.319489 -58.587237 -1.67508
  209 1   33.832305 -61.403034 -1.67508
  210 1   32.609555 -60.681035 -1.67508
  211 1   32.623450 -59.261103 -1.67508
  212 1   33.860095 -58.563170 -1.67508
  213 1   31.372910 -61.378968 -1.67508
  214 1   30.150161 -60.656968 -1.67508
  215 1   30.164056 -59.237036 -1.67508
  216 1   31.400700 -58.539104 -1.67508
  217 1   28.913516 -61.354901 -1.67508
  218 1   27.690766 -60.632902 -1.67508
  219 1   27.704661 -59.212970 -1.67508
  220 1   28.941306 -58.515037 -1.67508
  221 1   26.454122 -61.330834 -1.67508
  222 1   25.231372 -60.608835 -1.67508
  223 1   25.245267 -59.188903 -1.67508
  224 1   26.481911 -58.490970 -1.67508
  225 1   23.994727 -61.306768 -1.67508
  226 1   22.771977 -60.584768 -1.67508
  227 1   22.785872 -59.164836 -1.67508
  228 1   24.022517 -58.466904 -1.67508
  229 1   21.535333 -61.282701 -1.67508
  230 1   20.312583 -60.560702 -1.67508
  231 1   20.326478 -59.140770 -1.67508
  232 1   21.563123 -58.442837 -1.67508
  233 1   19.075938 -61.258634 -1.67508
  234 1   17.853189 -60.536635 -1.67508
  235 1   17.867084 -59.116703 -1.67508
  236 1   19.103728 -58.418770 -1.67508
  237 1   16.616544 -61.234568 -1.67508
  238 1   15.393794 -60.512568 -1.67508
  239 1   15.407689 -59.092636 -1.67508
  240 1   16.644334 -58.394704 -1.67508
  241 1   14.157150 -61.210501 -1.67508
  242 1   12.934400 -60.488502 -1.67508
  243 1   12.948295 -59.068570 -1.67508
  244 1   14.184939 -58.370637 -1.67508
  245 1   11.697755 -61.186435 -1.67508
  246 1   10.475005 -60.464435 -1.67508
  247 1   10.488900 -59.044503 -1.67508
  248 1   11.725545 -58.346570 -1.67508
  249 1    9.238361 -61.162368 -1.67508
  250 1    8.015611 -60.440369 -1.67508
  251 1    8.029506 -59.020437 -1.67508
  252 1    9.266151 -58.322504 -1.67508
  253 1    6.778966 -61.138301 -1.67508
  254 1    5.556217 -60.416302 -1.67508
  255 1    5.570112 -58.996370 -1.67508
  256 1    6.806756 -58.298437 -1.67508
  257 1    4.319572 -61.114235 -1.67508
  258 1    3.096822 -60.392235 -1.67508
  259 1    3.110717 -58.972303 -1.67508
  260 1    4.347362 -58.274371 -1.67508
  261 1    1.860178 -61.090168 -1.67508
  262 1    0.637428 -60.368169 -1.67508
  263 1    0.651323 -58.948237 -1.67508
  264 1    1.887967 -58.250304 -1.67508
  265 1   -0.599217 -61.066101 -1.67508
  266 1   -1.821967 -60.344102 -1.67508
  267 1   -1.808072 -58.924170 -1.67508
  268 1   -0.571427 -58.226237 -1.67508
  269 1   -3.058611 -61.042035 -1.67508
  270 1   -4.281361 -60.320035 -1.67508
  271 1   -4.267466 -58.900103 -1.67508
  272 1   -3.030821 -58.202171 -1.67508
  273 1   -5.518006 -61.017968 -1.67508
  274 1   -6.740755 -60.295969 -1.67508
  275 1   -6.726860 -58.876037 -1.67508
  276 1   -5.490216 -58.178104 -1.67508
  277 1   -7.977400 -60.993901 -1.67508
  278 1   -9.200150 -60.271902 -1.67508
  279 1   -9.186255 -58.851970 -1.67508
  280 1   -7.949610 -58.154037 -1.67508
  281 1  -10.436794 -60.969835 -1.67508
  282 1  -11.659544 -60.247835 -1.67508
  283 1  -11.645649 -58.827903 -1.67508
  284 1  -10.409005 -58.129971 -1.67508
  285 1  -12.896189 -60.945768 -1.67508
  286 1  -14.118939 -60.223769 -1.67508
  287 1  -14.105044 -58.803837 -1.67508
  288 1  -12.868399 -58.105904 -1.67508
  289 1  -15.355583 -60.921701 -1.67508
  290 1  -16.578333 -60.199702 -1.67508
  291 1  -16.564438 -58.779770 -1.67508
  292 1  -15.327793 -58.081837 -1.67508
  293 1  -17.814978 -60.897635 -1.67508
  294 1  -19.037727 -60.175635 -1.67508
  295 1  -19.023832 -58.755703 -1.67508
  296 1  -17.787188 -58.057771 -1.67508
  297 1  -20.274372 -60.873568 -1.67508
  298 1  -21.497122 -60.151569 -1.67508
  299 1  -21.483227 -58.731637 -1.67508
  300 1  -20.246582 -58.033704 -1.67508
  301 1  -22.733766 -60.849501 -1.67508
  302 1  -23.956516 -60.127502 -1.67508
  303 1  -23.942621 -58.707570 -1.67508
  304 1  -22.705977 -58.009637 -1.67508
  305 1  -25.193161 -60.825435 -1.67508
  306 1  -26.415910 -60.103436 -1.67508
  307 1  -26.402016 -58.683503 -1.67508
  308 1  -25.165371 -57.985571 -1.67508
  309 1  -27.652555 -60.801368 -1.67508
  310 1  -28.875305 -60.079369 -1.67508
  311 1  -28.861410 -58.659437 -1.67508
  312 1  -27.624765 -57.961504 -1.67508
  313 1  -30.111950 -60.777302 -1.67508
  314 1  -31.334699 -60.055302 -1.67508
  315 1  -31.320804 -58.635370 -1.67508
  316 1  -30.084160 -57.937438 -1.67508
  317 1  -32.571344 -60.753235 -1.67508
  318 1  -33.794094 -60.031236 -1.67508
  319 1  -33.780199 -58.611304 -1.67508
  320 1  -32.543554 -57.913371 -1.67508
  321 1  -35.030738 -60.729168 -1.67508
  322 1  -36.253488 -60.007169 -1.67508
  323 1  -36.239593 -58.587237 -1.67508
  324 1  -35.002949 -57.889304 -1.67508
  325 1  -37.490133 -60.705102 -1.67508
  326 1  -38.712882 -59.983102 -1.67508
  327 1  -38.698988 -58.563170 -1.67508
  328 1  -37.462343 -57.865238 -1.67508
  329 1  -39.949527 -60.681035 -1.67508
  330 1  -41.172277 -59.959036 -1.67508
  331 1  -41.158382 -58.539104 -1.67508
  332 1  -39.921737 -57.841171 -1.67508
  333 1  -42.408922 -60.656968 -1.67508
  334 1  -43.631671 -59.934969 -1.67508
  335 1  -43.617776 -58.515037 -1.67508
  336 1  -42.381132 -57.817104 -1.67508
  337 1  -44.868316 -60.632902 -1.67508
  338 1  -46.091066 -59.910902 -1.67508
  339 1  -46.077171 -58.490970 -1.67508
  340 1  -44.840526 -57.793038 -1.67508
  341 1  -47.327710 -60.608835 -1.67508
  342 1  -48.550460 -59.886836 -1.67508
  343 1  -48.536565 -58.466904 -1.67508
  344 1  -47.299921 -57.768971 -1.67508
  345 1  -49.787105 -60.584768 -1.67508
  346 1  -51.009854 -59.862769 -1.67508
  347 1  -50.995960 -58.442837 -1.67508
  348 1  -49.759315 -57.744904 -1.67508
  349 1  -52.246499 -60.560702 -1.67508
  350 1  -53.469249 -59.838702 -1.67508
  351 1  -53.455354 -58.418770 -1.67508
  352 1  -52.218709 -57.720838 -1.67508
  353 1  -54.705893 -60.536635 -1.67508
  354 1  -55.928643 -59.814636 -1.67508
  355 1  -55.914748 -58.394704 -1.67508
  356 1  -54.678104 -57.696771 -1.67508
  357 1  -57.165288 -60.512568 -1.67508
  358 1  -58.388038 -59.790569 -1.67508
  359 1  -58.374143 -58.370637 -1.67508
  360 1  -57.137498 -57.672704 -1.67508
  361 1  -59.624682 -60.488502 -1.67508
  362 1  -60.847432 -59.766502 -1.67508
  363 1  -60.833537 -58.346570 -1.67508
  364 1  -59.596893 -57.648638 -1.67508
  365 1  -62.084077 -60.464435 -1.67508
  366 1  -63.306826 -59.742436 -1.67508
  367 1  -63.292932 -58.322504 -1.67508
  368 1  -62.056287 -57.624571 -1.67508
  369 1  -64.543471 -60.440369 -1.67508
  370 1  -65.766221 -59.718369 -1.67508
  371 1  -65.752326 -58.298437 -1.67508
  372 1  -64.515681 -57.600504 -1.67508
  373 1  -67.002865 -60.416302 -1.67508
  374 1  -68.225615 -59.694303 -1.67508
  375 1  -68.211720 -58.274371 -1.67508
  376 1  -66.975076 -57.576438 -1.67508
  377 1  -69.462260 -60.392235 -1.67508
  378 1  -70.685010 -59.670236 -1.67508
  379 1  -70.671115 -58.250304 -1.67508
  380 1  -69.434470 -57.552371 -1.67508
  381 1  -71.921654 -60.368169 -1.67508
  382 1  -73.144404 -59.646169 -1.67508
  383 1  -73.130509 -58.226237 -1.67508
  384 1  -71.893864 -57.528305 -1.67508
  385 1  -74.381049 -60.344102 -1.67508
  386 1  -75.603798 -59.622103 -1.67508
  387 1  -75.589904 -58.202171 -1.67508
  388 1  -74.353259 -57.504238 -1.67508
  389 1  -76.840443 -60.320035 -1.67508
  390 1  -78.063193 -59.598036 -1.67508
  391 1  -78.049298 -58.178104 -1.67508
  392 1  -76.812653 -57.480171 -1.67508
  393 1  -79.299837 -60.295969 -1.67508
  394 1  -80.522587 -59.573969 -1.67508
  395 1  -80.508692 -58.154037 -1.67508
  396 1  -79.272048 -57.456105 -1.67508
  397 1  -81.759232 -60.271902 -1.67508
  398 1  -82.981982 -59.549903 -1.67508
  399 1  -82.968087 -58.129971 -1.67508
  400 1  -81.731442 -57.432038 -1.67508
  401 1  -84.218626 -60.247835 -1.67508
  402 1  -85.441376 -59.525836 -1.67508
  403 1  -85.427481 -58.105904 -1.67508
  404 1  -84.190836 -57.407971 -1.67508
  405 1  -86.678021 -60.223769 -1.67508
  406 1  -87.900770 -59.501769 -1.67508
  407 1  -87.886876 -58.081837 -1.67508
  408 1  -86.650231 -57.383905 -1.67508
  409 1  -89.137415 -60.199702 -1.67508
  410 1  -90.360165 -59.477703 -1.67508
  411 1  -90.346270 -58.057771 -1.67508
  412 1  -89.109625 -57.359838 -1.67508
  413 1  -91.596809 -60.175635 -1.67508
  414 1  -92.819559 -59.453636 -1.67508
  415 1  -92.805664 -58.033704 -1.67508
  416 1  -91.569020 -57.335771 -1.67508
  417 1  -94.056204 -60.151569 -1.67508
  418 1  -95.278954 -59.429569 -1.67508
  419 1  -95.265059 -58.009637 -1.67508
  420 1  -94.028414 -57.311705 -1.67508
  421 1  -96.515598 -60.127502 -1.67508
  422 1  -97.738348 -59.405503 -1.67508
  423 1  -97.724453 -57.985571 -1.67508
  424 1  -96.487808 -57.287638 -1.67508
  425 1  -98.974993 -60.103436 -1.67508
  426 1 -100.197742 -59.381436 -1.67508
  427 1 -100.183847 -57.961504 -1.67508
  428 1  -98.947203 -57.263571 -1.67508
  429 1 -101.434387 -60.079369 -1.67508
  430 1 -102.657137 -59.357370 -1.67508
  431 1 -102.643242 -57.937438 -1.67508
  432 1 -101.406597 -57.239505 -1.67508
  433 1 -103.893781 -60.055302 -1.67508
  434 1 -105.116531 -59.333303 -1.67508
  435 1 -105.102636 -57.913371 -1.67508
  436 1 -103.865992 -57.215438 -1.67508
  437 1 -106.353176 -60.031236 -1.67508
  438 1 -107.575926 -59.309236 -1.67508
  439 1 -107.562031 -57.889304 -1.67508
  440 1 -106.325386 -57.191372 -1.67508
  441 1 -108.812570 -60.007169 -1.67508
  442 1 -108.784780 -57.167305 -1.67508
  443 1  107.655821 -57.865238 -1.67508
  444 1  106.433072 -57.143238 -1.67508
  445 1  106.446966 -55.723306 -1.67508
  446 1  107.683611 -55.025374 -1.67508
  447 1  105.196427 -57.841171 -1.67508
  448 1  103.973677 -57.119172 -1.67508
  449 1  103.987572 -55.699240 -1.67508
  450 1  105.224217 -55.001307 -1.67508
  451 1  102.737033 -57.817104 -1.67508
  452 1  101.514283 -57.095105 -1.67508
  453 1  101.528178 -55.675173 -1.67508
  454 1  102.764822 -54.977240 -1.67508
  455 1  100.277638 -57.793038 -1.67508
  456 1   99.054888 -57.071038 -1.67508
  457 1   99.068783 -55.651106 -1.67508
  458 1  100.305428 -54.953174 -1.67508
  459 1   97.818244 -57.768971 -1.67508
  460 1   96.595494 -57.046972 -1.67508
  461 1   96.609389 -55.627040 -1.67508
  462 1   97.846033 -54.929107 -1.67508
  463 1   95.358849 -57.744904 -1.67508
  464 1   94.136100 -57.022905 -1.67508
  465 1   94.149994 -55.602973 -1.67508
  466 1   95.386639 -54.905040 -1.67508
  467 1   92.899455 -57.720838 -1.67508
  468 1   91.676705 -56.998838 -1.67508
  469 1   91.690600 -55.578906 -1.67508
  470 1   92.927245 -54.880974 -1.67508
  471 1   90.440061 -57.696771 -1.67508
  472 1   89.217311 -56.974772 -1.67508
  473 1   89.231206 -55.554840 -1.67508
  474 1   90.467850 -54.856907 -1.67508
  475 1   87.980666 -57.672704 -1.67508
  476 1   86.757916 -56.950705 -1.67508
  477 1   86.771811 -55.530773 -1.67508
  478 1   88.008456 -54.832840 -1.67508
  479 1   85.521272 -57.648638 -1.67508
  480 1   84.298522 -56.926638 -1.67508
  481 1   84.312417 -55.506706 -1.67508
  482 1   85.549062 -54.808774 -1.67508
  483 1   83.061877 -57.624571 -1.67508
  484 1   81.839128 -56.902572 -1.67508
  485 1   81.853022 -55.482640 -1.67508
  486 1   83.089667 -54.784707 -1.67508
  487 1   80.602483 -57.600504 -1.67508
  488 1   79.379733 -56.878505 -1.67508
  489 1   79.393628 -55.458573 -1.67508
  490 1   80.630273 -54.760640 -1.67508
  491 1   78.143089 -57.576438 -1.67508
  492 1   76.920339 -56.854439 -1.67508
  493 1   76.934234 -55.434507 -1.67508
  494 1   78.170878 -54.736574 -1.67508
  495 1   75.683694 -57.552371 -1.67508
  496 1   74.460944 -56.830372 -1.67508
  497 1   74.474839 -55.410440 -1.67508
  498 1   75.711484 -54.712507 -1.67508
  499 1   73.224300 -57.528305 -1.67508
  500 1   72.001550 -56.806305 -1.67508
  501 1   72.015445 -55.386373 -1.67508
  502 1   73.252090 -54.688441 -1.67508
  503 1   70.764905 -57.504238 -1.67508
  504 1   69.542156 -56.782239 -1.67508
  505 1   69.556050 -55.362307 -1.67508
  506 1   70.792695 -54.664374 -1.67508
  507 1   68.305511 -57.480171 -1.67508
  508 1   67.082761 -56.758172 -1.67508
  509 1   67.096656 -55.338240 -1.67508
  510 1   68.333301 -54.640307 -1.67508
  511 1   65.846117 -57.456105 -1.67508
  512 1   64.623367 -56.734105 -1.67508
  513 1   64.637262 -55.314173 -1.67508
  514 1   65.873906 -54.616241 -1.67508
  515 1   63.386722 -57.432038 -1.67508
  516 1   62.163972 -56.710039 -1.67508
  517 1   62.177867 -55.290107 -1.67508
  518 1   63.414512 -54.592174 -1.67508
  519 1   60.927328 -57.407971 -1.67508
  520 1   59.704578 -56.685972 -1.67508
  521 1   59.718473 -55.266040 -1.67508
  522 1   60.955118 -54.568107 -1.67508
  523 1   58.467933 -57.383905 -1.67508
  524 1   57.245184 -56.661905 -1.67508
  525 1   57.259079 -55.241973 -1.67508
  526 1   58.495723 -54.544041 -1.67508
  527 1   56.008539 -57.359838 -1.67508
  528 1   54.785789 -56.637839 -1.67508
  529 1   54.799684 -55.217907 -1.67508
  530 1   56.036329 -54.519974 -1.67508
  531 1   53.549145 -57.335771 -1.67508
  532 1   52.326395 -56.613772 -1.67508
  533 1   52.340290 -55.193840 -1.67508
  534 1   53.576934 -54.495907 -1.67508
  535 1   51.089750 -57.311705 -1.67508
  536 1   49.867000 -56.589705 -1.67508
  537 1   49.880895 -55.169773 -1.67508
  538 1   51.117540 -54.471841 -1.67508
  539 1   48.630356 -57.287638 -1.67508
  540 1   47.407606 -56.565639 -1.67508
  541 1   47.421501 -55.145707 -1.67508
  542 1   48.658146 -54.447774 -1.67508
  543 1   46.170961 -57.263571 -1.67508
  544 1   44.948212 -56.541572 -1.67508
  545 1   44.962107 -55.121640 -1.67508
  546 1   46.198751 -54.423707 -1.67508
  547 1   43.711567 -57.239505 -1.67508
  548 1   42.488817 -56.517505 -1.67508
  549 1   42.502712 -55.097573 -1.67508
  550 1   43.739357 -54.399641 -1.67508
  551 1   41.252173 -57.215438 -1.67508
  552 1   40.029423 -56.493439 -1.67508
  553 1   40.043318 -55.073507 -1.67508
  554 1   41.279962 -54.375574 -1.67508
  555 1   38.792778 -57.191372 -1.67508
  556 1   37.570028 -56.469372 -1.67508
  557 1   37.583923 -55.049440 -1.67508
  558 1   38.820568 -54.351508 -1.67508
  559 1   36.333384 -57.167305 -1.67508
  560 1   35.110634 -56.445306 -1.67508
  561 1   35.124529 -55.025374 -1.67508
  562 1   36.361174 -54.327441 -1.67508
  563 1   33.873989 -57.143238 -1.67508
  564 1   32.651240 -56.421239 -1.67508
  565 1   32.665135 -55.001307 -1.67508
  566 1   33.901779 -54.303374 -1.67508
  567 1   31.414595 -57.119172 -1.67508
  568 1   30.191845 -56.397172 -1.67508
  569 1   30.205740 -54.977240 -1.67508
  570 1   31.442385 -54.279308 -1.67508
  571 1   28.955201 -57.095105 -1.67508
  572 1   27.732451 -56.373106 -1.67508
  573 1   27.746346 -54.953174 -1.67508
  574 1   28.982990 -54.255241 -1.67508
  575 1   26.495806 -57.071038 -1.67508
  576 1   25.273056 -56.349039 -1.67508
  577 1   25.286951 -54.929107 -1.67508
  578 1   26.523596 -54.231174 -1.67508
  579 1   24.036412 -57.046972 -1.67508
  580 1   22.813662 -56.324972 -1.67508
  581 1   22.827557 -54.905040 -1.67508
  582 1   24.064202 -54.207108 -1.67508
  583 1   21.577017 -57.022905 -1.67508
  584 1   20.354268 -56.300906 -1.67508
  585 1   20.368163 -54.880974 -1.67508
  586 1   21.604807 -54.183041 -1.67508
  587 1   19.117623 -56.998838 -1.67508
  588 1   17.894873 -56.276839 -1.67508
  589 1   17.908768 -54.856907 -1.67508
  590 1   19.145413 -54.158974 -1.67508
  591 1   16.658229 -56.974772 -1.67508
  592 1   15.435479 -56.252772 -1.67508
  593 1   15.449374 -54.832840 -1.67508
  594 1   16.686018 -54.134908 -1.67508
  595 1   14.198834 -56.950705 -1.67508
  596 1   12.976085 -56.228706 -1.67508
  597 1   12.989979 -54.808774 -1.67508
  598 1   14.226624 -54.110841 -1.67508
  599 1   11.739440 -56.926638 -1.67508
  600 1   10.516690 -56.204639 -1.67508
  601 1   10.530585 -54.784707 -1.67508
  602 1   11.767230 -54.086774 -1.67508
  603 1    9.280045 -56.902572 -1.67508
  604 1    8.057296 -56.180572 -1.67508
  605 1    8.071191 -54.760640 -1.67508
  606 1    9.307835 -54.062708 -1.67508
  607 1    6.820651 -56.878505 -1.67508
  608 1    5.597901 -56.156506 -1.67508
  609 1    5.611796 -54.736574 -1.67508
  610 1    6.848441 -54.038641 -1.67508
  611 1    4.361257 -56.854439 -1.67508
  612 1    3.138507 -56.132439 -1.67508
  613 1    3.152402 -54.712507 -1.67508
  614 1    4.389046 -54.014574 -1.67508
  615 1    1.901862 -56.830372 -1.67508
  616 1    0.679113 -56.108373 -1.67508
  617 1    0.693007 -54.688441 -1.67508
  618 1    1.929652 -53.990508 -1.67508
  619 1   -0.557532 -56.806305 -1.67508
  620 1   -1.780282 -56.084306 -1.67508
  621 1   -1.766387 -54.664374 -1.67508
  622 1   -0.529742 -53.966441 -1.67508
  623 1   -3.016927 -56.782239 -1.67508
  624 1   -4.239676 -56.060239 -1.67508
  625 1   -4.225781 -54.640307 -1.67508
  626 1   -2.989137 -53.942375 -1.67508
  627 1   -5.476321 -56.758172 -1.67508
  628 1   -6.699071 -56.036173 -1.67508
  629 1   -6.685176 -54.616241 -1.67508
  630 1   -5.448531 -53.918308 -1.67508
  631 1   -7.935715 -56.734105 -1.67508
  632 1   -9.158465 -56.012106 -1.67508
  633 1   -9.144570 -54.592174 -1.67508
  634 1   -7.907926 -53.894241 -1.67508
  635 1  -10.395110 -56.710039 -1.67508
  636 1  -11.617859 -55.988039 -1.67508
  637 1  -11.603965 -54.568107 -1.67508
  638 1  -10.367320 -53.870175 -1.67508
  639 1  -12.854504 -56.685972 -1.67508
  640 1  -14.077254 -55.963973 -1.67508
  641 1  -14.063359 -54.544041 -1.67508
  642 1  -12.826714 -53.846108 -1.67508
  643 1  -15.313898 -56.661905 -1.67508
  644 1  -16.536648 -55.939906 -1.67508
  645 1  -16.522753 -54.519974 -1.67508
  646 1  -15.286109 -53.822041 -1.67508
  647 1  -17.773293 -56.637839 -1.67508
  648 1  -18.996043 -55.915839 -1.67508
  649 1  -18.982148 -54.495907 -1.67508
  650 1  -17.745503 -53.797975 -1.67508
  651 1  -20.232687 -56.613772 -1.67508
  652 1  -21.455437 -55.891773 -1.67508
  653 1  -21.441542 -54.471841 -1.67508
  654 1  -20.204898 -53.773908 -1.67508
  655 1  -22.692082 -56.589705 -1.67508
  656 1  -23.914831 -55.867706 -1.67508
  657 1  -23.900937 -54.447774 -1.67508
  658 1  -22.664292 -53.749841 -1.67508
  659 1  -25.151476 -56.565639 -1.67508
  660 1  -26.374226 -55.843639 -1.67508
  661 1  -26.360331 -54.423707 -1.67508
  662 1  -25.123686 -53.725775 -1.67508
  663 1  -27.610870 -56.541572 -1.67508
  664 1  -28.833620 -55.819573 -1.67508
  665 1  -28.819725 -54.399641 -1.67508
  666 1  -27.583081 -53.701708 -1.67508
  667 1  -30.070265 -56.517505 -1.67508
  668 1  -31.293015 -55.795506 -1.67508
  669 1  -31.279120 -54.375574 -1.67508
  670 1  -30.042475 -53.677641 -1.67508
  671 1  -32.529659 -56.493439 -1.67508
  672 1  -33.752409 -55.771440 -1.67508
  673 1  -33.738514 -54.351508 -1.67508
  674 1  -32.501870 -53.653575 -1.67508
  675 1  -34.989054 -56.469372 -1.67508
  676 1  -36.211803 -55.747373 -1.67508
  677 1  -36.197909 -54.327441 -1.67508
  678 1  -34.961264 -53.629508 -1.67508
  679 1  -37.448448 -56.445306 -1.67508
  680 1  -38.671198 -55.723306 -1.67508
  681 1  -38.657303 -54.303374 -1.67508
  682 1  -37.420658 -53.605442 -1.67508
  683 1  -39.907842 -56.421239 -1.67508
  684 1  -41.130592 -55.699240 -1.67508
  685 1  -41.116697 -54.279308 -1.67508
  686 1  -39.880053 -53.581375 -1.67508
  687 1  -42.367237 -56.397172 -1.67508
  688 1  -43.589987 -55.675173 -1.67508
  689 1  -43.576092 -54.255241 -1.67508
  690 1  -42.339447 -53.557308 -1.67508
  691 1  -44.826631 -56.373106 -1.67508
  692 1  -46.049381 -55.651106 -1.67508
  693 1  -46.035486 -54.231174 -1.67508
  694 1  -44.798841 -53.533242 -1.67508
  695 1  -47.286026 -56.349039 -1.67508
  696 1  -48.508775 -55.627040 -1.67508
  697 1  -48.494881 -54.207108 -1.67508
  698 1  -47.258236 -53.509175 -1.67508
  699 1  -49.745420 -56.324972 -1.67508
  700 1  -50.968170 -55.602973 -1.67508
  701 1  -50.954275 -54.183041 -1.67508
  702 1  -49.717630 -53.485108 -1.67508
  703 1  -52.204814 -56.300906 -1.67508
  704 1  -53.427564 -55.578906 -1.67508
  705 1  -53.413669 -54.158974 -1.67508
  706 1  -52.177025 -53.461042 -1.67508
  707 1  -54.664209 -56.276839 -1.67508
  708 1  -55.886959 -55.554840 -1.67508
  709 1  -55.873064 -54.134908 -1.67508
  710 1  -54.636419 -53.436975 -1.67508
  711 1  -57.123603 -56.252772 -1.67508
  712 1  -58.346353 -55.530773 -1.67508
  713 1  -58.332458 -54.110841 -1.67508
  714 1  -57.095813 -53.412908 -1.67508
  715 1  -59.582998 -56.228706 -1.67508
  716 1  -60.805747 -55.506706 -1.67508
  717 1  -60.791853 -54.086774 -1.67508
  718 1  -59.555208 -53.388842 -1.67508
  719 1  -62.042392 -56.204639 -1.67508
  720 1  -63.265142 -55.482640 -1.67508
  721 1  -63.251247 -54.062708 -1.67508
  722 1  -62.014602 -53.364775 -1.67508
  723 1  -64.501786 -56.180572 -1.67508
  724 1  -65.724536 -55.458573 -1.67508
  725 1  -65.710641 -54.038641 -1.67508
  726 1  -64.473997 -53.340708 -1.67508
  727 1  -66.961181 -56.156506 -1.67508
  728 1  -68.183931 -55.434507 -1.67508
  729 1  -68.170036 -54.014574 -1.67508
  730 1  -66.933391 -53.316642 -1.67508
  731 1  -69.420575 -56.132439 -1.67508
  732 1  -70.643325 -55.410440 -1.67508
  733 1  -70.629430 -53.990508 -1.67508
  734 1  -69.392785 -53.292575 -1.67508
  735 1  -71.879970 -56.108373 -1.67508
  736 1  -73.102719 -55.386373 -1.67508
  737 1  -73.088824 -53.966441 -1.67508
  738 1  -71.852180 -53.268509 -1.67508
  739 1  -74.339364 -56.084306 -1.67508
  740 1  -75.562114 -55.362307 -1.67508
  741 1  -75.548219 -53.942375 -1.67508
  742 1  -74.311574 -53.244442 -1.67508
  743 1  -76.798758 -56.060239 -1.67508
  744 1  -78.021508 -55.338240 -1.67508
  745 1  -78.007613 -53.918308 -1.67508
  746 1  -76.770969 -53.220375 -1.67508
  747 1  -79.258153 -56.036173 -1.67508
  748 1  -80.480903 -55.314173 -1.67508
  749 1  -80.467008 -53.894241 -1.67508
  750 1  -79.230363 -53.196309 -1.67508
  751 1  -81.717547 -56.012106 -1.67508
  752 1  -82.940297 -55.290107 -1.67508
  753 1  -82.926402 -53.870175 -1.67508
  754 1  -81.689757 -53.172242 -1.67508
  755 1  -84.176942 -55.988039 -1.67508
  756 1  -85.399691 -55.266040 -1.67508
  757 1  -85.385796 -53.846108 -1.67508
  758 1  -84.149152 -53.148175 -1.67508
  759 1  -86.636336 -55.963973 -1.67508
  760 1  -87.859086 -55.241973 -1.67508
  761 1  -87.845191 -53.822041 -1.67508
  762 1  -86.608546 -53.124109 -1.67508
  763 1  -89.095730 -55.939906 -1.67508
  764 1  -90.318480 -55.217907 -1.67508
  765 1  -90.304585 -53.797975 -1.67508
  766 1  -89.067941 -53.100042 -1.67508
  767 1  -91.555125 -55.915839 -1.67508
  768 1  -92.777875 -55.193840 -1.67508
  769 1  -92.763980 -53.773908 -1.67508
  770 1  -91.527335 -53.075975 -1.67508
  771 1  -94.014519 -55.891773 -1.67508
  772 1  -95.237269 -55.169773 -1.67508
  773 1  -95.223374 -53.749841 -1.67508
  774 1  -93.986729 -53.051909 -1.67508
  775 1  -96.473914 -55.867706 -1.67508
  776 1  -97.696663 -55.145707 -1.67508
  777 1  -97.682768 -53.725775 -1.67508
  778 1  -96.446124 -53.027842 -1.67508
  779 1  -98.933308 -55.843639 -1.67508
  780 1 -100.156058 -55.121640 -1.67508
  781 1 -100.142163 -53.701708 -1.67508
  782 1  -98.905518 -53.003775 -1.67508
  783 1 -101.392702 -55.819573 -1.67508
  784 1 -102.615452 -55.097573 -1.67508
  785 1 -102.601557 -53.677641 -1.67508
  786 1 -101.364913 -52.979709 -1.67508
  787 1 -103.852097 -55.795506 -1.67508
  788 1 -105.074847 -55.073507 -1.67508
  789 1 -105.060952 -53.653575 -1.67508
  790 1 -103.824307 -52.955642 -1.67508
  791 1 -106.311491 -55.771440 -1.67508
  792 1 -107.534241 -55.049440 -1.67508
  793 1 -107.520346 -53.629508 -1.67508
  794 1 -106.283701 -52.931575 -1.67508
  795 1 -108.770886 -55.747373 -1.67508
  796 1 -108.743096 -52.907509 -1.67508
  797 1  107.697506 -53.605442 -1.67508
  798 1  106.474756 -52.883442 -1.67508
  799 1  106.488651 -51.463510 -1.67508
  800 1  107.725296 -50.765577 -1.67508
  801 1  105.238112 -53.581375 -1.67508
  802 1  104.015362 -52.859376 -1.67508
  803 1  104.029257 -51.439444 -1.67508
  804 1  105.265901 -50.741511 -1.67508
  805 1  102.778717 -53.557308 -1.67508
  806 1  101.555967 -52.835309 -1.67508
  807 1  101.569862 -51.415377 -1.67508
  808 1  102.806507 -50.717444 -1.67508
  809 1  100.319323 -53.533242 -1.67508
  810 1   99.096573 -52.811242 -1.67508
  811 1   99.110468 -51.391310 -1.67508
  812 1  100.347113 -50.693378 -1.67508
  813 1   97.859928 -53.509175 -1.67508
  814 1   96.637179 -52.787176 -1.67508
  815 1   96.651074 -51.367244 -1.67508
  816 1   97.887718 -50.669311 -1.67508
  817 1   95.400534 -53.485108 -1.67508
  818 1   94.177784 -52.763109 -1.67508
  819 1   94.191679 -51.343177 -1.67508
  820 1   95.428324 -50.645244 -1.67508
  821 1   92.941140 -53.461042 -1.67508
  822 1   91.718390 -52.739042 -1.67508
  823 1   91.732285 -51.319110 -1.67508
  824 1   92.968929 -50.621178 -1.67508
  825 1   90.481745 -53.436975 -1.67508
  826 1   89.258995 -52.714976 -1.67508
  827 1   89.272890 -51.295044 -1.67508
  828 1   90.509535 -50.597111 -1.67508
  829 1   88.022351 -53.412908 -1.67508
  830 1   86.799601 -52.690909 -1.67508
  831 1   86.813496 -51.270977 -1.67508
  832 1   88.050141 -50.573044 -1.67508
  833 1   85.562956 -53.388842 -1.67508
  834 1   84.340207 -52.666842 -1.67508
  835 1   84.354102 -51.246910 -1.67508
  836 1   85.590746 -50.548978 -1.67508
  837 1   83.103562 -53.364775 -1.67508
  838 1   81.880812 -52.642776 -1.67508
  839 1   81.894707 -51.222844 -1.67508
  840 1   83.131352 -50.524911 -1.67508
  841 1   80.644168 -53.340708 -1.67508
  842 1   79.421418 -52.618709 -1.67508
  843 1   79.435313 -51.198777 -1.67508
  844 1   80.671957 -50.500844 -1.67508
  845 1   78.184773 -53.316642 -1.67508
  846 1   76.962023 -52.594642 -1.67508
  847 1   76.975918 -51.174710 -1.67508
  848 1   78.212563 -50.476778 -1.67508
  849 1   75.725379 -53.292575 -1.67508
  850 1   74.502629 -52.570576 -1.67508
  851 1   74.516524 -51.150644 -1.67508
  852 1   75.753169 -50.452711 -1.67508
  853 1   73.265984 -53.268509 -1.67508
  854 1   72.043235 -52.546509 -1.67508
  855 1   72.057130 -51.126577 -1.67508
  856 1   73.293774 -50.428644 -1.67508
  857 1   70.806590 -53.244442 -1.67508
  858 1   69.583840 -52.522443 -1.67508
  859 1   69.597735 -51.102511 -1.67508
  860 1   70.834380 -50.404578 -1.67508
  861 1   68.347196 -53.220375 -1.67508
  862 1   67.124446 -52.498376 -1.67508
  863 1   67.138341 -51.078444 -1.67508
  864 1   68.374985 -50.380511 -1.67508
  865 1   65.887801 -53.196309 -1.67508
  866 1   64.665051 -52.474309 -1.67508
  867 1   64.678946 -51.054377 -1.67508
  868 1   65.915591 -50.356445 -1.67508
  869 1   63.428407 -53.172242 -1.67508
  870 1   62.205657 -52.450243 -1.67508
  871 1   62.219552 -51.030311 -1.67508
  872 1   63.456197 -50.332378 -1.67508
  873 1   60.969012 -53.148175 -1.67508
  874 1   59.746263 -52.426176 -1.67508
  875 1   59.760158 -51.006244 -1.67508
  876 1   60.996802 -50.308311 -1.67508
  877 1   58.509618 -53.124109 -1.67508
  878 1   57.286868 -52.402109 -1.67508
  879 1   57.300763 -50.982177 -1.67508
  880 1   58.537408 -50.284245 -1.67508
  881 1   56.050224 -53.100042 -1.67508
  882 1   54.827474 -52.378043 -1.67508
  883 1   54.841369 -50.958111 -1.67508
  884 1   56.078013 -50.260178 -1.67508
  885 1   53.590829 -53.075975 -1.67508
  886 1   52.368079 -52.353976 -1.67508
  887 1   52.381974 -50.934044 -1.67508
  888 1   53.618619 -50.236111 -1.67508
  889 1   51.131435 -53.051909 -1.67508
  890 1   49.908685 -52.329909 -1.67508
  891 1   49.922580 -50.909977 -1.67508
  892 1   51.159225 -50.212045 -1.67508
  893 1   48.672040 -53.027842 -1.67508
  894 1   47.449291 -52.305843 -1.67508
  895 1   47.463186 -50.885911 -1.67508
  896 1   48.699830 -50.187978 -1.67508
  897 1   46.212646 -53.003775 -1.67508
  898 1   44.989896 -52.281776 -1.67508
  899 1   45.003791 -50.861844 -1.67508
  900 1   46.240436 -50.163911 -1.67508
  901 1   43.753252 -52.979709 -1.67508
  902 1   42.530502 -52.257709 -1.67508
  903 1   42.544397 -50.837777 -1.67508
  904 1   43.781041 -50.139845 -1.67508
  905 1   41.293857 -52.955642 -1.67508
  906 1   40.071108 -52.233643 -1.67508
  907 1   40.085002 -50.813711 -1.67508
  908 1   41.321647 -50.115778 -1.67508
  909 1   38.834463 -52.931575 -1.67508
  910 1   37.611713 -52.209576 -1.67508
  911 1   37.625608 -50.789644 -1.67508
  912 1   38.862253 -50.091711 -1.67508
  913 1   36.375068 -52.907509 -1.67508
  914 1   35.152319 -52.185510 -1.67508
  915 1   35.166214 -50.765577 -1.67508
  916 1   36.402858 -50.067645 -1.67508
  917 1   33.915674 -52.883442 -1.67508
  918 1   32.692924 -52.161443 -1.67508
  919 1   32.706819 -50.741511 -1.67508
  920 1   33.943464 -50.043578 -1.67508
  921 1   31.456280 -52.859376 -1.67508
  922 1   30.233530 -52.137376 -1.67508
  923 1   30.247425 -50.717444 -1.67508
  924 1   31.484069 -50.019512 -1.67508
  925 1   28.996885 -52.835309 -1.67508
  926 1   27.774136 -52.113310 -1.67508
  927 1   27.788030 -50.693378 -1.67508
  928 1   29.024675 -49.995445 -1.67508
  929 1   26.537491 -52.811242 -1.67508
  930 1   25.314741 -52.089243 -1.67508
  931 1   25.328636 -50.669311 -1.67508
  932 1   26.565281 -49.971378 -1.67508
  933 1   24.078096 -52.787176 -1.67508
  934 1   22.855347 -52.065176 -1.67508
  935 1   22.869242 -50.645244 -1.67508
  936 1   24.105886 -49.947312 -1.67508
  937 1   21.618702 -52.763109 -1.67508
  938 1   20.395952 -52.041110 -1.67508
  939 1   20.409847 -50.621178 -1.67508
  940 1   21.646492 -49.923245 -1.67508
  941 1   19.159308 -52.739042 -1.67508
  942 1   17.936558 -52.017043 -1.67508
  943 1   17.950453 -50.597111 -1.67508
  944 1   19.187097 -49.899178 -1.67508
  945 1   16.699913 -52.714976 -1.67508
  946 1   15.477164 -51.992976 -1.67508
  947 1   15.491058 -50.573044 -1.67508
  948 1   16.727703 -49.875112 -1.67508
  949 1   14.240519 -52.690909 -1.67508
  950 1   13.017769 -51.968910 -1.67508
  951 1   13.031664 -50.548978 -1.67508
  952 1   14.268309 -49.851045 -1.67508
  953 1   11.781125 -52.666842 -1.67508
  954 1   10.558375 -51.944843 -1.67508
  955 1   10.572270 -50.524911 -1.67508
  956 1   11.808914 -49.826978 -1.67508
  957 1    9.321730 -52.642776 -1.67508
  958 1    8.098980 -51.920776 -1.67508
  959 1    8.112875 -50.500844 -1.67508
  960 1    9.349520 -49.802912 -1.67508
  961 1    6.862336 -52.618709 -1.67508
  962 1    5.639586 -51.896710 -1.67508
  963 1    5.653481 -50.476778 -1.67508
  964 1    6.890125 -49.778845 -1.67508
  965 1    4.402941 -52.594642 -1.67508
  966 1    3.180192 -51.872643 -1.67508
  967 1    3.194086 -50.452711 -1.67508
  968 1    4.430731 -49.754778 -1.67508
  969 1    1.943547 -52.570576 -1.67508
  970 1    0.720797 -51.848576 -1.67508
  971 1    0.734692 -50.428644 -1.67508
  972 1    1.971337 -49.730712 -1.67508
  973 1   -0.515847 -52.546509 -1.67508
  974 1   -1.738597 -51.824510 -1.67508
  975 1   -1.724702 -50.404578 -1.67508
  976 1   -0.488058 -49.706645 -1.67508
  977 1   -2.975242 -52.522443 -1.67508
  978 1   -4.197992 -51.800443 -1.67508
  979 1   -4.184097 -50.380511 -1.67508
  980 1   -2.947452 -49.682579 -1.67508
  981 1   -5.434636 -52.498376 -1.67508
  982 1   -6.657386 -51.776377 -1.67508
  983 1   -6.643491 -50.356445 -1.67508
  984 1   -5.406846 -49.658512 -1.67508
  985 1   -7.894031 -52.474309 -1.67508
  986 1   -9.116780 -51.752310 -1.67508
  987 1   -9.102886 -50.332378 -1.67508
  988 1   -7.866241 -49.634445 -1.67508
  989 1  -10.353425 -52.450243 -1.67508
  990 1  -11.576175 -51.728243 -1.67508
  991 1  -11.562280 -50.308311 -1.67508
  992 1  -10.325635 -49.610379 -1.67508
  993 1  -12.812819 -52.426176 -1.67508
  994 1  -14.035569 -51.704177 -1.67508
  995 1  -14.021674 -50.284245 -1.67508
  996 1  -12.785030 -49.586312 -1.67508
  997 1  -15.272214 -52.402109 -1.67508
  998 1  -16.494964 -51.680110 -1.67508
  999 1  -16.481069 -50.260178 -1.67508
 1000 1  -15.244424 -49.562245 -1.67508
 1001 1  -17.731608 -52.378043 -1.67508
 1002 1  -18.954358 -51.656043 -1.67508
 1003 1  -18.940463 -50.236111 -1.67508
 1004 1  -17.703818 -49.538179 -1.67508
 1005 1  -20.191003 -52.353976 -1.67508
 1006 1  -21.413752 -51.631977 -1.67508
 1007 1  -21.399858 -50.212045 -1.67508
 1008 1  -20.163213 -49.514112 -1.67508
 1009 1  -22.650397 -52.329909 -1.67508
 1010 1  -23.873147 -51.607910 -1.67508
 1011 1  -23.859252 -50.187978 -1.67508
 1012 1  -22.622607 -49.490045 -1.67508
 1013 1  -25.109791 -52.305843 -1.67508
 1014 1  -26.332541 -51.583843 -1.67508
 1015 1  -26.318646 -50.163911 -1.67508
 1016 1  -25.082002 -49.465979 -1.67508
 1017 1  -27.569186 -52.281776 -1.67508
 1018 1  -28.791936 -51.559777 -1.67508
 1019 1  -28.778041 -50.139845 -1.67508
 1020 1  -27.541396 -49.441912 -1.67508
 1021 1  -30.028580 -52.257709 -1.67508
 1022 1  -31.251330 -51.535710 -1.67508
 1023 1  -31.237435 -50.115778 -1.67508
 1024 1  -30.000790 -49.417845 -1.67508
 1025 1  -32.487975 -52.233643 -1.67508
 1026 1  -33.710724 -51.511643 -1.67508
 1027 1  -33.696829 -50.091711 -1.67508
 1028 1  -32.460185 -49.393779 -1.67508
 1029 1  -34.947369 -52.209576 -1.67508
 1030 1  -36.170119 -51.487577 -1.67508
 1031 1  -36.156224 -50.067645 -1.67508
 1032 1  -34.919579 -49.369712 -1.67508
 1033 1  -37.406763 -52.185510 -1.67508
 1034 1  -38.629513 -51.463510 -1.67508
 1035 1  -38.615618 -50.043578 -1.67508
 1036 1  -37.378974 -49.345645 -1.67508
 1037 1  -39.866158 -52.161443 -1.67508
 1038 1  -41.088908 -51.439444 -1.67508
 1039 1  -41.075013 -50.019512 -1.67508
 1040 1  -39.838368 -49.321579 -1.67508
 1041 1  -42.325552 -52.137376 -1.67508
 1042 1  -43.548302 -51.415377 -1.67508
 1043 1  -43.534407 -49.995445 -1.67508
 1044 1  -42.297762 -49.297512 -1.67508
 1045 1  -44.784947 -52.113310 -1.67508
 1046 1  -46.007696 -51.391310 -1.67508
 1047 1  -45.993801 -49.971378 -1.67508
 1048 1  -44.757157 -49.273446 -1.67508
 1049 1  -47.244341 -52.089243 -1.67508
 1050 1  -48.467091 -51.367244 -1.67508
 1051 1  -48.453196 -49.947312 -1.67508
 1052 1  -47.216551 -49.249379 -1.67508
 1053 1  -49.703735 -52.065176 -1.67508
 1054 1  -50.926485 -51.343177 -1.67508
 1055 1  -50.912590 -49.923245 -1.67508
 1056 1  -49.675946 -49.225312 -1.67508
 1057 1  -52.163130 -52.041110 -1.67508
 1058 1  -53.385880 -51.319110 -1.67508
 1059 1  -53.371985 -49.899178 -1.67508
 1060 1  -52.135340 -49.201246 -1.67508
 1061 1  -54.622524 -52.017043 -1.67508
 1062 1  -55.845274 -51.295044 -1.67508
 1063 1  -55.831379 -49.875112 -1.67508
 1064 1  -54.594734 -49.177179 -1.67508
 1065 1  -57.081919 -51.992976 -1.67508
 1066 1  -58.304668 -51.270977 -1.67508
 1067 1  -58.290773 -49.851045 -1.67508
 1068 1  -57.054129 -49.153112 -1.67508
 1069 1  -59.541313 -51.968910 -1.67508
 1070 1  -60.764063 -51.246910 -1.67508
 1071 1  -60.750168 -49.826978 -1.67508
 1072 1  -59.513523 -49.129046 -1.67508
 1073 1  -62.000707 -51.944843 -1.67508
 1074 1  -63.223457 -51.222844 -1.67508
 1075 1  -63.209562 -49.802912 -1.67508
 1076 1  -61.972918 -49.104979 -1.67508
 1077 1  -64.460102 -51.920776 -1.67508
 1078 1  -65.682852 -51.198777 -1.67508
 1079 1  -65.668957 -49.778845 -1.67508
 1080 1  -64.432312 -49.080912 -1.67508
 1081 1  -66.919496 -51.896710 -1.67508
 1082 1  -68.142246 -51.174710 -1.67508
 1083 1  -68.128351 -49.754778 -1.67508
 1084 1  -66.891706 -49.056846 -1.67508
 1085 1  -69.378891 -51.872643 -1.67508
 1086 1  -70.601640 -51.150644 -1.67508
 1087 1  -70.587745 -49.730712 -1.67508
 1088 1  -69.351101 -49.032779 -1.67508
 1089 1  -71.838285 -51.848576 -1.67508
 1090 1  -73.061035 -51.126577 -1.67508
 1091 1  -73.047140 -49.706645 -1.67508
 1092 1  -71.810495 -49.008712 -1.67508
 1093 1  -74.297679 -51.824510 -1.67508
 1094 1  -75.520429 -51.102511 -1.67508
 1095 1  -75.506534 -49.682579 -1.67508
 1096 1  -74.269890 -48.984646 -1.67508
 1097 1  -76.757074 -51.800443 -1.67508
 1098 1  -77.979824 -51.078444 -1.67508
 1099 1  -77.965929 -49.658512 -1.67508
 1100 1  -76.729284 -48.960579 -1.67508
 1101 1  -79.216468 -51.776377 -1.67508
 1102 1  -80.439218 -51.054377 -1.67508
 1103 1  -80.425323 -49.634445 -1.67508
 1104 1  -79.188678 -48.936513 -1.67508
 1105 1  -81.675863 -51.752310 -1.67508
 1106 1  -82.898612 -51.030311 -1.67508
 1107 1  -82.884717 -49.610379 -1.67508
 1108 1  -81.648073 -48.912446 -1.67508
 1109 1  -84.135257 -51.728243 -1.67508
 1110 1  -85.358007 -51.006244 -1.67508
 1111 1  -85.344112 -49.586312 -1.67508
 1112 1  -84.107467 -48.888379 -1.67508
 1113 1  -86.594651 -51.704177 -1.67508
 1114 1  -87.817401 -50.982177 -1.67508
 1115 1  -87.803506 -49.562245 -1.67508
 1116 1  -86.566862 -48.864313 -1.67508
 1117 1  -89.054046 -51.680110 -1.67508
 1118 1  -90.276795 -50.958111 -1.67508
 1119 1  -90.262901 -49.538179 -1.67508
 1120 1  -89.026256 -48.840246 -1.67508
 1121 1  -91.513440 -51.656043 -1.67508
 1122 1  -92.736190 -50.934044 -1.67508
 1123 1  -92.722295 -49.514112 -1.67508
 1124 1  -91.485650 -48.816179 -1.67508
 1125 1  -93.972835 -51.631977 -1.67508
 1126 1  -95.195584 -50.909977 -1.67508
 1127 1  -95.181689 -49.490045 -1.67508
 1128 1  -93.945045 -48.792113 -1.67508
 1129 1  -96.432229 -51.607910 -1.67508
 1130 1  -97.654979 -50.885911 -1.67508
 1131 1  -97.641084 -49.465979 -1.67508
 1132 1  -96.404439 -48.768046 -1.67508
 1133 1  -98.891623 -51.583843 -1.67508
 1134 1 -100.114373 -50.861844 -1.67508
 1135 1 -100.100478 -49.441912 -1.67508
 1136 1  -98.863834 -48.743979 -1.67508
 1137 1 -101.351018 -51.559777 -1.67508
 1138 1 -102.573767 -50.837777 -1.67508
 1139 1 -102.559873 -49.417845 -1.67508
 1140 1 -101.323228 -48.719913 -1.67508
 1141 1 -103.810412 -51.535710 -1.67508
 1142 1 -105.033162 -50.813711 -1.67508
 1143 1 -105.019267 -49.393779 -1.67508
 1144 1 -103.782622 -48.695846 -1.67508
 1145 1 -106.269807 -51.511643 -1.67508
 1146 1 -107.492556 -50.789644 -1.67508
 1147 1 -107.478661 -49.369712 -1.67508
 1148 1 -106.242017 -48.671779 -1.67508
 1149 1 -108.729201 -51.487577 -1.67508
 1150 1 -108.701411 -48.647713 -1.67508
 1151 1  107.739191 -49.345645 -1.67508
 1152 1  106.516441 -48.623646 -1.67508
 1153 1  106.530336 -47.203714 -1.67508
 1154 1  107.766980 -46.505781 -1.67508
 1155 1  105.279796 -49.321579 -1.67508
 1156 1  104.057046 -48.599580 -1.67508
 1157 1  104.070941 -47.179647 -1.67508
 1158 1  105.307586 -46.481715 -1.67508
 1159 1  102.820402 -49.297512 -1.67508
 1160 1  101.597652 -48.575513 -1.67508
 1161 1  101.611547 -47.155581 -1.67508
 1162 1  102.848192 -46.457648 -1.67508
 1163 1  100.361007 -49.273446 -1.67508
 1164 1   99.138258 -48.551446 -1.67508
 1165 1   99.152153 -47.131514 -1.67508
 1166 1  100.388797 -46.433582 -1.67508
 1167 1   97.901613 -49.249379 -1.67508
 1168 1   96.678863 -48.527380 -1.67508
 1169 1   96.692758 -47.107448 -1.67508
 1170 1   97.929403 -46.409515 -1.67508
 1171 1   95.442219 -49.225312 -1.67508
 1172 1   94.219469 -48.503313 -1.67508
 1173 1   94.233364 -47.083381 -1.67508
 1174 1   95.470008 -46.385448 -1.67508
 1175 1   92.982824 -49.201246 -1.67508
 1176 1   91.760074 -48.479246 -1.67508
 1177 1   91.773969 -47.059314 -1.67508
 1178 1   93.010614 -46.361382 -1.67508
 1179 1   90.523430 -49.177179 -1.67508
 1180 1   89.300680 -48.455180 -1.67508
 1181 1   89.314575 -47.035248 -1.67508
 1182 1   90.551220 -46.337315 -1.67508
 1183 1   88.064035 -49.153112 -1.67508
 1184 1   86.841286 -48.431113 -1.67508
 1185 1   86.855181 -47.011181 -1.67508
 1186 1   88.091825 -46.313248 -1.67508
 1187 1   85.604641 -49.129046 -1.67508
 1188 1   84.381891 -48.407046 -1.67508
 1189 1   84.395786 -46.987114 -1.67508
 1190 1   85.632431 -46.289182 -1.67508
 1191 1   83.145247 -49.104979 -1.67508
 1192 1   81.922497 -48.382980 -1.67508
 1193 1   81.936392 -46.963048 -1.67508
 1194 1   83.173036 -46.265115 -1.67508
 1195 1   80.685852 -49.080912 -1.67508
 1196 1   79.463103 -48.358913 -1.67508
 1197 1   79.476997 -46.938981 -1.67508
 1198 1   80.713642 -46.241048 -1.67508
 1199 1   78.226458 -49.056846 -1.67508
 1200 1   77.003708 -48.334846 -1.67508
 1201 1   77.017603 -46.914914 -1.67508
 1202 1   78.254248 -46.216982 -1.67508
 1203 1   75.767063 -49.032779 -1.67508
 1204 1   74.544314 -48.310780 -1.67508
 1205 1   74.558209 -46.890848 -1.67508
 1206 1   75.794853 -46.192915 -1.67508
 1207 1   73.307669 -49.008712 -1.67508
 1208 1   72.084919 -48.286713 -1.67508
 1209 1   72.098814 -46.866781 -1.67508
 1210 1   73.335459 -46.168848 -1.67508
 1211 1   70.848275 -48.984646 -1.67508
 1212 1   69.625525 -48.262646 -1.67508
 1213 1   69.639420 -46.842714 -1.67508
 1214 1   70.876064 -46.144782 -1.67508
 1215 1   68.388880 -48.960579 -1.67508
 1216 1   67.166131 -48.238580 -1.67508
 1217 1   67.180025 -46.818648 -1.67508
 1218 1   68.416670 -46.120715 -1.67508
 1219 1   65.929486 -48.936513 -1.67508
 1220 1   64.706736 -48.214513 -1.67508
 1221 1   64.720631 -46.794581 -1.67508
 1222 1   65.957276 -46.096648 -1.67508
 1223 1   63.470091 -48.912446 -1.67508
 1224 1   62.247342 -48.190447 -1.67508
 1225 1   62.261237 -46.770515 -1.67508
 1226 1   63.497881 -46.072582 -1.67508
 1227 1   61.010697 -48.888379 -1.67508
 1228 1   59.787947 -48.166380 -1.67508
 1229 1   59.801842 -46.746448 -1.67508
 1230 1   61.038487 -46.048515 -1.67508
 1231 1   58.551303 -48.864313 -1.67508
 1232 1   57.328553 -48.142313 -1.67508
 1233 1   57.342448 -46.722381 -1.67508
 1234 1   58.579092 -46.024449 -1.67508
 1235 1   56.091908 -48.840246 -1.67508
 1236 1   54.869159 -48.118247 -1.67508
 1237 1   54.883053 -46.698315 -1.67508
 1238 1   56.119698 -46.000382 -1.67508
 1239 1   53.632514 -48.816179 -1.67508
 1240 1   52.409764 -48.094180 -1.67508
 1241 1   52.423659 -46.674248 -1.67508
 1242 1   53.660304 -45.976315 -1.67508
 1243 1   51.173120 -48.792113 -1.67508
 1244 1   49.950370 -48.070113 -1.67508
 1245 1   49.964265 -46.650181 -1.67508
 1246 1   51.200909 -45.952249 -1.67508
 1247 1   48.713725 -48.768046 -1.67508
 1248 1   47.490975 -48.046047 -1.67508
 1249 1   47.504870 -46.626115 -1.67508
 1250 1   48.741515 -45.928182 -1.67508
 1251 1   46.254331 -48.743979 -1.67508
 1252 1   45.031581 -48.021980 -1.67508
 1253 1   45.045476 -46.602048 -1.67508
 1254 1   46.282120 -45.904115 -1.67508
 1255 1   43.794936 -48.719913 -1.67508
 1256 1   42.572187 -47.997913 -1.67508
 1257 1   42.586081 -46.577981 -1.67508
 1258 1   43.822726 -45.880049 -1.67508
 1259 1   41.335542 -48.695846 -1.67508
 1260 1   40.112792 -47.973847 -1.67508
 1261 1   40.126687 -46.553915 -1.67508
 1262 1   41.363332 -45.855982 -1.67508
 1263 1   38.876148 -48.671779 -1.67508
 1264 1   37.653398 -47.949780 -1.67508
 1265 1   37.667293 -46.529848 -1.67508
 1266 1   38.903937 -45.831915 -1.67508
 1267 1   36.416753 -48.647713 -1.67508
 1268 1   35.194003 -47.925713 -1.67508
 1269 1   35.207898 -46.505781 -1.67508
 1270 1   36.444543 -45.807849 -1.67508
 1271 1   33.957359 -48.623646 -1.67508
 1272 1   32.734609 -47.901647 -1.67508
 1273 1   32.748504 -46.481715 -1.67508
 1274 1   33.985148 -45.783782 -1.67508
 1275 1   31.497964 -48.599580 -1.67508
 1276 1   30.275215 -47.877580 -1.67508
 1277 1   30.289109 -46.457648 -1.67508
 1278 1   31.525754 -45.759715 -1.67508
 1279 1   29.038570 -48.575513 -1.67508
 1280 1   27.815820 -47.853514 -1.67508
 1281 1   27.829715 -46.433582 -1.67508
 1282 1   29.066360 -45.735649 -1.67508
 1283 1   26.579176 -48.551446 -1.67508
 1284 1   25.356426 -47.829447 -1.67508
 1285 1   25.370321 -46.409515 -1.67508
 1286 1   26.606965 -45.711582 -1.67508
 1287 1   24.119781 -48.527380 -1.67508
 1288 1   22.897031 -47.805380 -1.67508
 1289 1   22.910926 -46.385448 -1.67508
 1290 1   24.147571 -45.687516 -1.67508
 1291 1   21.660387 -48.503313 -1.67508
 1292 1   20.437637 -47.781314 -1.67508
 1293 1   20.451532 -46.361382 -1.67508
 1294 1   21.688177 -45.663449 -1.67508
 1295 1   19.200992 -48.479246 -1.67508
 1296 1   17.978243 -47.757247 -1.67508
 1297 1   17.992137 -46.337315 -1.67508
 1298 1   19.228782 -45.639382 -1.67508
 1299 1   16.741598 -48.455180 -1.67508
 1300 1   15.518848 -47.733180 -1.67508
 1301 1   15.532743 -46.313248 -1.67508
 1302 1   16.769388 -45.615316 -1.67508
 1303 1   14.282204 -48.431113 -1.67508
 1304 1   13.059454 -47.709114 -1.67508
 1305 1   13.073349 -46.289182 -1.67508
 1306 1   14.309993 -45.591249 -1.67508
 1307 1   11.822809 -48.407046 -1.67508
 1308 1   10.600059 -47.685047 -1.67508
 1309 1   10.613954 -46.265115 -1.67508
 1310 1   11.850599 -45.567182 -1.67508
 1311 1    9.363415 -48.382980 -1.67508
 1312 1    8.140665 -47.660980 -1.67508
 1313 1    8.154560 -46.241048 -1.67508
 1314 1    9.391205 -45.543116 -1.67508
 1315 1    6.904020 -48.358913 -1.67508
 1316 1    5.681271 -47.636914 -1.67508
 1317 1    5.695165 -46.216982 -1.67508
 1318 1    6.931810 -45.519049 -1.67508
 1319 1    4.444626 -48.334846 -1.67508
 1320 1    3.221876 -47.612847 -1.67508
 1321 1    3.235771 -46.192915 -1.67508
 1322 1    4.472416 -45.494982 -1.67508
 1323 1    1.985232 -48.310780 -1.67508
 1324 1    0.762482 -47.588780 -1.67508
 1325 1    0.776377 -46.168848 -1.67508
 1326 1    2.013021 -45.470916 -1.67508
 1327 1   -0.474163 -48.286713 -1.67508
 1328 1   -1.696913 -47.564714 -1.67508
 1329 1   -1.683018 -46.144782 -1.67508
 1330 1   -0.446373 -45.446849 -1.67508
 1331 1   -2.933557 -48.262646 -1.67508
 1332 1   -4.156307 -47.540647 -1.67508
 1333 1   -4.142412 -46.120715 -1.67508
 1334 1   -2.905767 -45.422782 -1.67508
 1335 1   -5.392952 -48.238580 -1.67508
 1336 1   -6.615701 -47.516581 -1.67508
 1337 1   -6.601806 -46.096648 -1.67508
 1338 1   -5.365162 -45.398716 -1.67508
 1339 1   -7.852346 -48.214513 -1.67508
 1340 1   -9.075096 -47.492514 -1.67508
 1341 1   -9.061201 -46.072582 -1.67508
 1342 1   -7.824556 -45.374649 -1.67508
 1343 1  -10.311740 -48.190447 -1.67508
 1344 1  -11.534490 -47.468447 -1.67508
 1345 1  -11.520595 -46.048515 -1.67508
 1346 1  -10.283951 -45.350583 -1.67508
 1347 1  -12.771135 -48.166380 -1.67508
 1348 1  -13.993885 -47.444381 -1.67508
 1349 1  -13.979990 -46.024449 -1.67508
 1350 1  -12.743345 -45.326516 -1.67508
 1351 1  -15.230529 -48.142313 -1.67508
 1352 1  -16.453279 -47.420314 -1.67508
 1353 1  -16.439384 -46.000382 -1.67508
 1354 1  -15.202739 -45.302449 -1.67508
 1355 1  -17.689924 -48.118247 -1.67508
 1356 1  -18.912673 -47.396247 -1.67508
 1357 1  -18.898778 -45.976315 -1.67508
 1358 1  -17.662134 -45.278383 -1.67508
 1359 1  -20.149318 -48.094180 -1.67508
 1360 1  -21.372068 -47.372181 -1.67508
 1361 1  -21.358173 -45.952249 -1.67508
 1362 1  -20.121528 -45.254316 -1.67508
 1363 1  -22.608712 -48.070113 -1.67508
 1364 1  -23.831462 -47.348114 -1.67508
 1365 1  -23.817567 -45.928182 -1.67508
 1366 1  -22.580923 -45.230249 -1.67508
 1367 1  -25.068107 -48.046047 -1.67508
 1368 1  -26.290857 -47.324047 -1.67508
 1369 1  -26.276962 -45.904115 -1.67508
 1370 1  -25.040317 -45.206183 -1.67508
 1371 1  -27.527501 -48.021980 -1.67508
 1372 1  -28.750251 -47.299981 -1.67508
 1373 1  -28.736356 -45.880049 -1.67508
 1374 1  -27.499711 -45.182116 -1.67508
 1375 1  -29.986896 -47.997913 -1.67508
 1376 1  -31.209645 -47.275914 -1.67508
 1377 1  -31.195750 -45.855982 -1.67508
 1378 1  -29.959106 -45.158049 -1.67508
 1379 1  -32.446290 -47.973847 -1.67508
 1380 1  -33.669040 -47.251847 -1.67508
 1381 1  -33.655145 -45.831915 -1.67508
 1382 1  -32.418500 -45.133983 -1.67508
 1383 1  -34.905684 -47.949780 -1.67508
 1384 1  -36.128434 -47.227781 -1.67508
 1385 1  -36.114539 -45.807849 -1.67508
 1386 1  -34.877895 -45.109916 -1.67508
 1387 1  -37.365079 -47.925713 -1.67508
 1388 1  -38.587829 -47.203714 -1.67508
 1389 1  -38.573934 -45.783782 -1.67508
 1390 1  -37.337289 -45.085849 -1.67508
 1391 1  -39.824473 -47.901647 -1.67508
 1392 1  -41.047223 -47.179647 -1.67508
 1393 1  -41.033328 -45.759715 -1.67508
 1394 1  -39.796683 -45.061783 -1.67508
 1395 1  -42.283868 -47.877580 -1.67508
 1396 1  -43.506617 -47.155581 -1.67508
 1397 1  -43.492722 -45.735649 -1.67508
 1398 1  -42.256078 -45.037716 -1.67508
 1399 1  -44.743262 -47.853514 -1.67508
 1400 1  -45.966012 -47.131514 -1.67508
 1401 1  -45.952117 -45.711582 -1.67508
 1402 1  -44.715472 -45.013649 -1.67508
 1403 1  -47.202656 -47.829447 -1.67508
 1404 1  -48.425406 -47.107448 -1.67508
 1405 1  -48.411511 -45.687516 -1.67508
 1406 1  -47.174867 -44.989583 -1.67508
 1407 1  -49.662051 -47.805380 -1.67508
 1408 1  -50.884801 -47.083381 -1.67508
 1409 1  -50.870906 -45.663449 -1.67508
 1410 1  -49.634261 -44.965516 -1.67508
 1411 1  -52.121445 -47.781314 -1.67508
 1412 1  -53.344195 -47.059314 -1.67508
 1413 1  -53.330300 -45.639382 -1.67508
 1414 1  -52.093655 -44.941450 -1.67508
 1415 1  -54.580840 -47.757247 -1.67508
 1416 1  -55.803589 -47.035248 -1.67508
 1417 1  -55.789694 -45.615316 -1.67508
 1418 1  -54.553050 -44.917383 -1.67508
 1419 1  -57.040234 -47.733180 -1.67508
 1420 1  -58.262984 -47.011181 -1.67508
 1421 1  -58.249089 -45.591249 -1.67508
 1422 1  -57.012444 -44.893316 -1.67508
 1423 1  -59.499628 -47.709114 -1.67508
 1424 1  -60.722378 -46.987114 -1.67508
 1425 1  -60.708483 -45.567182 -1.67508
 1426 1  -59.471839 -44.869250 -1.67508
 1427 1  -61.959023 -47.685047 -1.67508
 1428 1  -63.181772 -46.963048 -1.67508
 1429 1  -63.167878 -45.543116 -1.67508
 1430 1  -61.931233 -44.845183 -1.67508
 1431 1  -64.418417 -47.660980 -1.67508
 1432 1  -65.641167 -46.938981 -1.67508
 1433 1  -65.627272 -45.519049 -1.67508
 1434 1  -64.390627 -44.821116 -1.67508
 1435 1  -66.877812 -47.636914 -1.67508
 1436 1  -68.100561 -46.914914 -1.67508
 1437 1  -68.086666 -45.494982 -1.67508
 1438 1  -66.850022 -44.797050 -1.67508
 1439 1  -69.337206 -47.612847 -1.67508
 1440 1  -70.559956 -46.890848 -1.67508
 1441 1  -70.546061 -45.470916 -1.67508
 1442 1  -69.309416 -44.772983 -1.67508
 1443 1  -71.796600 -47.588780 -1.67508
 1444 1  -73.019350 -46.866781 -1.67508
 1445 1  -73.005455 -45.446849 -1.67508
 1446 1  -71.768811 -44.748916 -1.67508
 1447 1  -74.255995 -47.564714 -1.67508
 1448 1  -75.478744 -46.842714 -1.67508
 1449 1  -75.464850 -45.422782 -1.67508
 1450 1  -74.228205 -44.724850 -1.67508
 1451 1  -76.715389 -47.540647 -1.67508
 1452 1  -77.938139 -46.818648 -1.67508
 1453 1  -77.924244 -45.398716 -1.67508
 1454 1  -76.687599 -44.700783 -1.67508
 1455 1  -79.174784 -47.516581 -1.67508
 1456 1  -80.397533 -46.794581 -1.67508
 1457 1  -80.383638 -45.374649 -1.67508
 1458 1  -79.146994 -44.676716 -1.67508
 1459 1  -81.634178 -47.492514 -1.67508
 1460 1  -82.856928 -46.770515 -1.67508
 1461 1  -82.843033 -45.350583 -1.67508
 1462 1  -81.606388 -44.652650 -1.67508
 1463 1  -84.093572 -47.468447 -1.67508
 1464 1  -85.316322 -46.746448 -1.67508
 1465 1  -85.302427 -45.326516 -1.67508
 1466 1  -84.065783 -44.628583 -1.67508
 1467 1  -86.552967 -47.444381 -1.67508
 1468 1  -87.775716 -46.722381 -1.67508
 1469 1  -87.761822 -45.302449 -1.67508
 1470 1  -86.525177 -44.604517 -1.67508
 1471 1  -89.012361 -47.420314 -1.67508
 1472 1  -90.235111 -46.698315 -1.67508
 1473 1  -90.221216 -45.278383 -1.67508
 1474 1  -88.984571 -44.580450 -1.67508
 1475 1  -91.471755 -47.396247 -1.67508
 1476 1  -92.694505 -46.674248 -1.67508
 1477 1  -92.680610 -45.254316 -1.67508
 1478 1  -91.443966 -44.556383 -1.67508
 1479 1  -93.931150 -47.372181 -1.67508
 1480 1  -95.153900 -46.650181 -1.67508
 1481 1  -95.140005 -45.230249 -1.67508
 1482 1  -93.903360 -44.532317 -1.67508
 1483 1  -96.390544 -47.348114 -1.67508
 1484 1  -97.613294 -46.626115 -1.67508
 1485 1  -97.599399 -45.206183 -1.67508
 1486 1  -96.362755 -44.508250 -1.67508
 1487 1  -98.849939 -47.324047 -1.67508
 1488 1 -100.072688 -46.602048 -1.67508
 1489 1 -100.058794 -45.182116 -1.67508
 1490 1  -98.822149 -44.484183 -1.67508
 1491 1 -101.309333 -47.299981 -1.67508
 1492 1 -102.532083 -46.577981 -1.67508
 1493 1 -102.518188 -45.158049 -1.67508
 1494 1 -101.281543 -44.460117 -1.67508
 1495 1 -103.768727 -47.275914 -1.67508
 1496 1 -104.991477 -46.553915 -1.67508
 1497 1 -104.977582 -45.133983 -1.67508
 1498 1 -103.740938 -44.436050 -1.67508
 1499 1 -106.228122 -47.251847 -1.67508
 1500 1 -107.450872 -46.529848 -1.67508
 1501 1 -107.436977 -45.109916 -1.67508
 1502 1 -106.200332 -44.411983 -1.67508
 1503 1 -108.687516 -47.227781 -1.67508
 1504 1 -108.659726 -44.387917 -1.67508
 1505 1  107.780875 -45.085849 -1.67508
 1506 1  106.558126 -44.363850 -1.67508
 1507 1  106.572020 -42.943918 -1.67508
 1508 1  107.808665 -42.245985 -1.67508
 1509 1  105.321481 -45.061783 -1.67508
 1510 1  104.098731 -44.339783 -1.67508
 1511 1  104.112626 -42.919851 -1.67508
 1512 1  105.349271 -42.221919 -1.67508
 1513 1  102.862086 -45.037716 -1.67508
 1514 1  101.639337 -44.315717 -1.67508
 1515 1  101.653232 -42.895785 -1.67508
 1516 1  102.889876 -42.197852 -1.67508
 1517 1  100.402692 -45.013649 -1.67508
 1518 1   99.179942 -44.291650 -1.67508
 1519 1   99.193837 -42.871718 -1.67508
 1520 1  100.430482 -42.173785 -1.67508
 1521 1   97.943298 -44.989583 -1.67508
 1522 1   96.720548 -44.267584 -1.67508
 1523 1   96.734443 -42.847652 -1.67508
 1524 1   97.971087 -42.149719 -1.67508
 1525 1   95.483903 -44.965516 -1.67508
 1526 1   94.261154 -44.243517 -1.67508
 1527 1   94.275048 -42.823585 -1.67508
 1528 1   95.511693 -42.125652 -1.67508
 1529 1   93.024509 -44.941450 -1.67508
 1530 1   91.801759 -44.219450 -1.67508
 1531 1   91.815654 -42.799518 -1.67508
 1532 1   93.052299 -42.101586 -1.67508
 1533 1   90.565114 -44.917383 -1.67508
 1534 1   89.342365 -44.195384 -1.67508
 1535 1   89.356260 -42.775452 -1.67508
 1536 1   90.592904 -42.077519 -1.67508
 1537 1   88.105720 -44.893316 -1.67508
 1538 1   86.882970 -44.171317 -1.67508
 1539 1   86.896865 -42.751385 -1.67508
 1540 1   88.133510 -42.053452 -1.67508
 1541 1   85.646326 -44.869250 -1.67508
 1542 1   84.423576 -44.147250 -1.67508
 1543 1   84.437471 -42.727318 -1.67508
 1544 1   85.674115 -42.029386 -1.67508
 1545 1   83.186931 -44.845183 -1.67508
 1546 1   81.964182 -44.123184 -1.67508
 1547 1   81.978076 -42.703252 -1.67508
 1548 1   83.214721 -42.005319 -1.67508
 1549 1   80.727537 -44.821116 -1.67508
 1550 1   79.504787 -44.099117 -1.67508
 1551 1   79.518682 -42.679185 -1.67508
 1552 1   80.755327 -41.981252 -1.67508
 1553 1   78.268143 -44.797050 -1.67508
 1554 1   77.045393 -44.075050 -1.67508
 1555 1   77.059288 -42.655118 -1.67508
 1556 1   78.295932 -41.957186 -1.67508
 1557 1   75.808748 -44.772983 -1.67508
 1558 1   74.585998 -44.050984 -1.67508
 1559 1   74.599893 -42.631052 -1.67508
 1560 1   75.836538 -41.933119 -1.67508
 1561 1   73.349354 -44.748916 -1.67508
 1562 1   72.126604 -44.026917 -1.67508
 1563 1   72.140499 -42.606985 -1.67508
 1564 1   73.377143 -41.909052 -1.67508
 1565 1   70.889959 -44.724850 -1.67508
 1566 1   69.667210 -44.002850 -1.67508
 1567 1   69.681104 -42.582918 -1.67508
 1568 1   70.917749 -41.884986 -1.67508
 1569 1   68.430565 -44.700783 -1.67508
 1570 1   67.207815 -43.978784 -1.67508
 1571 1   67.221710 -42.558852 -1.67508
 1572 1   68.458355 -41.860919 -1.67508
 1573 1   65.971171 -44.676716 -1.67508
 1574 1   64.748421 -43.954717 -1.67508
 1575 1   64.762316 -42.534785 -1.67508
 1576 1   65.998960 -41.836852 -1.67508
 1577 1   63.511776 -44.652650 -1.67508
 1578 1   62.289026 -43.930651 -1.67508
 1579 1   62.302921 -42.510718 -1.67508
 1580 1   63.539566 -41.812786 -1.67508
 1581 1   61.052382 -44.628583 -1.67508
 1582 1   59.829632 -43.906584 -1.67508
 1583 1   59.843527 -42.486652 -1.67508
 1584 1   61.080172 -41.788719 -1.67508
 1585 1   58.592987 -44.604517 -1.67508
 1586 1   57.370238 -43.882517 -1.67508
 1587 1   57.384132 -42.462585 -1.67508
 1588 1   58.620777 -41.764653 -1.67508
 1589 1   56.133593 -44.580450 -1.67508
 1590 1   54.910843 -43.858451 -1.67508
 1591 1   54.924738 -42.438519 -1.67508
 1592 1   56.161383 -41.740586 -1.67508
 1593 1   53.674199 -44.556383 -1.67508
 1594 1   52.451449 -43.834384 -1.67508
 1595 1   52.465344 -42.414452 -1.67508
 1596 1   53.701988 -41.716519 -1.67508
 1597 1   51.214804 -44.532317 -1.67508
 1598 1   49.992054 -43.810317 -1.67508
 1599 1   50.005949 -42.390385 -1.67508
 1600 1   51.242594 -41.692453 -1.67508
 1601 1   48.755410 -44.508250 -1.67508
 1602 1   47.532660 -43.786251 -1.67508
 1603 1   47.546555 -42.366319 -1.67508
 1604 1   48.783200 -41.668386 -1.67508
 1605 1   46.296015 -44.484183 -1.67508
 1606 1   45.073266 -43.762184 -1.67508
 1607 1   45.087160 -42.342252 -1.67508
 1608 1   46.323805 -41.644319 -1.67508
 1609 1   43.836621 -44.460117 -1.67508
 1610 1   42.613871 -43.738117 -1.67508
 1611 1   42.627766 -42.318185 -1.67508
 1612 1   43.864411 -41.620253 -1.67508
 1613 1   41.377227 -44.436050 -1.67508
 1614 1   40.154477 -43.714051 -1.67508
 1615 1   40.168372 -42.294119 -1.67508
 1616 1   41.405016 -41.596186 -1.67508
 1617 1   38.917832 -44.411983 -1.67508
 1618 1   37.695082 -43.689984 -1.67508
 1619 1   37.708977 -42.270052 -1.67508
 1620 1   38.945622 -41.572119 -1.67508
 1621 1   36.458438 -44.387917 -1.67508
 1622 1   35.235688 -43.665917 -1.67508
 1623 1   35.249583 -42.245985 -1.67508
 1624 1   36.486228 -41.548053 -1.67508
 1625 1   33.999043 -44.363850 -1.67508
 1626 1   32.776294 -43.641851 -1.67508
 1627 1   32.790189 -42.221919 -1.67508
 1628 1   34.026833 -41.523986 -1.67508
 1629 1   31.539649 -44.339783 -1.67508
 1630 1   30.316899 -43.617784 -1.67508
 1631 1   30.330794 -42.197852 -1.67508
 1632 1   31.567439 -41.499919 -1.67508
 1633 1   29.080255 -44.315717 -1.67508
 1634 1   27.857505 -43.593717 -1.67508
 1635 1   27.871400 -42.173785 -1.67508
 1636 1   29.108044 -41.475853 -1.67508
 1637 1   26.620860 -44.291650 -1.67508
 1638 1   25.398110 -43.569651 -1.67508
 1639 1   25.412005 -42.149719 -1.67508
 1640 1   26.648650 -41.451786 -1.67508
 1641 1   24.161466 -44.267584 -1.67508
 1642 1   22.938716 -43.545584 -1.67508
 1643 1   22.952611 -42.125652 -1.67508
 1644 1   24.189256 -41.427719 -1.67508
 1645 1   21.702071 -44.243517 -1.67508
 1646 1   20.479322 -43.521518 -1.67508
 1647 1   20.493217 -42.101586 -1.67508
 1648 1   21.729861 -41.403653 -1.67508
 1649 1   19.242677 -44.219450 -1.67508
 1650 1   18.019927 -43.497451 -1.67508
 1651 1   18.033822 -42.077519 -1.67508
 1652 1   19.270467 -41.379586 -1.67508
 1653 1   16.783283 -44.195384 -1.67508
 1654 1   15.560533 -43.473384 -1.67508
 1655 1   15.574428 -42.053452 -1.67508
 1656 1   16.811072 -41.355520 -1.67508
 1657 1   14.323888 -44.171317 -1.67508
 1658 1   13.101138 -43.449318 -1.67508
 1659 1   13.115033 -42.029386 -1.67508
 1660 1   14.351678 -41.331453 -1.67508
 1661 1   11.864494 -44.147250 -1.67508
 1662 1   10.641744 -43.425251 -1.67508
 1663 1   10.655639 -42.005319 -1.67508
 1664 1   11.892284 -41.307386 -1.67508
 1665 1    9.405099 -44.123184 -1.67508
 1666 1    8.182350 -43.401184 -1.67508
 1667 1    8.196245 -41.981252 -1.67508
 1668 1    9.432889 -41.283320 -1.67508
 1669 1    6.945705 -44.099117 -1.67508
 1670 1    5.722955 -43.377118 -1.67508
 1671 1    5.736850 -41.957186 -1.67508
 1672 1    6.973495 -41.259253 -1.67508
 1673 1    4.486311 -44.075050 -1.67508
 1674 1    3.263561 -43.353051 -1.67508
 1675 1    3.277456 -41.933119 -1.67508
 1676 1    4.514100 -41.235186 -1.67508
 1677 1    2.026916 -44.050984 -1.67508
 1678 1    0.804166 -43.328984 -1.67508
 1679 1    0.818061 -41.909052 -1.67508
 1680 1    2.054706 -41.211120 -1.67508
 1681 1   -0.432478 -44.026917 -1.67508
 1682 1   -1.655228 -43.304918 -1.67508
 1683 1   -1.641333 -41.884986 -1.67508
 1684 1   -0.404688 -41.187053 -1.67508
 1685 1   -2.891873 -44.002850 -1.67508
 1686 1   -4.114622 -43.280851 -1.67508
 1687 1   -4.100727 -41.860919 -1.67508
 1688 1   -2.864083 -41.162986 -1.67508
 1689 1   -5.351267 -43.978784 -1.67508
 1690 1   -6.574017 -43.256784 -1.67508
 1691 1   -6.560122 -41.836852 -1.67508
 1692 1   -5.323477 -41.138920 -1.67508
 1693 1   -7.810661 -43.954717 -1.67508
 1694 1   -9.033411 -43.232718 -1.67508
 1695 1   -9.019516 -41.812786 -1.67508
 1696 1   -7.782872 -41.114853 -1.67508
 1697 1  -10.270056 -43.930651 -1.67508
 1698 1  -11.492806 -43.208651 -1.67508
 1699 1  -11.478911 -41.788719 -1.67508
 1700 1  -10.242266 -41.090786 -1.67508
 1701 1  -12.729450 -43.906584 -1.67508
 1702 1  -13.952200 -43.184585 -1.67508
 1703 1  -13.938305 -41.764653 -1.67508
 1704 1  -12.701660 -41.066720 -1.67508
 1705 1  -15.188845 -43.882517 -1.67508
 1706 1  -16.411594 -43.160518 -1.67508
 1707 1  -16.397699 -41.740586 -1.67508
 1708 1  -15.161055 -41.042653 -1.67508
 1709 1  -17.648239 -43.858451 -1.67508
 1710 1  -18.870989 -43.136451 -1.67508
 1711 1  -18.857094 -41.716519 -1.67508
 1712 1  -17.620449 -41.018587 -1.67508
 1713 1  -20.107633 -43.834384 -1.67508
 1714 1  -21.330383 -43.112385 -1.67508
 1715 1  -21.316488 -41.692453 -1.67508
 1716 1  -20.079844 -40.994520 -1.67508
 1717 1  -22.567028 -43.810317 -1.67508
 1718 1  -23.789777 -43.088318 -1.67508
 1719 1  -23.775883 -41.668386 -1.67508
 1720 1  -22.539238 -40.970453 -1.67508
 1721 1  -25.026422 -43.786251 -1.67508
 1722 1  -26.249172 -43.064251 -1.67508
 1723 1  -26.235277 -41.644319 -1.67508
 1724 1  -24.998632 -40.946387 -1.67508
 1725 1  -27.485817 -43.762184 -1.67508
 1726 1  -28.708566 -43.040185 -1.67508
 1727 1  -28.694671 -41.620253 -1.67508
 1728 1  -27.458027 -40.922320 -1.67508
 1729 1  -29.945211 -43.738117 -1.67508
 1730 1  -31.167961 -43.016118 -1.67508
 1731 1  -31.154066 -41.596186 -1.67508
 1732 1  -29.917421 -40.898253 -1.67508
 1733 1  -32.404605 -43.714051 -1.67508
 1734 1  -33.627355 -42.992051 -1.67508
 1735 1  -33.613460 -41.572119 -1.67508
 1736 1  -32.376816 -40.874187 -1.67508
 1737 1  -34.864000 -43.689984 -1.67508
 1738 1  -36.086749 -42.967985 -1.67508
 1739 1  -36.072855 -41.548053 -1.67508
 1740 1  -34.836210 -40.850120 -1.67508
 1741 1  -37.323394 -43.665917 -1.67508
 1742 1  -38.546144 -42.943918 -1.67508
 1743 1  -38.532249 -41.523986 -1.67508
 1744 1  -37.295604 -40.826053 -1.67508
 1745 1  -39.782789 -43.641851 -1.67508
 1746 1  -41.005538 -42.919851 -1.67508
 1747 1  -40.991643 -41.499919 -1.67508
 1748 1  -39.754999 -40.801987 -1.67508
 1749 1  -42.242183 -43.617784 -1.67508
 1750 1  -43.464933 -42.895785 -1.67508
 1751 1  -43.451038 -41.475853 -1.67508
 1752 1  -42.214393 -40.777920 -1.67508
 1753 1  -44.701577 -43.593717 -1.67508
 1754 1  -45.924327 -42.871718 -1.67508
 1755 1  -45.910432 -41.451786 -1.67508
 1756 1  -44.673788 -40.753853 -1.67508
 1757 1  -47.160972 -43.569651 -1.67508
 1758 1  -48.383721 -42.847652 -1.67508
 1759 1  -48.369827 -41.427719 -1.67508
 1760 1  -47.133182 -40.729787 -1.67508
 1761 1  -49.620366 -43.545584 -1.67508
 1762 1  -50.843116 -42.823585 -1.67508
 1763 1  -50.829221 -41.403653 -1.67508
 1764 1  -49.592576 -40.705720 -1.67508
 1765 1  -52.079760 -43.521518 -1.67508
 1766 1  -53.302510 -42.799518 -1.67508
 1767 1  -53.288615 -41.379586 -1.67508
 1768 1  -52.051971 -40.681654 -1.67508
 1769 1  -54.539155 -43.497451 -1.67508
 1770 1  -55.761905 -42.775452 -1.67508
 1771 1  -55.748010 -41.355520 -1.67508
 1772 1  -54.511365 -40.657587 -1.67508
 1773 1  -56.998549 -43.473384 -1.67508
 1774 1  -58.221299 -42.751385 -1.67508
 1775 1  -58.207404 -41.331453 -1.67508
 1776 1  -56.970760 -40.633520 -1.67508
 1777 1  -59.457944 -43.449318 -1.67508
 1778 1  -60.680693 -42.727318 -1.67508
 1779 1  -60.666799 -41.307386 -1.67508
 1780 1  -59.430154 -40.609454 -1.67508
 1781 1  -61.917338 -43.425251 -1.67508
 1782 1  -63.140088 -42.703252 -1.67508
 1783 1  -63.126193 -41.283320 -1.67508
 1784 1  -61.889548 -40.585387 -1.67508
 1785 1  -64.376732 -43.401184 -1.67508
 1786 1  -65.599482 -42.679185 -1.67508
 1787 1  -65.585587 -41.259253 -1.67508
 1788 1  -64.348943 -40.561320 -1.67508
 1789 1  -66.836127 -43.377118 -1.67508
 1790 1  -68.058877 -42.655118 -1.67508
 1791 1  -68.044982 -41.235186 -1.67508
 1792 1  -66.808337 -40.537254 -1.67508
 1793 1  -69.295521 -43.353051 -1.67508
 1794 1  -70.518271 -42.631052 -1.67508
 1795 1  -70.504376 -41.211120 -1.67508
 1796 1  -69.267731 -40.513187 -1.67508
 1797 1  -71.754916 -43.328984 -1.67508
 1798 1  -72.977665 -42.606985 -1.67508
 1799 1  -72.963771 -41.187053 -1.67508
 1800 1  -71.727126 -40.489120 -1.67508
 1801 1  -74.214310 -43.304918 -1.67508
 1802 1  -75.437060 -42.582918 -1.67508
 1803 1  -75.423165 -41.162986 -1.67508
 1804 1  -74.186520 -40.465054 -1.67508
 1805 1  -76.673704 -43.280851 -1.67508
 1806 1  -77.896454 -42.558852 -1.67508
 1807 1  -77.882559 -41.138920 -1.67508
 1808 1  -76.645915 -40.440987 -1.67508
 1809 1  -79.133099 -43.256784 -1.67508
 1810 1  -80.355849 -42.534785 -1.67508
 1811 1  -80.341954 -41.114853 -1.67508
 1812 1  -79.105309 -40.416920 -1.67508
 1813 1  -81.592493 -43.232718 -1.67508
 1814 1  -82.815243 -42.510718 -1.67508
 1815 1  -82.801348 -41.090786 -1.67508
 1816 1  -81.564703 -40.392854 -1.67508
 1817 1  -84.051888 -43.208651 -1.67508
 1818 1  -85.274637 -42.486652 -1.67508
 1819 1  -85.260743 -41.066720 -1.67508
 1820 1  -84.024098 -40.368787 -1.67508
 1821 1  -86.511282 -43.184585 -1.67508
 1822 1  -87.734032 -42.462585 -1.67508
 1823 1  -87.720137 -41.042653 -1.67508
 1824 1  -86.483492 -40.344720 -1.67508
 1825 1  -88.970676 -43.160518 -1.67508
 1826 1  -90.193426 -42.438519 -1.67508
 1827 1  -90.179531 -41.018587 -1.67508
 1828 1  -88.942887 -40.320654 -1.67508
 1829 1  -91.430071 -43.136451 -1.67508
 1830 1  -92.652821 -42.414452 -1.67508
 1831 1  -92.638926 -40.994520 -1.67508
 1832 1  -91.402281 -40.296587 -1.67508
 1833 1  -93.889465 -43.112385 -1.67508
 1834 1  -95.112215 -42.390385 -1.67508
 1835 1  -95.098320 -40.970453 -1.67508
 1836 1  -93.861675 -40.272521 -1.67508
 1837 1  -96.348860 -43.088318 -1.67508
 1838 1  -97.571609 -42.366319 -1.67508
 1839 1  -97.557714 -40.946387 -1.67508
 1840 1  -96.321070 -40.248454 -1.67508
 1841 1  -98.808254 -43.064251 -1.67508
 1842 1 -100.031004 -42.342252 -1.67508
 1843 1 -100.017109 -40.922320 -1.67508
 1844 1  -98.780464 -40.224387 -1.67508
 1845 1 -101.267648 -43.040185 -1.67508
 1846 1 -102.490398 -42.318185 -1.67508
 1847 1 -102.476503 -40.898253 -1.67508
 1848 1 -101.239859 -40.200321 -1.67508
 1849 1 -103.727043 -43.016118 -1.67508
 1850 1 -104.949793 -42.294119 -1.67508
 1851 1 -104.935898 -40.874187 -1.67508
 1852 1 -103.699253 -40.176254 -1.67508
 1853 1 -106.186437 -42.992051 -1.67508
 1854 1 -107.409187 -42.270052 -1.67508
 1855 1 -107.395292 -40.850120 -1.67508
 1856 1 -106.158647 -40.152187 -1.67508
 1857 1 -108.645832 -42.967985 -1.67508
 1858 1 -108.618042 -40.128121 -1.67508
 1859 1  107.822560 -40.826053 -1.67508
 1860 1  106.599810 -40.104054 -1.67508
 1861 1  106.613705 -38.684122 -1.67508
 1862 1  107.850350 -37.986189 -1.67508
 1863 1  105.363166 -40.801987 -1.67508
 1864 1  104.140416 -40.079987 -1.67508
 1865 1  104.154311 -38.660055 -1.67508
 1866 1  105.390955 -37.962123 -1.67508
 1867 1  102.903771 -40.777920 -1.67508
 1868 1  101.681021 -40.055921 -1.67508
 1869 1  101.694916 -38.635989 -1.67508
 1870 1  102.931561 -37.938056 -1.67508
 1871 1  100.444377 -40.753853 -1.67508
 1872 1   99.221627 -40.031854 -1.67508
 1873 1   99.235522 -38.611922 -1.67508
 1874 1  100.472166 -37.913989 -1.67508
 1875 1   97.984982 -40.729787 -1.67508
 1876 1   96.762233 -40.007787 -1.67508
 1877 1   96.776127 -38.587855 -1.67508
 1878 1   98.012772 -37.889923 -1.67508
 1879 1   95.525588 -40.705720 -1.67508
 1880 1   94.302838 -39.983721 -1.67508
 1881 1   94.316733 -38.563789 -1.67508
 1882 1   95.553378 -37.865856 -1.67508
 1883 1   93.066194 -40.681654 -1.67508
 1884 1   91.843444 -39.959654 -1.67508
 1885 1   91.857339 -38.539722 -1.67508
 1886 1   93.093983 -37.841789 -1.67508
 1887 1   90.606799 -40.657587 -1.67508
 1888 1   89.384049 -39.935588 -1.67508
 1889 1   89.397944 -38.515656 -1.67508
 1890 1   90.634589 -37.817723 -1.67508
 1891 1   88.147405 -40.633520 -1.67508
 1892 1   86.924655 -39.911521 -1.67508
 1893 1   86.938550 -38.491589 -1.67508
 1894 1   88.175195 -37.793656 -1.67508
 1895 1   85.688010 -40.609454 -1.67508
 1896 1   84.465261 -39.887454 -1.67508
 1897 1   84.479155 -38.467522 -1.67508
 1898 1   85.715800 -37.769590 -1.67508
 1899 1   83.228616 -40.585387 -1.67508
 1900 1   82.005866 -39.863388 -1.67508
 1901 1   82.019761 -38.443456 -1.67508
 1902 1   83.256406 -37.745523 -1.67508
 1903 1   80.769222 -40.561320 -1.67508
 1904 1   79.546472 -39.839321 -1.67508
 1905 1   79.560367 -38.419389 -1.67508
 1906 1   80.797011 -37.721456 -1.67508
 1907 1   78.309827 -40.537254 -1.67508
 1908 1   77.087077 -39.815254 -1.67508
 1909 1   77.100972 -38.395322 -1.67508
 1910 1   78.337617 -37.697390 -1.67508
 1911 1   75.850433 -40.513187 -1.67508
 1912 1   74.627683 -39.791188 -1.67508
 1913 1   74.641578 -38.371256 -1.67508
 1914 1   75.878223 -37.673323 -1.67508
 1915 1   73.391038 -40.489120 -1.67508
 1916 1   72.168289 -39.767121 -1.67508
 1917 1   72.182183 -38.347189 -1.67508
 1918 1   73.418828 -37.649256 -1.67508
 1919 1   70.931644 -40.465054 -1.67508
 1920 1   69.708894 -39.743054 -1.67508
 1921 1   69.722789 -38.323122 -1.67508
 1922 1   70.959434 -37.625190 -1.67508
 1923 1   68.472250 -40.440987 -1.67508
 1924 1   67.249500 -39.718988 -1.67508
 1925 1   67.263395 -38.299056 -1.67508
 1926 1   68.500039 -37.601123 -1.67508
 1927 1   66.012855 -40.416920 -1.67508
 1928 1   64.790105 -39.694921 -1.67508
 1929 1   64.804000 -38.274989 -1.67508
 1930 1   66.040645 -37.577056 -1.67508
 1931 1   63.553461 -40.392854 -1.67508
 1932 1   62.330711 -39.670854 -1.67508
 1933 1   62.344606 -38.250922 -1.67508
 1934 1   63.581251 -37.552990 -1.67508
 1935 1   61.094066 -40.368787 -1.67508
 1936 1   59.871317 -39.646788 -1.67508
 1937 1   59.885212 -38.226856 -1.67508
 1938 1   61.121856 -37.528923 -1.67508
 1939 1   58.634672 -40.344720 -1.67508
 1940 1   57.411922 -39.622721 -1.67508
 1941 1   57.425817 -38.202789 -1.67508
 1942 1   58.662462 -37.504856 -1.67508
 1943 1   56.175278 -40.320654 -1.67508
 1944 1   54.952528 -39.598655 -1.67508
 1945 1   54.966423 -38.178723 -1.67508
 1946 1   56.203067 -37.480790 -1.67508
 1947 1   53.715883 -40.296587 -1.67508
 1948 1   52.493133 -39.574588 -1.67508
 1949 1   52.507028 -38.154656 -1.67508
 1950 1   53.743673 -37.456723 -1.67508
 1951 1   51.256489 -40.272521 -1.67508
 1952 1   50.033739 -39.550521 -1.67508
 1953 1   50.047634 -38.130589 -1.67508
 1954 1   51.284279 -37.432657 -1.67508
 1955 1   48.797094 -40.248454 -1.67508
 1956 1   47.574345 -39.526455 -1.67508
 1957 1   47.588240 -38.106523 -1.67508
 1958 1   48.824884 -37.408590 -1.67508
 1959 1   46.337700 -40.224387 -1.67508
 1960 1   45.114950 -39.502388 -1.67508
 1961 1   45.128845 -38.082456 -1.67508
 1962 1   46.365490 -37.384523 -1.67508
 1963 1   43.878306 -40.200321 -1.67508
 1964 1   42.655556 -39.478321 -1.67508
 1965 1   42.669451 -38.058389 -1.67508
 1966 1   43.906095 -37.360457 -1.67508
 1967 1   41.418911 -40.176254 -1.67508
 1968 1   40.196161 -39.454255 -1.67508
 1969 1   40.210056 -38.034323 -1.67508
 1970 1   41.446701 -37.336390 -1.67508
 1971 1   38.959517 -40.152187 -1.67508
 1972 1   37.736767 -39.430188 -1.67508
 1973 1   37.750662 -38.010256 -1.67508
 1974 1   38.987307 -37.312323 -1.67508
 1975 1   36.500122 -40.128121 -1.67508
 1976 1   35.277373 -39.406121 -1.67508
 1977 1   35.291268 -37.986189 -1.67508
 1978 1   36.527912 -37.288257 -1.67508
 1979 1   34.040728 -40.104054 -1.67508
 1980 1   32.817978 -39.382055 -1.67508
 1981 1   32.831873 -37.962123 -1.67508
 1982 1   34.068518 -37.264190 -1.67508
 1983 1   31.581334 -40.079987 -1.67508
 1984 1   30.358584 -39.357988 -1.67508
 1985 1   30.372479 -37.938056 -1.67508
 1986 1   31.609123 -37.240123 -1.67508
 1987 1   29.121939 -40.055921 -1.67508
 1988 1   27.899189 -39.333921 -1.67508
 1989 1   27.913084 -37.913989 -1.67508
 1990 1   29.149729 -37.216057 -1.67508
 1991 1   26.662545 -40.031854 -1.67508
 1992 1   25.439795 -39.309855 -1.67508
 1993 1   25.453690 -37.889923 -1.67508
 1994 1   26.690335 -37.191990 -1.67508
 1995 1   24.203150 -40.007787 -1.67508
 1996 1   22.980401 -39.285788 -1.67508
 1997 1   22.994296 -37.865856 -1.67508
 1998 1   24.230940 -37.167923 -1.67508
 1999 1   21.743756 -39.983721 -1.67508
 2000 1   20.521006 -39.261721 -1.67508
 2001 1   20.534901 -37.841789 -1.67508
 2002 1   21.771546 -37.143857 -1.67508
 2003 1   19.284362 -39.959654 -1.67508
 2004 1   18.061612 -39.237655 -1.67508
 2005 1   18.075507 -37.817723 -1.67508
 2006 1   19.312151 -37.119790 -1.67508
 2007 1   16.824967 -39.935588 -1.67508
 2008 1   15.602217 -39.213588 -1.67508
 2009 1   15.616112 -37.793656 -1.67508
 2010 1   16.852757 -37.095724 -1.67508
 2011 1   14.365573 -39.911521 -1.67508
 2012 1   13.142823 -39.189522 -1.67508
 2013 1   13.156718 -37.769590 -1.67508
 2014 1   14.393363 -37.071657 -1.67508
 2015 1   11.906178 -39.887454 -1.67508
 2016 1   10.683429 -39.165455 -1.67508
 2017 1   10.697324 -37.745523 -1.67508
 2018 1   11.933968 -37.047590 -1.67508
 2019 1    9.446784 -39.863388 -1.67508
 2020 1    8.224034 -39.141388 -1.67508
 2021 1    8.237929 -37.721456 -1.67508
 2022 1    9.474574 -37.023524 -1.67508
 2023 1    6.987390 -39.839321 -1.67508
 2024 1    5.764640 -39.117322 -1.67508
 2025 1    5.778535 -37.697390 -1.67508
 2026 1    7.015179 -36.999457 -1.67508
 2027 1    4.527995 -39.815254 -1.67508
 2028 1    3.305246 -39.093255 -1.67508
 2029 1    3.319140 -37.673323 -1.67508
 2030 1    4.555785 -36.975390 -1.67508
 2031 1    2.068601 -39.791188 -1.67508
 2032 1    0.845851 -39.069188 -1.67508
 2033 1    0.859746 -37.649256 -1.67508
 2034 1    2.096391 -36.951324 -1.67508
 2035 1   -0.390794 -39.767121 -1.67508
 2036 1   -1.613543 -39.045122 -1.67508
 2037 1   -1.599648 -37.625190 -1.67508
 2038 1   -0.363004 -36.927257 -1.67508
 2039 1   -2.850188 -39.743054 -1.67508
 2040 1   -4.072938 -39.021055 -1.67508
 2041 1   -4.059043 -37.601123 -1.67508
 2042 1   -2.822398 -36.903190 -1.67508
 2043 1   -5.309582 -39.718988 -1.67508
 2044 1   -6.532332 -38.996988 -1.67508
 2045 1   -6.518437 -37.577056 -1.67508
 2046 1   -5.281793 -36.879124 -1.67508
 2047 1   -7.768977 -39.694921 -1.67508
 2048 1   -8.991726 -38.972922 -1.67508
 2049 1   -8.977832 -37.552990 -1.67508
 2050 1   -7.741187 -36.855057 -1.67508
 2051 1  -10.228371 -39.670854 -1.67508
 2052 1  -11.451121 -38.948855 -1.67508
 2053 1  -11.437226 -37.528923 -1.67508
 2054 1  -10.200581 -36.830990 -1.67508
 2055 1  -12.687765 -39.646788 -1.67508
 2056 1  -13.910515 -38.924788 -1.67508
 2057 1  -13.896620 -37.504856 -1.67508
 2058 1  -12.659976 -36.806924 -1.67508
 2059 1  -15.147160 -39.622721 -1.67508
 2060 1  -16.369910 -38.900722 -1.67508
 2061 1  -16.356015 -37.480790 -1.67508
 2062 1  -15.119370 -36.782857 -1.67508
 2063 1  -17.606554 -39.598655 -1.67508
 2064 1  -18.829304 -38.876655 -1.67508
 2065 1  -18.815409 -37.456723 -1.67508
 2066 1  -17.578765 -36.758790 -1.67508
 2067 1  -20.065949 -39.574588 -1.67508
 2068 1  -21.288698 -38.852589 -1.67508
 2069 1  -21.274804 -37.432657 -1.67508
 2070 1  -20.038159 -36.734724 -1.67508
 2071 1  -22.525343 -39.550521 -1.67508
 2072 1  -23.748093 -38.828522 -1.67508
 2073 1  -23.734198 -37.408590 -1.67508
 2074 1  -22.497553 -36.710657 -1.67508
 2075 1  -24.984737 -39.526455 -1.67508
 2076 1  -26.207487 -38.804455 -1.67508
 2077 1  -26.193592 -37.384523 -1.67508
 2078 1  -24.956948 -36.686591 -1.67508
 2079 1  -27.444132 -39.502388 -1.67508
 2080 1  -28.666882 -38.780389 -1.67508
 2081 1  -28.652987 -37.360457 -1.67508
 2082 1  -27.416342 -36.662524 -1.67508
 2083 1  -29.903526 -39.478321 -1.67508
 2084 1  -31.126276 -38.756322 -1.67508
 2085 1  -31.112381 -37.336390 -1.67508
 2086 1  -29.875737 -36.638457 -1.67508
 2087 1  -32.362921 -39.454255 -1.67508
 2088 1  -33.585670 -38.732255 -1.67508
 2089 1  -33.571776 -37.312323 -1.67508
 2090 1  -32.335131 -36.614391 -1.67508
 2091 1  -34.822315 -39.430188 -1.67508
 2092 1  -36.045065 -38.708189 -1.67508
 2093 1  -36.031170 -37.288257 -1.67508
 2094 1  -34.794525 -36.590324 -1.67508
 2095 1  -37.281709 -39.406121 -1.67508
 2096 1  -38.504459 -38.684122 -1.67508
 2097 1  -38.490564 -37.264190 -1.67508
 2098 1  -37.253920 -36.566257 -1.67508
 2099 1  -39.741104 -39.382055 -1.67508
 2100 1  -40.963854 -38.660055 -1.67508
 2101 1  -40.949959 -37.240123 -1.67508
 2102 1  -39.713314 -36.542191 -1.67508
 2103 1  -42.200498 -39.357988 -1.67508
 2104 1  -43.423248 -38.635989 -1.67508
 2105 1  -43.409353 -37.216057 -1.67508
 2106 1  -42.172708 -36.518124 -1.67508
 2107 1  -44.659893 -39.333921 -1.67508
 2108 1  -45.882642 -38.611922 -1.67508
 2109 1  -45.868748 -37.191990 -1.67508
 2110 1  -44.632103 -36.494057 -1.67508
 2111 1  -47.119287 -39.309855 -1.67508
 2112 1  -48.342037 -38.587855 -1.67508
 2113 1  -48.328142 -37.167923 -1.67508
 2114 1  -47.091497 -36.469991 -1.67508
 2115 1  -49.578681 -39.285788 -1.67508
 2116 1  -50.801431 -38.563789 -1.67508
 2117 1  -50.787536 -37.143857 -1.67508
 2118 1  -49.550892 -36.445924 -1.67508
 2119 1  -52.038076 -39.261721 -1.67508
 2120 1  -53.260826 -38.539722 -1.67508
 2121 1  -53.246931 -37.119790 -1.67508
 2122 1  -52.010286 -36.421857 -1.67508
 2123 1  -54.497470 -39.237655 -1.67508
 2124 1  -55.720220 -38.515656 -1.67508
 2125 1  -55.706325 -37.095724 -1.67508
 2126 1  -54.469680 -36.397791 -1.67508
 2127 1  -56.956865 -39.213588 -1.67508
 2128 1  -58.179614 -38.491589 -1.67508
 2129 1  -58.165720 -37.071657 -1.67508
 2130 1  -56.929075 -36.373724 -1.67508
 2131 1  -59.416259 -39.189522 -1.67508
 2132 1  -60.639009 -38.467522 -1.67508
 2133 1  -60.625114 -37.047590 -1.67508
 2134 1  -59.388469 -36.349658 -1.67508
 2135 1  -61.875653 -39.165455 -1.67508
 2136 1  -63.098403 -38.443456 -1.67508
 2137 1  -63.084508 -37.023524 -1.67508
 2138 1  -61.847864 -36.325591 -1.67508
 2139 1  -64.335048 -39.141388 -1.67508
 2140 1  -65.557798 -38.419389 -1.67508
 2141 1  -65.543903 -36.999457 -1.67508
 2142 1  -64.307258 -36.301524 -1.67508
 2143 1  -66.794442 -39.117322 -1.67508
 2144 1  -68.017192 -38.395322 -1.67508
 2145 1  -68.003297 -36.975390 -1.67508
 2146 1  -66.766652 -36.277458 -1.67508
 2147 1  -69.253837 -39.093255 -1.67508
 2148 1  -70.476586 -38.371256 -1.67508
 2149 1  -70.462691 -36.951324 -1.67508
 2150 1  -69.226047 -36.253391 -1.67508
 2151 1  -71.713231 -39.069188 -1.67508
 2152 1  -72.935981 -38.347189 -1.67508
 2153 1  -72.922086 -36.927257 -1.67508
 2154 1  -71.685441 -36.229324 -1.67508
 2155 1  -74.172625 -39.045122 -1.67508
 2156 1  -75.395375 -38.323122 -1.67508
 2157 1  -75.381480 -36.903190 -1.67508
 2158 1  -74.144836 -36.205258 -1.67508
 2159 1  -76.632020 -39.021055 -1.67508
 2160 1  -77.854770 -38.299056 -1.67508
 2161 1  -77.840875 -36.879124 -1.67508
 2162 1  -76.604230 -36.181191 -1.67508
 2163 1  -79.091414 -38.996988 -1.67508
 2164 1  -80.314164 -38.274989 -1.67508
 2165 1  -80.300269 -36.855057 -1.67508
 2166 1  -79.063624 -36.157124 -1.67508
 2167 1  -81.550809 -38.972922 -1.67508
 2168 1  -82.773558 -38.250922 -1.67508
 2169 1  -82.759663 -36.830990 -1.67508
 2170 1  -81.523019 -36.133058 -1.67508
 2171 1  -84.010203 -38.948855 -1.67508
 2172 1  -85.232953 -38.226856 -1.67508
 2173 1  -85.219058 -36.806924 -1.67508
 2174 1  -83.982413 -36.108991 -1.67508
 2175 1  -86.469597 -38.924788 -1.67508
 2176 1  -87.692347 -38.202789 -1.67508
 2177 1  -87.678452 -36.782857 -1.67508
 2178 1  -86.441808 -36.084924 -1.67508
 2179 1  -88.928992 -38.900722 -1.67508
 2180 1  -90.151742 -38.178723 -1.67508
 2181 1  -90.137847 -36.758790 -1.67508
 2182 1  -88.901202 -36.060858 -1.67508
 2183 1  -91.388386 -38.876655 -1.67508
 2184 1  -92.611136 -38.154656 -1.67508
 2185 1  -92.597241 -36.734724 -1.67508
 2186 1  -91.360596 -36.036791 -1.67508
 2187 1  -93.847781 -38.852589 -1.67508
 2188 1  -95.070530 -38.130589 -1.67508
 2189 1  -95.056635 -36.710657 -1.67508
 2190 1  -93.819991 -36.012725 -1.67508
 2191 1  -96.307175 -38.828522 -1.67508
 2192 1  -97.529925 -38.106523 -1.67508
 2193 1  -97.516030 -36.686591 -1.67508
 2194 1  -96.279385 -35.988658 -1.67508
 2195 1  -98.766569 -38.804455 -1.67508
 2196 1  -99.989319 -38.082456 -1.67508
 2197 1  -99.975424 -36.662524 -1.67508
 2198 1  -98.738780 -35.964591 -1.67508
 2199 1 -101.225964 -38.780389 -1.67508
 2200 1 -102.448714 -38.058389 -1.67508
 2201 1 -102.434819 -36.638457 -1.67508
 2202 1 -101.198174 -35.940525 -1.67508
 2203 1 -103.685358 -38.756322 -1.67508
 2204 1 -104.908108 -38.034323 -1.67508
 2205 1 -104.894213 -36.614391 -1.67508
 2206 1 -103.657568 -35.916458 -1.67508
 2207 1 -106.144753 -38.732255 -1.67508
 2208 1 -107.367502 -38.010256 -1.67508
 2209 1 -107.353607 -36.590324 -1.67508
 2210 1 -106.116963 -35.892391 -1.67508
 2211 1 -108.604147 -38.708189 -1.67508
 2212 1 -108.576357 -35.868325 -1.67508
 2213 1  107.864245 -36.566257 -1.67508
 2214 1  106.641495 -35.844258 -1.67508
 2215 1  106.655390 -34.424326 -1.67508
 2216 1  107.892034 -33.726393 -1.67508
 2217 1  105.404850 -36.542191 -1.67508
 2218 1  104.182100 -35.820191 -1.67508
 2219 1  104.195995 -34.400259 -1.67508
 2220 1  105.432640 -33.702327 -1.67508
 2221 1  102.945456 -36.518124 -1.67508
 2222 1  101.722706 -35.796125 -1.67508
 2223 1  101.736601 -34.376193 -1.67508
 2224 1  102.973246 -33.678260 -1.67508
 2225 1  100.486061 -36.494057 -1.67508
 2226 1   99.263312 -35.772058 -1.67508
 2227 1   99.277207 -34.352126 -1.67508
 2228 1  100.513851 -33.654193 -1.67508
 2229 1   98.026667 -36.469991 -1.67508
 2230 1   96.803917 -35.747991 -1.67508
 2231 1   96.817812 -34.328059 -1.67508
 2232 1   98.054457 -33.630127 -1.67508
 2233 1   95.567273 -36.445924 -1.67508
 2234 1   94.344523 -35.723925 -1.67508
 2235 1   94.358418 -34.303993 -1.67508
 2236 1   95.595062 -33.606060 -1.67508
 2237 1   93.107878 -36.421857 -1.67508
 2238 1   91.885128 -35.699858 -1.67508
 2239 1   91.899023 -34.279926 -1.67508
 2240 1   93.135668 -33.581993 -1.67508
 2241 1   90.648484 -36.397791 -1.67508
 2242 1   89.425734 -35.675791 -1.67508
 2243 1   89.439629 -34.255859 -1.67508
 2244 1   90.676274 -33.557927 -1.67508
 2245 1   88.189089 -36.373724 -1.67508
 2246 1   86.966340 -35.651725 -1.67508
 2247 1   86.980235 -34.231793 -1.67508
 2248 1   88.216879 -33.533860 -1.67508
 2249 1   85.729695 -36.349658 -1.67508
 2250 1   84.506945 -35.627658 -1.67508
 2251 1   84.520840 -34.207726 -1.67508
 2252 1   85.757485 -33.509793 -1.67508
 2253 1   83.270301 -36.325591 -1.67508
 2254 1   82.047551 -35.603592 -1.67508
 2255 1   82.061446 -34.183660 -1.67508
 2256 1   83.298090 -33.485727 -1.67508
 2257 1   80.810906 -36.301524 -1.67508
 2258 1   79.588156 -35.579525 -1.67508
 2259 1   79.602051 -34.159593 -1.67508
 2260 1   80.838696 -33.461660 -1.67508
 2261 1   78.351512 -36.277458 -1.67508
 2262 1   77.128762 -35.555458 -1.67508
 2263 1   77.142657 -34.135526 -1.67508
 2264 1   78.379302 -33.437594 -1.67508
 2265 1   75.892117 -36.253391 -1.67508
 2266 1   74.669368 -35.531392 -1.67508
 2267 1   74.683263 -34.111460 -1.67508
 2268 1   75.919907 -33.413527 -1.67508
 2269 1   73.432723 -36.229324 -1.67508
 2270 1   72.209973 -35.507325 -1.67508
 2271 1   72.223868 -34.087393 -1.67508
 2272 1   73.460513 -33.389460 -1.67508
 2273 1   70.973329 -36.205258 -1.67508
 2274 1   69.750579 -35.483258 -1.67508
 2275 1   69.764474 -34.063326 -1.67508
 2276 1   71.001118 -33.365394 -1.67508
 2277 1   68.513934 -36.181191 -1.67508
 2278 1   67.291184 -35.459192 -1.67508
 2279 1   67.305079 -34.039260 -1.67508
 2280 1   68.541724 -33.341327 -1.67508
 2281 1   66.054540 -36.157124 -1.67508
 2282 1   64.831790 -35.435125 -1.67508
 2283 1   64.845685 -34.015193 -1.67508
 2284 1   66.082330 -33.317260 -1.67508
 2285 1   63.595145 -36.133058 -1.67508
 2286 1   62.372396 -35.411058 -1.67508
 2287 1   62.386291 -33.991126 -1.67508
 2288 1   63.622935 -33.293194 -1.67508
 2289 1   61.135751 -36.108991 -1.67508
 2290 1   59.913001 -35.386992 -1.67508
 2291 1   59.926896 -33.967060 -1.67508
 2292 1   61.163541 -33.269127 -1.67508
 2293 1   58.676357 -36.084924 -1.67508
 2294 1   57.453607 -35.362925 -1.67508
 2295 1   57.467502 -33.942993 -1.67508
 2296 1   58.704146 -33.245060 -1.67508
 2297 1   56.216962 -36.060858 -1.67508
 2298 1   54.994212 -35.338858 -1.67508
 2299 1   55.008107 -33.918926 -1.67508
 2300 1   56.244752 -33.220994 -1.67508
 2301 1   53.757568 -36.036791 -1.67508
 2302 1   52.534818 -35.314792 -1.67508
 2303 1   52.548713 -33.894860 -1.67508
 2304 1   53.785358 -33.196927 -1.67508
 2305 1   51.298173 -36.012725 -1.67508
 2306 1   50.075424 -35.290725 -1.67508
 2307 1   50.089319 -33.870793 -1.67508
 2308 1   51.325963 -33.172860 -1.67508
 2309 1   48.838779 -35.988658 -1.67508
 2310 1   47.616029 -35.266659 -1.67508
 2311 1   47.629924 -33.846727 -1.67508
 2312 1   48.866569 -33.148794 -1.67508
 2313 1   46.379385 -35.964591 -1.67508
 2314 1   45.156635 -35.242592 -1.67508
 2315 1   45.170530 -33.822660 -1.67508
 2316 1   46.407174 -33.124727 -1.67508
 2317 1   43.919990 -35.940525 -1.67508
 2318 1   42.697241 -35.218525 -1.67508
 2319 1   42.711135 -33.798593 -1.67508
 2320 1   43.947780 -33.100661 -1.67508
 2321 1   41.460596 -35.916458 -1.67508
 2322 1   40.237846 -35.194459 -1.67508
 2323 1   40.251741 -33.774527 -1.67508
 2324 1   41.488386 -33.076594 -1.67508
 2325 1   39.001201 -35.892391 -1.67508
 2326 1   37.778452 -35.170392 -1.67508
 2327 1   37.792347 -33.750460 -1.67508
 2328 1   39.028991 -33.052527 -1.67508
 2329 1   36.541807 -35.868325 -1.67508
 2330 1   35.319057 -35.146325 -1.67508
 2331 1   35.332952 -33.726393 -1.67508
 2332 1   36.569597 -33.028461 -1.67508
 2333 1   34.082413 -35.844258 -1.67508
 2334 1   32.859663 -35.122259 -1.67508
 2335 1   32.873558 -33.702327 -1.67508
 2336 1   34.110202 -33.004394 -1.67508
 2337 1   31.623018 -35.820191 -1.67508
 2338 1   30.400269 -35.098192 -1.67508
 2339 1   30.414163 -33.678260 -1.67508
 2340 1   31.650808 -32.980327 -1.67508
 2341 1   29.163624 -35.796125 -1.67508
 2342 1   27.940874 -35.074125 -1.67508
 2343 1   27.954769 -33.654193 -1.67508
 2344 1   29.191414 -32.956261 -1.67508
 2345 1   26.704229 -35.772058 -1.67508
 2346 1   25.481480 -35.050059 -1.67508
 2347 1   25.495375 -33.630127 -1.67508
 2348 1   26.732019 -32.932194 -1.67508
 2349 1   24.244835 -35.747991 -1.67508
 2350 1   23.022085 -35.025992 -1.67508
 2351 1   23.035980 -33.606060 -1.67508
 2352 1   24.272625 -32.908127 -1.67508
 2353 1   21.785441 -35.723925 -1.67508
 2354 1   20.562691 -35.001925 -1.67508
 2355 1   20.576586 -33.581993 -1.67508
 2356 1   21.813230 -32.884061 -1.67508
 2357 1   19.326046 -35.699858 -1.67508
 2358 1   18.103297 -34.977859 -1.67508
 2359 1   18.117191 -33.557927 -1.67508
 2360 1   19.353836 -32.859994 -1.67508
 2361 1   16.866652 -35.675791 -1.67508
 2362 1   15.643902 -34.953792 -1.67508
 2363 1   15.657797 -33.533860 -1.67508
 2364 1   16.894442 -32.835927 -1.67508
 2365 1   14.407258 -35.651725 -1.67508
 2366 1   13.184508 -34.929726 -1.67508
 2367 1   13.198403 -33.509793 -1.67508
 2368 1   14.435047 -32.811861 -1.67508
 2369 1   11.947863 -35.627658 -1.67508
 2370 1   10.725113 -34.905659 -1.67508
 2371 1   10.739008 -33.485727 -1.67508
 2372 1   11.975653 -32.787794 -1.67508
 2373 1    9.488469 -35.603592 -1.67508
 2374 1    8.265719 -34.881592 -1.67508
 2375 1    8.279614 -33.461660 -1.67508
 2376 1    9.516258 -32.763728 -1.67508
 2377 1    7.029074 -35.579525 -1.67508
 2378 1    5.806325 -34.857526 -1.67508
 2379 1    5.820219 -33.437594 -1.67508
 2380 1    7.056864 -32.739661 -1.67508
 2381 1    4.569680 -35.555458 -1.67508
 2382 1    3.346930 -34.833459 -1.67508
 2383 1    3.360825 -33.413527 -1.67508
 2384 1    4.597470 -32.715594 -1.67508
 2385 1    2.110286 -35.531392 -1.67508
 2386 1    0.887536 -34.809392 -1.67508
 2387 1    0.901431 -33.389460 -1.67508
 2388 1    2.138075 -32.691528 -1.67508
 2389 1   -0.349109 -35.507325 -1.67508
 2390 1   -1.571859 -34.785326 -1.67508
 2391 1   -1.557964 -33.365394 -1.67508
 2392 1   -0.321319 -32.667461 -1.67508
 2393 1   -2.808503 -35.483258 -1.67508
 2394 1   -4.031253 -34.761259 -1.67508
 2395 1   -4.017358 -33.341327 -1.67508
 2396 1   -2.780713 -32.643394 -1.67508
 2397 1   -5.267898 -35.459192 -1.67508
 2398 1   -6.490647 -34.737192 -1.67508
 2399 1   -6.476753 -33.317260 -1.67508
 2400 1   -5.240108 -32.619328 -1.67508
 2401 1   -7.727292 -35.435125 -1.67508
 2402 1   -8.950042 -34.713126 -1.67508
 2403 1   -8.936147 -33.293194 -1.67508
 2404 1   -7.699502 -32.595261 -1.67508
 2405 1  -10.186686 -35.411058 -1.67508
 2406 1  -11.409436 -34.689059 -1.67508
 2407 1  -11.395541 -33.269127 -1.67508
 2408 1  -10.158897 -32.571194 -1.67508
 2409 1  -12.646081 -35.386992 -1.67508
 2410 1  -13.868831 -34.664992 -1.67508
 2411 1  -13.854936 -33.245060 -1.67508
 2412 1  -12.618291 -32.547128 -1.67508
 2413 1  -15.105475 -35.362925 -1.67508
 2414 1  -16.328225 -34.640926 -1.67508
 2415 1  -16.314330 -33.220994 -1.67508
 2416 1  -15.077685 -32.523061 -1.67508
 2417 1  -17.564870 -35.338858 -1.67508
 2418 1  -18.787619 -34.616859 -1.67508
 2419 1  -18.773725 -33.196927 -1.67508
 2420 1  -17.537080 -32.498994 -1.67508
 2421 1  -20.024264 -35.314792 -1.67508
 2422 1  -21.247014 -34.592792 -1.67508
 2423 1  -21.233119 -33.172860 -1.67508
 2424 1  -19.996474 -32.474928 -1.67508
 2425 1  -22.483658 -35.290725 -1.67508
 2426 1  -23.706408 -34.568726 -1.67508
 2427 1  -23.692513 -33.148794 -1.67508
 2428 1  -22.455869 -32.450861 -1.67508
 2429 1  -24.943053 -35.266659 -1.67508
 2430 1  -26.165803 -34.544659 -1.67508
 2431 1  -26.151908 -33.124727 -1.67508
 2432 1  -24.915263 -32.426795 -1.67508
 2433 1  -27.402447 -35.242592 -1.67508
 2434 1  -28.625197 -34.520593 -1.67508
 2435 1  -28.611302 -33.100661 -1.67508
 2436 1  -27.374657 -32.402728 -1.67508
 2437 1  -29.861842 -35.218525 -1.67508
 2438 1  -31.084591 -34.496526 -1.67508
 2439 1  -31.070696 -33.076594 -1.67508
 2440 1  -29.834052 -32.378661 -1.67508
 2441 1  -32.321236 -35.194459 -1.67508
 2442 1  -33.543986 -34.472459 -1.67508
 2443 1  -33.530091 -33.052527 -1.67508
 2444 1  -32.293446 -32.354595 -1.67508
 2445 1  -34.780630 -35.170392 -1.67508
 2446 1  -36.003380 -34.448393 -1.67508
 2447 1  -35.989485 -33.028461 -1.67508
 2448 1  -34.752841 -32.330528 -1.67508
 2449 1  -37.240025 -35.146325 -1.67508
 2450 1  -38.462775 -34.424326 -1.67508
 2451 1  -38.448880 -33.004394 -1.67508
 2452 1  -37.212235 -32.306461 -1.67508
 2453 1  -39.699419 -35.122259 -1.67508
 2454 1  -40.922169 -34.400259 -1.67508
 2455 1  -40.908274 -32.980327 -1.67508
 2456 1  -39.671629 -32.282395 -1.67508
 2457 1  -42.158814 -35.098192 -1.67508
 2458 1  -43.381563 -34.376193 -1.67508
 2459 1  -43.367668 -32.956261 -1.67508
 2460 1  -42.131024 -32.258328 -1.67508
 2461 1  -44.618208 -35.074125 -1.67508
 2462 1  -45.840958 -34.352126 -1.67508
 2463 1  -45.827063 -32.932194 -1.67508
 2464 1  -44.590418 -32.234261 -1.67508
 2465 1  -47.077602 -35.050059 -1.67508
 2466 1  -48.300352 -34.328059 -1.67508
 2467 1  -48.286457 -32.908127 -1.67508
 2468 1  -47.049813 -32.210195 -1.67508
 2469 1  -49.536997 -35.025992 -1.67508
 2470 1  -50.759747 -34.303993 -1.67508
 2471 1  -50.745852 -32.884061 -1.67508
 2472 1  -49.509207 -32.186128 -1.67508
 2473 1  -51.996391 -35.001925 -1.67508
 2474 1  -53.219141 -34.279926 -1.67508
 2475 1  -53.205246 -32.859994 -1.67508
 2476 1  -51.968601 -32.162061 -1.67508
 2477 1  -54.455786 -34.977859 -1.67508
 2478 1  -55.678535 -34.255859 -1.67508
 2479 1  -55.664640 -32.835927 -1.67508
 2480 1  -54.427996 -32.137995 -1.67508
 2481 1  -56.915180 -34.953792 -1.67508
 2482 1  -58.137930 -34.231793 -1.67508
 2483 1  -58.124035 -32.811861 -1.67508
 2484 1  -56.887390 -32.113928 -1.67508
 2485 1  -59.374574 -34.929726 -1.67508
 2486 1  -60.597324 -34.207726 -1.67508
 2487 1  -60.583429 -32.787794 -1.67508
 2488 1  -59.346785 -32.089861 -1.67508
 2489 1  -61.833969 -34.905659 -1.67508
 2490 1  -63.056719 -34.183660 -1.67508
 2491 1  -63.042824 -32.763728 -1.67508
 2492 1  -61.806179 -32.065795 -1.67508
 2493 1  -64.293363 -34.881592 -1.67508
 2494 1  -65.516113 -34.159593 -1.67508
 2495 1  -65.502218 -32.739661 -1.67508
 2496 1  -64.265573 -32.041728 -1.67508
 2497 1  -66.752758 -34.857526 -1.67508
 2498 1  -67.975507 -34.135526 -1.67508
 2499 1  -67.961612 -32.715594 -1.67508
 2500 1  -66.724968 -32.017662 -1.67508
 2501 1  -69.212152 -34.833459 -1.67508
 2502 1  -70.434902 -34.111460 -1.67508
 2503 1  -70.421007 -32.691528 -1.67508
 2504 1  -69.184362 -31.993595 -1.67508
 2505 1  -71.671546 -34.809392 -1.67508
 2506 1  -72.894296 -34.087393 -1.67508
 2507 1  -72.880401 -32.667461 -1.67508
 2508 1  -71.643757 -31.969528 -1.67508
 2509 1  -74.130941 -34.785326 -1.67508
 2510 1  -75.353691 -34.063326 -1.67508
 2511 1  -75.339796 -32.643394 -1.67508
 2512 1  -74.103151 -31.945462 -1.67508
 2513 1  -76.590335 -34.761259 -1.67508
 2514 1  -77.813085 -34.039260 -1.67508
 2515 1  -77.799190 -32.619328 -1.67508
 2516 1  -76.562545 -31.921395 -1.67508
 2517 1  -79.049730 -34.737192 -1.67508
 2518 1  -80.272479 -34.015193 -1.67508
 2519 1  -80.258584 -32.595261 -1.67508
 2520 1  -79.021940 -31.897328 -1.67508
 2521 1  -81.509124 -34.713126 -1.67508
 2522 1  -82.731874 -33.991126 -1.67508
 2523 1  -82.717979 -32.571194 -1.67508
 2524 1  -81.481334 -31.873262 -1.67508
 2525 1  -83.968518 -34.689059 -1.67508
 2526 1  -85.191268 -33.967060 -1.67508
 2527 1  -85.177373 -32.547128 -1.67508
 2528 1  -83.940729 -31.849195 -1.67508
 2529 1  -86.427913 -34.664992 -1.67508
 2530 1  -87.650662 -33.942993 -1.67508
 2531 1  -87.636768 -32.523061 -1.67508
 2532 1  -86.400123 -31.825128 -1.67508
 2533 1  -88.887307 -34.640926 -1.67508
 2534 1  -90.110057 -33.918926 -1.67508
 2535 1  -90.096162 -32.498994 -1.67508
 2536 1  -88.859517 -31.801062 -1.67508
 2537 1  -91.346702 -34.616859 -1.67508
 2538 1  -92.569451 -33.894860 -1.67508
 2539 1  -92.555556 -32.474928 -1.67508
 2540 1  -91.318912 -31.776995 -1.67508
 2541 1  -93.806096 -34.592792 -1.67508
 2542 1  -95.028846 -33.870793 -1.67508
 2543 1  -95.014951 -32.450861 -1.67508
 2544 1  -93.778306 -31.752928 -1.67508
 2545 1  -96.265490 -34.568726 -1.67508
 2546 1  -97.488240 -33.846727 -1.67508
 2547 1  -97.474345 -32.426795 -1.67508
 2548 1  -96.237701 -31.728862 -1.67508
 2549 1  -98.724885 -34.544659 -1.67508
 2550 1  -99.947634 -33.822660 -1.67508
 2551 1  -99.933740 -32.402728 -1.67508
 2552 1  -98.697095 -31.704795 -1.67508
 2553 1 -101.184279 -34.520593 -1.67508
 2554 1 -102.407029 -33.798593 -1.67508
 2555 1 -102.393134 -32.378661 -1.67508
 2556 1 -101.156489 -31.680729 -1.67508
 2557 1 -103.643674 -34.496526 -1.67508
 2558 1 -104.866423 -33.774527 -1.67508
 2559 1 -104.852528 -32.354595 -1.67508
 2560 1 -103.615884 -31.656662 -1.67508
 2561 1 -106.103068 -34.472459 -1.67508
 2562 1 -107.325818 -33.750460 -1.67508
 2563 1 -107.311923 -32.330528 -1.67508
 2564 1 -106.075278 -31.632595 -1.67508
 2565 1 -108.562462 -34.448393 -1.67508
 2566 1 -108.534673 -31.608529 -1.67508
 2567 1  107.905929 -32.306461 -1.67508
 2568 1  106.683179 -31.584462 -1.67508
 2569 1  106.697074 -30.164530 -1.67508
 2570 1  107.933719 -29.466597 -1.67508
 2571 1  105.446535 -32.282395 -1.67508
 2572 1  104.223785 -31.560395 -1.67508
 2573 1  104.237680 -30.140463 -1.67508
 2574 1  105.474325 -29.442531 -1.67508
 2575 1  102.987140 -32.258328 -1.67508
 2576 1  101.764391 -31.536329 -1.67508
 2577 1  101.778286 -30.116397 -1.67508
 2578 1  103.014930 -29.418464 -1.67508
 2579 1  100.527746 -32.234261 -1.67508
 2580 1   99.304996 -31.512262 -1.67508
 2581 1   99.318891 -30.092330 -1.67508
 2582 1  100.555536 -29.394397 -1.67508
 2583 1   98.068352 -32.210195 -1.67508
 2584 1   96.845602 -31.488195 -1.67508
 2585 1   96.859497 -30.068263 -1.67508
 2586 1   98.096141 -29.370331 -1.67508
 2587 1   95.608957 -32.186128 -1.67508
 2588 1   94.386207 -31.464129 -1.67508
 2589 1   94.400102 -30.044197 -1.67508
 2590 1   95.636747 -29.346264 -1.67508
 2591 1   93.149563 -32.162061 -1.67508
 2592 1   91.926813 -31.440062 -1.67508
 2593 1   91.940708 -30.020130 -1.67508
 2594 1   93.177353 -29.322197 -1.67508
 2595 1   90.690168 -32.137995 -1.67508
 2596 1   89.467419 -31.415995 -1.67508
 2597 1   89.481314 -29.996063 -1.67508
 2598 1   90.717958 -29.298131 -1.67508
 2599 1   88.230774 -32.113928 -1.67508
 2600 1   87.008024 -31.391929 -1.67508
 2601 1   87.021919 -29.971997 -1.67508
 2602 1   88.258564 -29.274064 -1.67508
 2603 1   85.771380 -32.089861 -1.67508
 2604 1   84.548630 -31.367862 -1.67508
 2605 1   84.562525 -29.947930 -1.67508
 2606 1   85.799169 -29.249997 -1.67508
 2607 1   83.311985 -32.065795 -1.67508
 2608 1   82.089236 -31.343796 -1.67508
 2609 1   82.103130 -29.923863 -1.67508
 2610 1   83.339775 -29.225931 -1.67508
 2611 1   80.852591 -32.041728 -1.67508
 2612 1   79.629841 -31.319729 -1.67508
 2613 1   79.643736 -29.899797 -1.67508
 2614 1   80.880381 -29.201864 -1.67508
 2615 1   78.393196 -32.017662 -1.67508
 2616 1   77.170447 -31.295662 -1.67508
 2617 1   77.184342 -29.875730 -1.67508
 2618 1   78.420986 -29.177798 -1.67508
 2619 1   75.933802 -31.993595 -1.67508
 2620 1   74.711052 -31.271596 -1.67508
 2621 1   74.724947 -29.851664 -1.67508
 2622 1   75.961592 -29.153731 -1.67508
 2623 1   73.474408 -31.969528 -1.67508
 2624 1   72.251658 -31.247529 -1.67508
 2625 1   72.265553 -29.827597 -1.67508
 2626 1   73.502197 -29.129664 -1.67508
 2627 1   71.015013 -31.945462 -1.67508
 2628 1   69.792264 -31.223462 -1.67508
 2629 1   69.806158 -29.803530 -1.67508
 2630 1   71.042803 -29.105598 -1.67508
 2631 1   68.555619 -31.921395 -1.67508
 2632 1   67.332869 -31.199396 -1.67508
 2633 1   67.346764 -29.779464 -1.67508
 2634 1   68.583409 -29.081531 -1.67508
 2635 1   66.096224 -31.897328 -1.67508
 2636 1   64.873475 -31.175329 -1.67508
 2637 1   64.887370 -29.755397 -1.67508
 2638 1   66.124014 -29.057464 -1.67508
 2639 1   63.636830 -31.873262 -1.67508
 2640 1   62.414080 -31.151262 -1.67508
 2641 1   62.427975 -29.731330 -1.67508
 2642 1   63.664620 -29.033398 -1.67508
 2643 1   61.177436 -31.849195 -1.67508
 2644 1   59.954686 -31.127196 -1.67508
 2645 1   59.968581 -29.707264 -1.67508
 2646 1   61.205225 -29.009331 -1.67508
 2647 1   58.718041 -31.825128 -1.67508
 2648 1   57.495292 -31.103129 -1.67508
 2649 1   57.509186 -29.683197 -1.67508
 2650 1   58.745831 -28.985264 -1.67508
 2651 1   56.258647 -31.801062 -1.67508
 2652 1   55.035897 -31.079062 -1.67508
 2653 1   55.049792 -29.659130 -1.67508
 2654 1   56.286437 -28.961198 -1.67508
 2655 1   53.799253 -31.776995 -1.67508
 2656 1   52.576503 -31.054996 -1.67508
 2657 1   52.590398 -29.635064 -1.67508
 2658 1   53.827042 -28.937131 -1.67508
 2659 1   51.339858 -31.752928 -1.67508
 2660 1   50.117108 -31.030929 -1.67508
 2661 1   50.131003 -29.610997 -1.67508
 2662 1   51.367648 -28.913064 -1.67508
 2663 1   48.880464 -31.728862 -1.67508
 2664 1   47.657714 -31.006862 -1.67508
 2665 1   47.671609 -29.586930 -1.67508
 2666 1   48.908253 -28.888998 -1.67508
 2667 1   46.421069 -31.704795 -1.67508
 2668 1   45.198320 -30.982796 -1.67508
 2669 1   45.212214 -29.562864 -1.67508
 2670 1   46.448859 -28.864931 -1.67508
 2671 1   43.961675 -31.680729 -1.67508
 2672 1   42.738925 -30.958729 -1.67508
 2673 1   42.752820 -29.538797 -1.67508
 2674 1   43.989465 -28.840864 -1.67508
 2675 1   41.502281 -31.656662 -1.67508
 2676 1   40.279531 -30.934663 -1.67508
 2677 1   40.293426 -29.514731 -1.67508
 2678 1   41.530070 -28.816798 -1.67508
 2679 1   39.042886 -31.632595 -1.67508
 2680 1   37.820136 -30.910596 -1.67508
 2681 1   37.834031 -29.490664 -1.67508
 2682 1   39.070676 -28.792731 -1.67508
 2683 1   36.583492 -31.608529 -1.67508
 2684 1   35.360742 -30.886529 -1.67508
 2685 1   35.374637 -29.466597 -1.67508
 2686 1   36.611281 -28.768665 -1.67508
 2687 1   34.124097 -31.584462 -1.67508
 2688 1   32.901348 -30.862463 -1.67508
 2689 1   32.915242 -29.442531 -1.67508
 2690 1   34.151887 -28.744598 -1.67508
 2691 1   31.664703 -31.560395 -1.67508
 2692 1   30.441953 -30.838396 -1.67508
 2693 1   30.455848 -29.418464 -1.67508
 2694 1   31.692493 -28.720531 -1.67508
 2695 1   29.205309 -31.536329 -1.67508
 2696 1   27.982559 -30.814329 -1.67508
 2697 1   27.996454 -29.394397 -1.67508
 2698 1   29.233098 -28.696465 -1.67508
 2699 1   26.745914 -31.512262 -1.67508
 2700 1   25.523164 -30.790263 -1.67508
 2701 1   25.537059 -29.370331 -1.67508
 2702 1   26.773704 -28.672398 -1.67508
 2703 1   24.286520 -31.488195 -1.67508
 2704 1   23.063770 -30.766196 -1.67508
 2705 1   23.077665 -29.346264 -1.67508
 2706 1   24.314310 -28.648331 -1.67508
 2707 1   21.827125 -31.464129 -1.67508
 2708 1   20.604376 -30.742129 -1.67508
 2709 1   20.618270 -29.322197 -1.67508
 2710 1   21.854915 -28.624265 -1.67508
 2711 1   19.367731 -31.440062 -1.67508
 2712 1   18.144981 -30.718063 -1.67508
 2713 1   18.158876 -29.298131 -1.67508
 2714 1   19.395521 -28.600198 -1.67508
 2715 1   16.908337 -31.415995 -1.67508
 2716 1   15.685587 -30.693996 -1.67508
 2717 1   15.699482 -29.274064 -1.67508
 2718 1   16.936126 -28.576131 -1.67508
 2719 1   14.448942 -31.391929 -1.67508
 2720 1   13.226192 -30.669929 -1.67508
 2721 1   13.240087 -29.249997 -1.67508
 2722 1   14.476732 -28.552065 -1.67508
 2723 1   11.989548 -31.367862 -1.67508
 2724 1   10.766798 -30.645863 -1.67508
 2725 1   10.780693 -29.225931 -1.67508
 2726 1   12.017338 -28.527998 -1.67508
 2727 1    9.530153 -31.343796 -1.67508
 2728 1    8.307404 -30.621796 -1.67508
 2729 1    8.321298 -29.201864 -1.67508
 2730 1    9.557943 -28.503931 -1.67508
 2731 1    7.070759 -31.319729 -1.67508
 2732 1    5.848009 -30.597730 -1.67508
 2733 1    5.861904 -29.177798 -1.67508
 2734 1    7.098549 -28.479865 -1.67508
 2735 1    4.611365 -31.295662 -1.67508
 2736 1    3.388615 -30.573663 -1.67508
 2737 1    3.402510 -29.153731 -1.67508
 2738 1    4.639154 -28.455798 -1.67508
 2739 1    2.151970 -31.271596 -1.67508
 2740 1    0.929220 -30.549596 -1.67508
 2741 1    0.943115 -29.129664 -1.67508
 2742 1    2.179760 -28.431732 -1.67508
 2743 1   -0.307424 -31.247529 -1.67508
 2744 1   -1.530174 -30.525530 -1.67508
 2745 1   -1.516279 -29.105598 -1.67508
 2746 1   -0.279634 -28.407665 -1.67508
 2747 1   -2.766819 -31.223462 -1.67508
 2748 1   -3.989568 -30.501463 -1.67508
 2749 1   -3.975673 -29.081531 -1.67508
 2750 1   -2.739029 -28.383598 -1.67508
 2751 1   -5.226213 -31.199396 -1.67508
 2752 1   -6.448963 -30.477396 -1.67508
 2753 1   -6.435068 -29.057464 -1.67508
 2754 1   -5.198423 -28.359532 -1.67508
 2755 1   -7.685607 -31.175329 -1.67508
 2756 1   -8.908357 -30.453330 -1.67508
 2757 1   -8.894462 -29.033398 -1.67508
 2758 1   -7.657818 -28.335465 -1.67508
 2759 1  -10.145002 -31.151262 -1.67508
 2760 1  -11.367752 -30.429263 -1.67508
 2761 1  -11.353857 -29.009331 -1.67508
 2762 1  -10.117212 -28.311398 -1.67508
 2763 1  -12.604396 -31.127196 -1.67508
 2764 1  -13.827146 -30.405196 -1.67508
 2765 1  -13.813251 -28.985264 -1.67508
 2766 1  -12.576606 -28.287332 -1.67508
 2767 1  -15.063791 -31.103129 -1.67508
 2768 1  -16.286540 -30.381130 -1.67508
 2769 1  -16.272645 -28.961198 -1.67508
 2770 1  -15.036001 -28.263265 -1.67508
 2771 1  -17.523185 -31.079062 -1.67508
 2772 1  -18.745935 -30.357063 -1.67508
 2773 1  -18.732040 -28.937131 -1.67508
 2774 1  -17.495395 -28.239198 -1.67508
 2775 1  -19.982579 -31.054996 -1.67508
 2776 1  -21.205329 -30.332996 -1.67508
 2777 1  -21.191434 -28.913064 -1.67508
 2778 1  -19.954790 -28.215132 -1.67508
 2779 1  -22.441974 -31.030929 -1.67508
 2780 1  -23.664724 -30.308930 -1.67508
 2781 1  -23.650829 -28.888998 -1.67508
 2782 1  -22.414184 -28.191065 -1.67508
 2783 1  -24.901368 -31.006862 -1.67508
 2784 1  -26.124118 -30.284863 -1.67508
 2785 1  -26.110223 -28.864931 -1.67508
 2786 1  -24.873578 -28.166998 -1.67508
 2787 1  -27.360763 -30.982796 -1.67508
 2788 1  -28.583512 -30.260797 -1.67508
 2789 1  -28.569617 -28.840864 -1.67508
 2790 1  -27.332973 -28.142932 -1.67508
 2791 1  -29.820157 -30.958729 -1.67508
 2792 1  -31.042907 -30.236730 -1.67508
 2793 1  -31.029012 -28.816798 -1.67508
 2794 1  -29.792367 -28.118865 -1.67508
 2795 1  -32.279551 -30.934663 -1.67508
 2796 1  -33.502301 -30.212663 -1.67508
 2797 1  -33.488406 -28.792731 -1.67508
 2798 1  -32.251762 -28.094799 -1.67508
 2799 1  -34.738946 -30.910596 -1.67508
 2800 1  -35.961696 -30.188597 -1.67508
 2801 1  -35.947801 -28.768665 -1.67508
 2802 1  -34.711156 -28.070732 -1.67508
 2803 1  -37.198340 -30.886529 -1.67508
 2804 1  -38.421090 -30.164530 -1.67508
 2805 1  -38.407195 -28.744598 -1.67508
 2806 1  -37.170550 -28.046665 -1.67508
 2807 1  -39.657735 -30.862463 -1.67508
 2808 1  -40.880484 -30.140463 -1.67508
 2809 1  -40.866589 -28.720531 -1.67508
 2810 1  -39.629945 -28.022599 -1.67508
 2811 1  -42.117129 -30.838396 -1.67508
 2812 1  -43.339879 -30.116397 -1.67508
 2813 1  -43.325984 -28.696465 -1.67508
 2814 1  -42.089339 -27.998532 -1.67508
 2815 1  -44.576523 -30.814329 -1.67508
 2816 1  -45.799273 -30.092330 -1.67508
 2817 1  -45.785378 -28.672398 -1.67508
 2818 1  -44.548734 -27.974465 -1.67508
 2819 1  -47.035918 -30.790263 -1.67508
 2820 1  -48.258668 -30.068263 -1.67508
 2821 1  -48.244773 -28.648331 -1.67508
 2822 1  -47.008128 -27.950399 -1.67508
 2823 1  -49.495312 -30.766196 -1.67508
 2824 1  -50.718062 -30.044197 -1.67508
 2825 1  -50.704167 -28.624265 -1.67508
 2826 1  -49.467522 -27.926332 -1.67508
 2827 1  -51.954707 -30.742129 -1.67508
 2828 1  -53.177456 -30.020130 -1.67508
 2829 1  -53.163561 -28.600198 -1.67508
 2830 1  -51.926917 -27.902265 -1.67508
 2831 1  -54.414101 -30.718063 -1.67508
 2832 1  -55.636851 -29.996063 -1.67508
 2833 1  -55.622956 -28.576131 -1.67508
 2834 1  -54.386311 -27.878199 -1.67508
 2835 1  -56.873495 -30.693996 -1.67508
 2836 1  -58.096245 -29.971997 -1.67508
 2837 1  -58.082350 -28.552065 -1.67508
 2838 1  -56.845706 -27.854132 -1.67508
 2839 1  -59.332890 -30.669929 -1.67508
 2840 1  -60.555639 -29.947930 -1.67508
 2841 1  -60.541745 -28.527998 -1.67508
 2842 1  -59.305100 -27.830065 -1.67508
 2843 1  -61.792284 -30.645863 -1.67508
 2844 1  -63.015034 -29.923863 -1.67508
 2845 1  -63.001139 -28.503931 -1.67508
 2846 1  -61.764494 -27.805999 -1.67508
 2847 1  -64.251679 -30.621796 -1.67508
 2848 1  -65.474428 -29.899797 -1.67508
 2849 1  -65.460533 -28.479865 -1.67508
 2850 1  -64.223889 -27.781932 -1.67508
 2851 1  -66.711073 -30.597730 -1.67508
 2852 1  -67.933823 -29.875730 -1.67508
 2853 1  -67.919928 -28.455798 -1.67508
 2854 1  -66.683283 -27.757865 -1.67508
 2855 1  -69.170467 -30.573663 -1.67508
 2856 1  -70.393217 -29.851664 -1.67508
 2857 1  -70.379322 -28.431732 -1.67508
 2858 1  -69.142678 -27.733799 -1.67508
 2859 1  -71.629862 -30.549596 -1.67508
 2860 1  -72.852611 -29.827597 -1.67508
 2861 1  -72.838717 -28.407665 -1.67508
 2862 1  -71.602072 -27.709732 -1.67508
 2863 1  -74.089256 -30.525530 -1.67508
 2864 1  -75.312006 -29.803530 -1.67508
 2865 1  -75.298111 -28.383598 -1.67508
 2866 1  -74.061466 -27.685666 -1.67508
 2867 1  -76.548651 -30.501463 -1.67508
 2868 1  -77.771400 -29.779464 -1.67508
 2869 1  -77.757505 -28.359532 -1.67508
 2870 1  -76.520861 -27.661599 -1.67508
 2871 1  -79.008045 -30.477396 -1.67508
 2872 1  -80.230795 -29.755397 -1.67508
 2873 1  -80.216900 -28.335465 -1.67508
 2874 1  -78.980255 -27.637532 -1.67508
 2875 1  -81.467439 -30.453330 -1.67508
 2876 1  -82.690189 -29.731330 -1.67508
 2877 1  -82.676294 -28.311398 -1.67508
 2878 1  -81.439650 -27.613466 -1.67508
 2879 1  -83.926834 -30.429263 -1.67508
 2880 1  -85.149583 -29.707264 -1.67508
 2881 1  -85.135689 -28.287332 -1.67508
 2882 1  -83.899044 -27.589399 -1.67508
 2883 1  -86.386228 -30.405196 -1.67508
 2884 1  -87.608978 -29.683197 -1.67508
 2885 1  -87.595083 -28.263265 -1.67508
 2886 1  -86.358438 -27.565332 -1.67508
 2887 1  -88.845622 -30.381130 -1.67508
 2888 1  -90.068372 -29.659130 -1.67508
 2889 1  -90.054477 -28.239198 -1.67508
 2890 1  -88.817833 -27.541266 -1.67508
 2891 1  -91.305017 -30.357063 -1.67508
 2892 1  -92.527767 -29.635064 -1.67508
 2893 1  -92.513872 -28.215132 -1.67508
 2894 1  -91.277227 -27.517199 -1.67508
 2895 1  -93.764411 -30.332996 -1.67508
 2896 1  -94.987161 -29.610997 -1.67508
 2897 1  -94.973266 -28.191065 -1.67508
 2898 1  -93.736622 -27.493132 -1.67508
 2899 1  -96.223806 -30.308930 -1.67508
 2900 1  -97.446555 -29.586930 -1.67508
 2901 1  -97.432661 -28.166998 -1.67508
 2902 1  -96.196016 -27.469066 -1.67508
 2903 1  -98.683200 -30.284863 -1.67508
 2904 1  -99.905950 -29.562864 -1.67508
 2905 1  -99.892055 -28.142932 -1.67508
 2906 1  -98.655410 -27.444999 -1.67508
 2907 1 -101.142594 -30.260797 -1.67508
 2908 1 -102.365344 -29.538797 -1.67508
 2909 1 -102.351449 -28.118865 -1.67508
 2910 1 -101.114805 -27.420932 -1.67508
 2911 1 -103.601989 -30.236730 -1.67508
 2912 1 -104.824739 -29.514731 -1.67508
 2913 1 -104.810844 -28.094799 -1.67508
 2914 1 -103.574199 -27.396866 -1.67508
 2915 1 -106.061383 -30.212663 -1.67508
 2916 1 -107.284133 -29.490664 -1.67508
 2917 1 -107.270238 -28.070732 -1.67508
 2918 1 -106.033593 -27.372799 -1.67508
 2919 1 -108.520778 -30.188597 -1.67508
 2920 1 -108.492988 -27.348733 -1.67508
 2921 1  107.947614 -28.046665 -1.67508
 2922 1  106.724864 -27.324666 -1.67508
 2923 1  106.738759 -25.904734 -1.67508
 2924 1  107.975404 -25.206801 -1.67508
 2925 1  105.488219 -28.022599 -1.67508
 2926 1  104.265470 -27.300599 -1.67508
 2927 1  104.279365 -25.880667 -1.67508
 2928 1  105.516009 -25.182735 -1.67508
 2929 1  103.028825 -27.998532 -1.67508
 2930 1  101.806075 -27.276533 -1.67508
 2931 1  101.819970 -25.856601 -1.67508
 2932 1  103.056615 -25.158668 -1.67508
 2933 1  100.569431 -27.974465 -1.67508
 2934 1   99.346681 -27.252466 -1.67508
 2935 1   99.360576 -25.832534 -1.67508
 2936 1  100.597220 -25.134601 -1.67508
 2937 1   98.110036 -27.950399 -1.67508
 2938 1   96.887287 -27.228399 -1.67508
 2939 1   96.901181 -25.808467 -1.67508
 2940 1   98.137826 -25.110535 -1.67508
 2941 1   95.650642 -27.926332 -1.67508
 2942 1   94.427892 -27.204333 -1.67508
 2943 1   94.441787 -25.784401 -1.67508
 2944 1   95.678432 -25.086468 -1.67508
 2945 1   93.191247 -27.902265 -1.67508
 2946 1   91.968498 -27.180266 -1.67508
 2947 1   91.982393 -25.760334 -1.67508
 2948 1   93.219037 -25.062401 -1.67508
 2949 1   90.731853 -27.878199 -1.67508
 2950 1   89.509103 -27.156199 -1.67508
 2951 1   89.522998 -25.736267 -1.67508
 2952 1   90.759643 -25.038335 -1.67508
 2953 1   88.272459 -27.854132 -1.67508
 2954 1   87.049709 -27.132133 -1.67508
 2955 1   87.063604 -25.712201 -1.67508
 2956 1   88.300248 -25.014268 -1.67508
 2957 1   85.813064 -27.830065 -1.67508
 2958 1   84.590315 -27.108066 -1.67508
 2959 1   84.604209 -25.688134 -1.67508
 2960 1   85.840854 -24.990201 -1.67508
 2961 1   83.353670 -27.805999 -1.67508
 2962 1   82.130920 -27.083999 -1.67508
 2963 1   82.144815 -25.664067 -1.67508
 2964 1   83.381460 -24.966135 -1.67508
 2965 1   80.894276 -27.781932 -1.67508
 2966 1   79.671526 -27.059933 -1.67508
 2967 1   79.685421 -25.640001 -1.67508
 2968 1   80.922065 -24.942068 -1.67508
 2969 1   78.434881 -27.757865 -1.67508
 2970 1   77.212131 -27.035866 -1.67508
 2971 1   77.226026 -25.615934 -1.67508
 2972 1   78.462671 -24.918001 -1.67508
 2973 1   75.975487 -27.733799 -1.67508
 2974 1   74.752737 -27.011800 -1.67508
 2975 1   74.766632 -25.591868 -1.67508
 2976 1   76.003276 -24.893935 -1.67508
 2977 1   73.516092 -27.709732 -1.67508
 2978 1   72.293343 -26.987733 -1.67508
 2979 1   72.307237 -25.567801 -1.67508
 2980 1   73.543882 -24.869868 -1.67508
 2981 1   71.056698 -27.685666 -1.67508
 2982 1   69.833948 -26.963666 -1.67508
 2983 1   69.847843 -25.543734 -1.67508
 2984 1   71.084488 -24.845802 -1.67508
 2985 1   68.597304 -27.661599 -1.67508
 2986 1   67.374554 -26.939600 -1.67508
 2987 1   67.388449 -25.519668 -1.67508
 2988 1   68.625093 -24.821735 -1.67508
 2989 1   66.137909 -27.637532 -1.67508
 2990 1   64.915159 -26.915533 -1.67508
 2991 1   64.929054 -25.495601 -1.67508
 2992 1   66.165699 -24.797668 -1.67508
 2993 1   63.678515 -27.613466 -1.67508
 2994 1   62.455765 -26.891466 -1.67508
 2995 1   62.469660 -25.471534 -1.67508
 2996 1   63.706305 -24.773602 -1.67508
 2997 1   61.219120 -27.589399 -1.67508
 2998 1   59.996371 -26.867400 -1.67508
 2999 1   60.010265 -25.447468 -1.67508
 3000 1   61.246910 -24.749535 -1.67508
 3001 1   58.759726 -27.565332 -1.67508
 3002 1   57.536976 -26.843333 -1.67508
 3003 1   57.550871 -25.423401 -1.67508
 3004 1   58.787516 -24.725468 -1.67508
 3005 1   56.300332 -27.541266 -1.67508
 3006 1   55.077582 -26.819266 -1.67508
 3007 1   55.091477 -25.399334 -1.67508
 3008 1   56.328121 -24.701402 -1.67508
 3009 1   53.840937 -27.517199 -1.67508
 3010 1   52.618187 -26.795200 -1.67508
 3011 1   52.632082 -25.375268 -1.67508
 3012 1   53.868727 -24.677335 -1.67508
 3013 1   51.381543 -27.493132 -1.67508
 3014 1   50.158793 -26.771133 -1.67508
 3015 1   50.172688 -25.351201 -1.67508
 3016 1   51.409333 -24.653268 -1.67508
 3017 1   48.922148 -27.469066 -1.67508
 3018 1   47.699399 -26.747066 -1.67508
 3019 1   47.713293 -25.327134 -1.67508
 3020 1   48.949938 -24.629202 -1.67508
 3021 1   46.462754 -27.444999 -1.67508
 3022 1   45.240004 -26.723000 -1.67508
 3023 1   45.253899 -25.303068 -1.67508
 3024 1   46.490544 -24.605135 -1.67508
 3025 1   44.003360 -27.420932 -1.67508
 3026 1   42.780610 -26.698933 -1.67508
 3027 1   42.794505 -25.279001 -1.67508
 3028 1   44.031149 -24.581068 -1.67508
 3029 1   41.543965 -27.396866 -1.67508
 3030 1   40.321215 -26.674867 -1.67508
 3031 1   40.335110 -25.254934 -1.67508
 3032 1   41.571755 -24.557002 -1.67508
 3033 1   39.084571 -27.372799 -1.67508
 3034 1   37.861821 -26.650800 -1.67508
 3035 1   37.875716 -25.230868 -1.67508
 3036 1   39.112361 -24.532935 -1.67508
 3037 1   36.625176 -27.348733 -1.67508
 3038 1   35.402427 -26.626733 -1.67508
 3039 1   35.416322 -25.206801 -1.67508
 3040 1   36.652966 -24.508869 -1.67508
 3041 1   34.165782 -27.324666 -1.67508
 3042 1   32.943032 -26.602667 -1.67508
 3043 1   32.956927 -25.182735 -1.67508
 3044 1   34.193572 -24.484802 -1.67508
 3045 1   31.706388 -27.300599 -1.67508
 3046 1   30.483638 -26.578600 -1.67508
 3047 1   30.497533 -25.158668 -1.67508
 3048 1   31.734177 -24.460735 -1.67508
 3049 1   29.246993 -27.276533 -1.67508
 3050 1   28.024243 -26.554533 -1.67508
 3051 1   28.038138 -25.134601 -1.67508
 3052 1   29.274783 -24.436669 -1.67508
 3053 1   26.787599 -27.252466 -1.67508
 3054 1   25.564849 -26.530467 -1.67508
 3055 1   25.578744 -25.110535 -1.67508
 3056 1   26.815389 -24.412602 -1.67508
 3057 1   24.328204 -27.228399 -1.67508
 3058 1   23.105455 -26.506400 -1.67508
 3059 1   23.119350 -25.086468 -1.67508
 3060 1   24.355994 -24.388535 -1.67508
 3061 1   21.868810 -27.204333 -1.67508
 3062 1   20.646060 -26.482333 -1.67508
 3063 1   20.659955 -25.062401 -1.67508
 3064 1   21.896600 -24.364469 -1.67508
 3065 1   19.409416 -27.180266 -1.67508
 3066 1   18.186666 -26.458267 -1.67508
 3067 1   18.200561 -25.038335 -1.67508
 3068 1   19.437205 -24.340402 -1.67508
 3069 1   16.950021 -27.156199 -1.67508
 3070 1   15.727271 -26.434200 -1.67508
 3071 1   15.741166 -25.014268 -1.67508
 3072 1   16.977811 -24.316335 -1.67508
 3073 1   14.490627 -27.132133 -1.67508
 3074 1   13.267877 -26.410133 -1.67508
 3075 1   13.281772 -24.990201 -1.67508
 3076 1   14.518417 -24.292269 -1.67508
 3077 1   12.031232 -27.108066 -1.67508
 3078 1   10.808483 -26.386067 -1.67508
 3079 1   10.822378 -24.966135 -1.67508
 3080 1   12.059022 -24.268202 -1.67508
 3081 1    9.571838 -27.083999 -1.67508
 3082 1    8.349088 -26.362000 -1.67508
 3083 1    8.362983 -24.942068 -1.67508
 3084 1    9.599628 -24.244135 -1.67508
 3085 1    7.112444 -27.059933 -1.67508
 3086 1    5.889694 -26.337933 -1.67508
 3087 1    5.903589 -24.918001 -1.67508
 3088 1    7.140233 -24.220069 -1.67508
 3089 1    4.653049 -27.035866 -1.67508
 3090 1    3.430299 -26.313867 -1.67508
 3091 1    3.444194 -24.893935 -1.67508
 3092 1    4.680839 -24.196002 -1.67508
 3093 1    2.193655 -27.011800 -1.67508
 3094 1    0.970905 -26.289800 -1.67508
 3095 1    0.984800 -24.869868 -1.67508
 3096 1    2.221445 -24.171935 -1.67508
 3097 1   -0.265740 -26.987733 -1.67508
 3098 1   -1.488489 -26.265734 -1.67508
 3099 1   -1.474594 -24.845802 -1.67508
 3100 1   -0.237950 -24.147869 -1.67508
 3101 1   -2.725134 -26.963666 -1.67508
 3102 1   -3.947884 -26.241667 -1.67508
 3103 1   -3.933989 -24.821735 -1.67508
 3104 1   -2.697344 -24.123802 -1.67508
 3105 1   -5.184528 -26.939600 -1.67508
 3106 1   -6.407278 -26.217600 -1.67508
 3107 1   -6.393383 -24.797668 -1.67508
 3108 1   -5.156739 -24.099736 -1.67508
 3109 1   -7.643923 -26.915533 -1.67508
 3110 1   -8.866673 -26.193534 -1.67508
 3111 1   -8.852778 -24.773602 -1.67508
 3112 1   -7.616133 -24.075669 -1.67508
 3113 1  -10.103317 -26.891466 -1.67508
 3114 1  -11.326067 -26.169467 -1.67508
 3115 1  -11.312172 -24.749535 -1.67508
 3116 1  -10.075527 -24.051602 -1.67508
 3117 1  -12.562712 -26.867400 -1.67508
 3118 1  -13.785461 -26.145400 -1.67508
 3119 1  -13.771566 -24.725468 -1.67508
 3120 1  -12.534922 -24.027536 -1.67508
 3121 1  -15.022106 -26.843333 -1.67508
 3122 1  -16.244856 -26.121334 -1.67508
 3123 1  -16.230961 -24.701402 -1.67508
 3124 1  -14.994316 -24.003469 -1.67508
 3125 1  -17.481500 -26.819266 -1.67508
 3126 1  -18.704250 -26.097267 -1.67508
 3127 1  -18.690355 -24.677335 -1.67508
 3128 1  -17.453711 -23.979402 -1.67508
 3129 1  -19.940895 -26.795200 -1.67508
 3130 1  -21.163644 -26.073200 -1.67508
 3131 1  -21.149750 -24.653268 -1.67508
 3132 1  -19.913105 -23.955336 -1.67508
 3133 1  -22.400289 -26.771133 -1.67508
 3134 1  -23.623039 -26.049134 -1.67508
 3135 1  -23.609144 -24.629202 -1.67508
 3136 1  -22.372499 -23.931269 -1.67508
 3137 1  -24.859684 -26.747066 -1.67508
 3138 1  -26.082433 -26.025067 -1.67508
 3139 1  -26.068538 -24.605135 -1.67508
 3140 1  -24.831894 -23.907202 -1.67508
 3141 1  -27.319078 -26.723000 -1.67508
 3142 1  -28.541828 -26.001000 -1.67508
 3143 1  -28.527933 -24.581068 -1.67508
 3144 1  -27.291288 -23.883136 -1.67508
 3145 1  -29.778472 -26.698933 -1.67508
 3146 1  -31.001222 -25.976934 -1.67508
 3147 1  -30.987327 -24.557002 -1.67508
 3148 1  -29.750683 -23.859069 -1.67508
 3149 1  -32.237867 -26.674867 -1.67508
 3150 1  -33.460616 -25.952867 -1.67508
 3151 1  -33.446722 -24.532935 -1.67508
 3152 1  -32.210077 -23.835002 -1.67508
 3153 1  -34.697261 -26.650800 -1.67508
 3154 1  -35.920011 -25.928801 -1.67508
 3155 1  -35.906116 -24.508869 -1.67508
 3156 1  -34.669471 -23.810936 -1.67508
 3157 1  -37.156656 -26.626733 -1.67508
 3158 1  -38.379405 -25.904734 -1.67508
 3159 1  -38.365510 -24.484802 -1.67508
 3160 1  -37.128866 -23.786869 -1.67508
 3161 1  -39.616050 -26.602667 -1.67508
 3162 1  -40.838800 -25.880667 -1.67508
 3163 1  -40.824905 -24.460735 -1.67508
 3164 1  -39.588260 -23.762803 -1.67508
 3165 1  -42.075444 -26.578600 -1.67508
 3166 1  -43.298194 -25.856601 -1.67508
 3167 1  -43.284299 -24.436669 -1.67508
 3168 1  -42.047655 -23.738736 -1.67508
 3169 1  -44.534839 -26.554533 -1.67508
 3170 1  -45.757588 -25.832534 -1.67508
 3171 1  -45.743694 -24.412602 -1.67508
 3172 1  -44.507049 -23.714669 -1.67508
 3173 1  -46.994233 -26.530467 -1.67508
 3174 1  -48.216983 -25.808467 -1.67508
 3175 1  -48.203088 -24.388535 -1.67508
 3176 1  -46.966443 -23.690603 -1.67508
 3177 1  -49.453627 -26.506400 -1.67508
 3178 1  -50.676377 -25.784401 -1.67508
 3179 1  -50.662482 -24.364469 -1.67508
 3180 1  -49.425838 -23.666536 -1.67508
 3181 1  -51.913022 -26.482333 -1.67508
 3182 1  -53.135772 -25.760334 -1.67508
 3183 1  -53.121877 -24.340402 -1.67508
 3184 1  -51.885232 -23.642469 -1.67508
 3185 1  -54.372416 -26.458267 -1.67508
 3186 1  -55.595166 -25.736267 -1.67508
 3187 1  -55.581271 -24.316335 -1.67508
 3188 1  -54.344627 -23.618403 -1.67508
 3189 1  -56.831811 -26.434200 -1.67508
 3190 1  -58.054560 -25.712201 -1.67508
 3191 1  -58.040666 -24.292269 -1.67508
 3192 1  -56.804021 -23.594336 -1.67508
 3193 1  -59.291205 -26.410133 -1.67508
 3194 1  -60.513955 -25.688134 -1.67508
 3195 1  -60.500060 -24.268202 -1.67508
 3196 1  -59.263415 -23.570269 -1.67508
 3197 1  -61.750599 -26.386067 -1.67508
 3198 1  -62.973349 -25.664067 -1.67508
 3199 1  -62.959454 -24.244135 -1.67508
 3200 1  -61.722810 -23.546203 -1.67508
 3201 1  -64.209994 -26.362000 -1.67508
 3202 1  -65.432744 -25.640001 -1.67508
 3203 1  -65.418849 -24.220069 -1.67508
 3204 1  -64.182204 -23.522136 -1.67508
 3205 1  -66.669388 -26.337933 -1.67508
 3206 1  -67.892138 -25.615934 -1.67508
 3207 1  -67.878243 -24.196002 -1.67508
 3208 1  -66.641598 -23.498069 -1.67508
 3209 1  -69.128783 -26.313867 -1.67508
 3210 1  -70.351532 -25.591868 -1.67508
 3211 1  -70.337638 -24.171935 -1.67508
 3212 1  -69.100993 -23.474003 -1.67508
 3213 1  -71.588177 -26.289800 -1.67508
 3214 1  -72.810927 -25.567801 -1.67508
 3215 1  -72.797032 -24.147869 -1.67508
 3216 1  -71.560387 -23.449936 -1.67508
 3217 1  -74.047571 -26.265734 -1.67508
 3218 1  -75.270321 -25.543734 -1.67508
 3219 1  -75.256426 -24.123802 -1.67508
 3220 1  -74.019782 -23.425870 -1.67508
 3221 1  -76.506966 -26.241667 -1.67508
 3222 1  -77.729716 -25.519668 -1.67508
 3223 1  -77.715821 -24.099736 -1.67508
 3224 1  -76.479176 -23.401803 -1.67508
 3225 1  -78.966360 -26.217600 -1.67508
 3226 1  -80.189110 -25.495601 -1.67508
 3227 1  -80.175215 -24.075669 -1.67508
 3228 1  -78.938570 -23.377736 -1.67508
 3229 1  -81.425755 -26.193534 -1.67508
 3230 1  -82.648504 -25.471534 -1.67508
 3231 1  -82.634610 -24.051602 -1.67508
 3232 1  -81.397965 -23.353670 -1.67508
 3233 1  -83.885149 -26.169467 -1.67508
 3234 1  -85.107899 -25.447468 -1.67508
 3235 1  -85.094004 -24.027536 -1.67508
 3236 1  -83.857359 -23.329603 -1.67508
 3237 1  -86.344543 -26.145400 -1.67508
 3238 1  -87.567293 -25.423401 -1.67508
 3239 1  -87.553398 -24.003469 -1.67508
 3240 1  -86.316754 -23.305536 -1.67508
 3241 1  -88.803938 -26.121334 -1.67508
 3242 1  -90.026688 -25.399334 -1.67508
 3243 1  -90.012793 -23.979402 -1.67508
 3244 1  -88.776148 -23.281470 -1.67508
 3245 1  -91.263332 -26.097267 -1.67508
 3246 1  -92.486082 -25.375268 -1.67508
 3247 1  -92.472187 -23.955336 -1.67508
 3248 1  -91.235542 -23.257403 -1.67508
 3249 1  -93.722727 -26.073200 -1.67508
 3250 1  -94.945476 -25.351201 -1.67508
 3251 1  -94.931581 -23.931269 -1.67508
 3252 1  -93.694937 -23.233336 -1.67508
 3253 1  -96.182121 -26.049134 -1.67508
 3254 1  -97.404871 -25.327134 -1.67508
 3255 1  -97.390976 -23.907202 -1.67508
 3256 1  -96.154331 -23.209270 -1.67508
 3257 1  -98.641515 -26.025067 -1.67508
 3258 1  -99.864265 -25.303068 -1.67508
 3259 1  -99.850370 -23.883136 -1.67508
 3260 1  -98.613726 -23.185203 -1.67508
 3261 1 -101.100910 -26.001000 -1.67508
 3262 1 -102.323660 -25.279001 -1.67508
 3263 1 -102.309765 -23.859069 -1.67508
 3264 1 -101.073120 -23.161136 -1.67508
 3265 1 -103.560304 -25.976934 -1.67508
 3266 1 -104.783054 -25.254934 -1.67508
 3267 1 -104.769159 -23.835002 -1.67508
 3268 1 -103.532514 -23.137070 -1.67508
 3269 1 -106.019699 -25.952867 -1.67508
 3270 1 -107.242448 -25.230868 -1.67508
 3271 1 -107.228553 -23.810936 -1.67508
 3272 1 -105.991909 -23.113003 -1.67508
 3273 1 -108.479093 -25.928801 -1.67508
 3274 1 -108.451303 -23.088936 -1.67508
 3275 1  107.989299 -23.786869 -1.67508
 3276 1  106.766549 -23.064870 -1.67508
 3277 1  106.780444 -21.644938 -1.67508
 3278 1  108.017088 -20.947005 -1.67508
 3279 1  105.529904 -23.762803 -1.67508
 3280 1  104.307154 -23.040803 -1.67508
 3281 1  104.321049 -21.620871 -1.67508
 3282 1  105.557694 -20.922939 -1.67508
 3283 1  103.070510 -23.738736 -1.67508
 3284 1  101.847760 -23.016737 -1.67508
 3285 1  101.861655 -21.596805 -1.67508
 3286 1  103.098299 -20.898872 -1.67508
 3287 1  100.611115 -23.714669 -1.67508
 3288 1   99.388366 -22.992670 -1.67508
 3289 1   99.402260 -21.572738 -1.67508
 3290 1  100.638905 -20.874805 -1.67508
 3291 1   98.151721 -23.690603 -1.67508
 3292 1   96.928971 -22.968603 -1.67508
 3293 1   96.942866 -21.548671 -1.67508
 3294 1   98.179511 -20.850739 -1.67508
 3295 1   95.692327 -23.666536 -1.67508
 3296 1   94.469577 -22.944537 -1.67508
 3297 1   94.483472 -21.524605 -1.67508
 3298 1   95.720116 -20.826672 -1.67508
 3299 1   93.232932 -23.642469 -1.67508
 3300 1   92.010182 -22.920470 -1.67508
 3301 1   92.024077 -21.500538 -1.67508
 3302 1   93.260722 -20.802605 -1.67508
 3303 1   90.773538 -23.618403 -1.67508
 3304 1   89.550788 -22.896403 -1.67508
 3305 1   89.564683 -21.476471 -1.67508
 3306 1   90.801328 -20.778539 -1.67508
 3307 1   88.314143 -23.594336 -1.67508
 3308 1   87.091394 -22.872337 -1.67508
 3309 1   87.105288 -21.452405 -1.67508
 3310 1   88.341933 -20.754472 -1.67508
 3311 1   85.854749 -23.570269 -1.67508
 3312 1   84.631999 -22.848270 -1.67508
 3313 1   84.645894 -21.428338 -1.67508
 3314 1   85.882539 -20.730405 -1.67508
 3315 1   83.395355 -23.546203 -1.67508
 3316 1   82.172605 -22.824203 -1.67508
 3317 1   82.186500 -21.404271 -1.67508
 3318 1   83.423144 -20.706339 -1.67508
 3319 1   80.935960 -23.522136 -1.67508
 3320 1   79.713210 -22.800137 -1.67508
 3321 1   79.727105 -21.380205 -1.67508
 3322 1   80.963750 -20.682272 -1.67508
 3323 1   78.476566 -23.498069 -1.67508
 3324 1   77.253816 -22.776070 -1.67508
 3325 1   77.267711 -21.356138 -1.67508
 3326 1   78.504356 -20.658205 -1.67508
 3327 1   76.017171 -23.474003 -1.67508
 3328 1   74.794422 -22.752003 -1.67508
 3329 1   74.808316 -21.332071 -1.67508
 3330 1   76.044961 -20.634139 -1.67508
 3331 1   73.557777 -23.449936 -1.67508
 3332 1   72.335027 -22.727937 -1.67508
 3333 1   72.348922 -21.308005 -1.67508
 3334 1   73.585567 -20.610072 -1.67508
 3335 1   71.098383 -23.425870 -1.67508
 3336 1   69.875633 -22.703870 -1.67508
 3337 1   69.889528 -21.283938 -1.67508
 3338 1   71.126172 -20.586005 -1.67508
 3339 1   68.638988 -23.401803 -1.67508
 3340 1   67.416238 -22.679804 -1.67508
 3341 1   67.430133 -21.259872 -1.67508
 3342 1   68.666778 -20.561939 -1.67508
 3343 1   66.179594 -23.377736 -1.67508
 3344 1   64.956844 -22.655737 -1.67508
 3345 1   64.970739 -21.235805 -1.67508
 3346 1   66.207384 -20.537872 -1.67508
 3347 1   63.720199 -23.353670 -1.67508
 3348 1   62.497450 -22.631670 -1.67508
 3349 1   62.511345 -21.211738 -1.67508
 3350 1   63.747989 -20.513806 -1.67508
 3351 1   61.260805 -23.329603 -1.67508
 3352 1   60.038055 -22.607604 -1.67508
 3353 1   60.051950 -21.187672 -1.67508
 3354 1   61.288595 -20.489739 -1.67508
 3355 1   58.801411 -23.305536 -1.67508
 3356 1   57.578661 -22.583537 -1.67508
 3357 1   57.592556 -21.163605 -1.67508
 3358 1   58.829200 -20.465672 -1.67508
 3359 1   56.342016 -23.281470 -1.67508
 3360 1   55.119266 -22.559470 -1.67508
 3361 1   55.133161 -21.139538 -1.67508
 3362 1   56.369806 -20.441606 -1.67508
 3363 1   53.882622 -23.257403 -1.67508
 3364 1   52.659872 -22.535404 -1.67508
 3365 1   52.673767 -21.115472 -1.67508
 3366 1   53.910412 -20.417539 -1.67508
 3367 1   51.423227 -23.233336 -1.67508
 3368 1   50.200478 -22.511337 -1.67508
 3369 1   50.214373 -21.091405 -1.67508
 3370 1   51.451017 -20.393472 -1.67508
 3371 1   48.963833 -23.209270 -1.67508
 3372 1   47.741083 -22.487270 -1.67508
 3373 1   47.754978 -21.067338 -1.67508
 3374 1   48.991623 -20.369406 -1.67508
 3375 1   46.504439 -23.185203 -1.67508
 3376 1   45.281689 -22.463204 -1.67508
 3377 1   45.295584 -21.043272 -1.67508
 3378 1   46.532228 -20.345339 -1.67508
 3379 1   44.045044 -23.161136 -1.67508
 3380 1   42.822294 -22.439137 -1.67508
 3381 1   42.836189 -21.019205 -1.67508
 3382 1   44.072834 -20.321272 -1.67508
 3383 1   41.585650 -23.137070 -1.67508
 3384 1   40.362900 -22.415070 -1.67508
 3385 1   40.376795 -20.995138 -1.67508
 3386 1   41.613440 -20.297206 -1.67508
 3387 1   39.126255 -23.113003 -1.67508
 3388 1   37.903506 -22.391004 -1.67508
 3389 1   37.917401 -20.971072 -1.67508
 3390 1   39.154045 -20.273139 -1.67508
 3391 1   36.666861 -23.088936 -1.67508
 3392 1   35.444111 -22.366937 -1.67508
 3393 1   35.458006 -20.947005 -1.67508
 3394 1   36.694651 -20.249072 -1.67508
 3395 1   34.207467 -23.064870 -1.67508
 3396 1   32.984717 -22.342871 -1.67508
 3397 1   32.998612 -20.922939 -1.67508
 3398 1   34.235256 -20.225006 -1.67508
 3399 1   31.748072 -23.040803 -1.67508
 3400 1   30.525322 -22.318804 -1.67508
 3401 1   30.539217 -20.898872 -1.67508
 3402 1   31.775862 -20.200939 -1.67508
 3403 1   29.288678 -23.016737 -1.67508
 3404 1   28.065928 -22.294737 -1.67508
 3405 1   28.079823 -20.874805 -1.67508
 3406 1   29.316468 -20.176873 -1.67508
 3407 1   26.829283 -22.992670 -1.67508
 3408 1   25.606534 -22.270671 -1.67508
 3409 1   25.620429 -20.850739 -1.67508
 3410 1   26.857073 -20.152806 -1.67508
 3411 1   24.369889 -22.968603 -1.67508
 3412 1   23.147139 -22.246604 -1.67508
 3413 1   23.161034 -20.826672 -1.67508
 3414 1   24.397679 -20.128739 -1.67508
 3415 1   21.910495 -22.944537 -1.67508
 3416 1   20.687745 -22.222537 -1.67508
 3417 1   20.701640 -20.802605 -1.67508
 3418 1   21.938284 -20.104673 -1.67508
 3419 1   19.451100 -22.920470 -1.67508
 3420 1   18.228350 -22.198471 -1.67508
 3421 1   18.242245 -20.778539 -1.67508
 3422 1   19.478890 -20.080606 -1.67508
 3423 1   16.991706 -22.896403 -1.67508
 3424 1   15.768956 -22.174404 -1.67508
 3425 1   15.782851 -20.754472 -1.67508
 3426 1   17.019496 -20.056539 -1.67508
 3427 1   14.532311 -22.872337 -1.67508
 3428 1   13.309562 -22.150337 -1.67508
 3429 1   13.323457 -20.730405 -1.67508
 3430 1   14.560101 -20.032473 -1.67508
 3431 1   12.072917 -22.848270 -1.67508
 3432 1   10.850167 -22.126271 -1.67508
 3433 1   10.864062 -20.706339 -1.67508
 3434 1   12.100707 -20.008406 -1.67508
 3435 1    9.613523 -22.824203 -1.67508
 3436 1    8.390773 -22.102204 -1.67508
 3437 1    8.404668 -20.682272 -1.67508
 3438 1    9.641312 -19.984339 -1.67508
 3439 1    7.154128 -22.800137 -1.67508
 3440 1    5.931379 -22.078137 -1.67508
 3441 1    5.945273 -20.658205 -1.67508
 3442 1    7.181918 -19.960273 -1.67508
 3443 1    4.694734 -22.776070 -1.67508
 3444 1    3.471984 -22.054071 -1.67508
 3445 1    3.485879 -20.634139 -1.67508
 3446 1    4.722524 -19.936206 -1.67508
 3447 1    2.235339 -22.752003 -1.67508
 3448 1    1.012590 -22.030004 -1.67508
 3449 1    1.026485 -20.610072 -1.67508
 3450 1    2.263129 -19.912139 -1.67508
 3451 1   -0.224055 -22.727937 -1.67508
 3452 1   -1.446805 -22.005937 -1.67508
 3453 1   -1.432910 -20.586005 -1.67508
 3454 1   -0.196265 -19.888073 -1.67508
 3455 1   -2.683449 -22.703870 -1.67508
 3456 1   -3.906199 -21.981871 -1.67508
 3457 1   -3.892304 -20.561939 -1.67508
 3458 1   -2.655660 -19.864006 -1.67508
 3459 1   -5.142844 -22.679804 -1.67508
 3460 1   -6.365593 -21.957804 -1.67508
 3461 1   -6.351699 -20.537872 -1.67508
 3462 1   -5.115054 -19.839940 -1.67508
 3463 1   -7.602238 -22.655737 -1.67508
 3464 1   -8.824988 -21.933738 -1.67508
 3465 1   -8.811093 -20.513806 -1.67508
 3466 1   -7.574448 -19.815873 -1.67508
 3467 1  -10.061633 -22.631670 -1.67508
 3468 1  -11.284382 -21.909671 -1.67508
 3469 1  -11.270487 -20.489739 -1.67508
 3470 1  -10.033843 -19.791806 -1.67508
 3471 1  -12.521027 -22.607604 -1.67508
 3472 1  -13.743777 -21.885604 -1.67508
 3473 1  -13.729882 -20.465672 -1.67508
 3474 1  -12.493237 -19.767740 -1.67508
 3475 1  -14.980421 -22.583537 -1.67508
 3476 1  -16.203171 -21.861538 -1.67508
 3477 1  -16.189276 -20.441606 -1.67508
 3478 1  -14.952632 -19.743673 -1.67508
 3479 1  -17.439816 -22.559470 -1.67508
 3480 1  -18.662565 -21.837471 -1.67508
 3481 1  -18.648671 -20.417539 -1.67508
 3482 1  -17.412026 -19.719606 -1.67508
 3483 1  -19.899210 -22.535404 -1.67508
 3484 1  -21.121960 -21.813404 -1.67508
 3485 1  -21.108065 -20.393472 -1.67508
 3486 1  -19.871420 -19.695540 -1.67508
 3487 1  -22.358604 -22.511337 -1.67508
 3488 1  -23.581354 -21.789338 -1.67508
 3489 1  -23.567459 -20.369406 -1.67508
 3490 1  -22.330815 -19.671473 -1.67508
 3491 1  -24.817999 -22.487270 -1.67508
 3492 1  -26.040749 -21.765271 -1.67508
 3493 1  -26.026854 -20.345339 -1.67508
 3494 1  -24.790209 -19.647406 -1.67508
 3495 1  -27.277393 -22.463204 -1.67508
 3496 1  -28.500143 -21.741204 -1.67508
 3497 1  -28.486248 -20.321272 -1.67508
 3498 1  -27.249604 -19.623340 -1.67508
 3499 1  -29.736788 -22.439137 -1.67508
 3500 1  -30.959537 -21.717138 -1.67508
 3501 1  -30.945643 -20.297206 -1.67508
 3502 1  -29.708998 -19.599273 -1.67508
 3503 1  -32.196182 -22.415070 -1.67508
 3504 1  -33.418932 -21.693071 -1.67508
 3505 1  -33.405037 -20.273139 -1.67508
 3506 1  -32.168392 -19.575206 -1.67508
 3507 1  -34.655576 -22.391004 -1.67508
 3508 1  -35.878326 -21.669004 -1.67508
 3509 1  -35.864431 -20.249072 -1.67508
 3510 1  -34.627787 -19.551140 -1.67508
 3511 1  -37.114971 -22.366937 -1.67508
 3512 1  -38.337721 -21.644938 -1.67508
 3513 1  -38.323826 -20.225006 -1.67508
 3514 1  -37.087181 -19.527073 -1.67508
 3515 1  -39.574365 -22.342871 -1.67508
 3516 1  -40.797115 -21.620871 -1.67508
 3517 1  -40.783220 -20.200939 -1.67508
 3518 1  -39.546575 -19.503006 -1.67508
 3519 1  -42.033760 -22.318804 -1.67508
 3520 1  -43.256509 -21.596805 -1.67508
 3521 1  -43.242615 -20.176873 -1.67508
 3522 1  -42.005970 -19.478940 -1.67508
 3523 1  -44.493154 -22.294737 -1.67508
 3524 1  -45.715904 -21.572738 -1.67508
 3525 1  -45.702009 -20.152806 -1.67508
 3526 1  -44.465364 -19.454873 -1.67508
 3527 1  -46.952548 -22.270671 -1.67508
 3528 1  -48.175298 -21.548671 -1.67508
 3529 1  -48.161403 -20.128739 -1.67508
 3530 1  -46.924759 -19.430807 -1.67508
 3531 1  -49.411943 -22.246604 -1.67508
 3532 1  -50.634693 -21.524605 -1.67508
 3533 1  -50.620798 -20.104673 -1.67508
 3534 1  -49.384153 -19.406740 -1.67508
 3535 1  -51.871337 -22.222537 -1.67508
 3536 1  -53.094087 -21.500538 -1.67508
 3537 1  -53.080192 -20.080606 -1.67508
 3538 1  -51.843547 -19.382673 -1.67508
 3539 1  -54.330732 -22.198471 -1.67508
 3540 1  -55.553481 -21.476471 -1.67508
 3541 1  -55.539587 -20.056539 -1.67508
 3542 1  -54.302942 -19.358607 -1.67508
 3543 1  -56.790126 -22.174404 -1.67508
 3544 1  -58.012876 -21.452405 -1.67508
 3545 1  -57.998981 -20.032473 -1.67508
 3546 1  -56.762336 -19.334540 -1.67508
 3547 1  -59.249520 -22.150337 -1.67508
 3548 1  -60.472270 -21.428338 -1.67508
 3549 1  -60.458375 -20.008406 -1.67508
 3550 1  -59.221731 -19.310473 -1.67508
 3551 1  -61.708915 -22.126271 -1.67508
 3552 1  -62.931665 -21.404271 -1.67508
 3553 1  -62.917770 -19.984339 -1.67508
 3554 1  -61.681125 -19.286407 -1.67508
 3555 1  -64.168309 -22.102204 -1.67508
 3556 1  -65.391059 -21.380205 -1.67508
 3557 1  -65.377164 -19.960273 -1.67508
 3558 1  -64.140519 -19.262340 -1.67508
 3559 1  -66.627704 -22.078137 -1.67508
 3560 1  -67.850453 -21.356138 -1.67508
 3561 1  -67.836558 -19.936206 -1.67508
 3562 1  -66.599914 -19.238273 -1.67508
 3563 1  -69.087098 -22.054071 -1.67508
 3564 1  -70.309848 -21.332071 -1.67508
 3565 1  -70.295953 -19.912139 -1.67508
 3566 1  -69.059308 -19.214207 -1.67508
 3567 1  -71.546492 -22.030004 -1.67508
 3568 1  -72.769242 -21.308005 -1.67508
 3569 1  -72.755347 -19.888073 -1.67508
 3570 1  -71.518703 -19.190140 -1.67508
 3571 1  -74.005887 -22.005937 -1.67508
 3572 1  -75.228637 -21.283938 -1.67508
 3573 1  -75.214742 -19.864006 -1.67508
 3574 1  -73.978097 -19.166073 -1.67508
 3575 1  -76.465281 -21.981871 -1.67508
 3576 1  -77.688031 -21.259872 -1.67508
 3577 1  -77.674136 -19.839940 -1.67508
 3578 1  -76.437491 -19.142007 -1.67508
 3579 1  -78.924676 -21.957804 -1.67508
 3580 1  -80.147425 -21.235805 -1.67508
 3581 1  -80.133530 -19.815873 -1.67508
 3582 1  -78.896886 -19.117940 -1.67508
 3583 1  -81.384070 -21.933738 -1.67508
 3584 1  -82.606820 -21.211738 -1.67508
 3585 1  -82.592925 -19.791806 -1.67508
 3586 1  -81.356280 -19.093874 -1.67508
 3587 1  -83.843464 -21.909671 -1.67508
 3588 1  -85.066214 -21.187672 -1.67508
 3589 1  -85.052319 -19.767740 -1.67508
 3590 1  -83.815675 -19.069807 -1.67508
 3591 1  -86.302859 -21.885604 -1.67508
 3592 1  -87.525609 -21.163605 -1.67508
 3593 1  -87.511714 -19.743673 -1.67508
 3594 1  -86.275069 -19.045740 -1.67508
 3595 1  -88.762253 -21.861538 -1.67508
 3596 1  -89.985003 -21.139538 -1.67508
 3597 1  -89.971108 -19.719606 -1.67508
 3598 1  -88.734463 -19.021674 -1.67508
 3599 1  -91.221648 -21.837471 -1.67508
 3600 1  -92.444397 -21.115472 -1.67508
 3601 1  -92.430502 -19.695540 -1.67508
 3602 1  -91.193858 -18.997607 -1.67508
 3603 1  -93.681042 -21.813404 -1.67508
 3604 1  -94.903792 -21.091405 -1.67508
 3605 1  -94.889897 -19.671473 -1.67508
 3606 1  -93.653252 -18.973540 -1.67508
 3607 1  -96.140436 -21.789338 -1.67508
 3608 1  -97.363186 -21.067338 -1.67508
 3609 1  -97.349291 -19.647406 -1.67508
 3610 1  -96.112647 -18.949474 -1.67508
 3611 1  -98.599831 -21.765271 -1.67508
 3612 1  -99.822581 -21.043272 -1.67508
 3613 1  -99.808686 -19.623340 -1.67508
 3614 1  -98.572041 -18.925407 -1.67508
 3615 1 -101.059225 -21.741204 -1.67508
 3616 1 -102.281975 -21.019205 -1.67508
 3617 1 -102.268080 -19.599273 -1.67508
 3618 1 -101.031435 -18.901340 -1.67508
 3619 1 -103.518620 -21.717138 -1.67508
 3620 1 -104.741369 -20.995138 -1.67508
 3621 1 -104.727474 -19.575206 -1.67508
 3622 1 -103.490830 -18.877274 -1.67508
 3623 1 -105.978014 -21.693071 -1.67508
 3624 1 -107.200764 -20.971072 -1.67508
 3625 1 -107.186869 -19.551140 -1.67508
 3626 1 -105.950224 -18.853207 -1.67508
 3627 1 -108.437408 -21.669004 -1.67508
 3628 1 -108.409619 -18.829140 -1.67508
 3629 1  108.030983 -19.527073 -1.67508
 3630 1  106.808233 -18.805074 -1.67508
 3631 1  106.822128 -17.385142 -1.67508
 3632 1  108.058773 -16.687209 -1.67508
 3633 1  105.571589 -19.503006 -1.67508
 3634 1  104.348839 -18.781007 -1.67508
 3635 1  104.362734 -17.361075 -1.67508
 3636 1  105.599379 -16.663142 -1.67508
 3637 1  103.112194 -19.478940 -1.67508
 3638 1  101.889445 -18.756941 -1.67508
 3639 1  101.903340 -17.337008 -1.67508
 3640 1  103.139984 -16.639076 -1.67508
 3641 1  100.652800 -19.454873 -1.67508
 3642 1   99.430050 -18.732874 -1.67508
 3643 1   99.443945 -17.312942 -1.67508
 3644 1  100.680590 -16.615009 -1.67508
 3645 1   98.193406 -19.430807 -1.67508
 3646 1   96.970656 -18.708807 -1.67508
 3647 1   96.984551 -17.288875 -1.67508
 3648 1   98.221195 -16.590943 -1.67508
 3649 1   95.734011 -19.406740 -1.67508
 3650 1   94.511261 -18.684741 -1.67508
 3651 1   94.525156 -17.264809 -1.67508
 3652 1   95.761801 -16.566876 -1.67508
 3653 1   93.274617 -19.382673 -1.67508
 3654 1   92.051867 -18.660674 -1.67508
 3655 1   92.065762 -17.240742 -1.67508
 3656 1   93.302407 -16.542809 -1.67508
 3657 1   90.815222 -19.358607 -1.67508
 3658 1   89.592473 -18.636607 -1.67508
 3659 1   89.606368 -17.216675 -1.67508
 3660 1   90.843012 -16.518743 -1.67508
 3661 1   88.355828 -19.334540 -1.67508
 3662 1   87.133078 -18.612541 -1.67508
 3663 1   87.146973 -17.192609 -1.67508
 3664 1   88.383618 -16.494676 -1.67508
 3665 1   85.896434 -19.310473 -1.67508
 3666 1   84.673684 -18.588474 -1.67508
 3667 1   84.687579 -17.168542 -1.67508
 3668 1   85.924223 -16.470609 -1.67508
 3669 1   83.437039 -19.286407 -1.67508
 3670 1   82.214289 -18.564407 -1.67508
 3671 1   82.228184 -17.144475 -1.67508
 3672 1   83.464829 -16.446543 -1.67508
 3673 1   80.977645 -19.262340 -1.67508
 3674 1   79.754895 -18.540341 -1.67508
 3675 1   79.768790 -17.120409 -1.67508
 3676 1   81.005435 -16.422476 -1.67508
 3677 1   78.518250 -19.238273 -1.67508
 3678 1   77.295501 -18.516274 -1.67508
 3679 1   77.309396 -17.096342 -1.67508
 3680 1   78.546040 -16.398409 -1.67508
 3681 1   76.058856 -19.214207 -1.67508
 3682 1   74.836106 -18.492207 -1.67508
 3683 1   74.850001 -17.072275 -1.67508
 3684 1   76.086646 -16.374343 -1.67508
 3685 1   73.599462 -19.190140 -1.67508
 3686 1   72.376712 -18.468141 -1.67508
 3687 1   72.390607 -17.048209 -1.67508
 3688 1   73.627251 -16.350276 -1.67508
 3689 1   71.140067 -19.166073 -1.67508
 3690 1   69.917317 -18.444074 -1.67508
 3691 1   69.931212 -17.024142 -1.67508
 3692 1   71.167857 -16.326209 -1.67508
 3693 1   68.680673 -19.142007 -1.67508
 3694 1   67.457923 -18.420007 -1.67508
 3695 1   67.471818 -17.000075 -1.67508
 3696 1   68.708463 -16.302143 -1.67508
 3697 1   66.221278 -19.117940 -1.67508
 3698 1   64.998529 -18.395941 -1.67508
 3699 1   65.012424 -16.976009 -1.67508
 3700 1   66.249068 -16.278076 -1.67508
 3701 1   63.761884 -19.093874 -1.67508
 3702 1   62.539134 -18.371874 -1.67508
 3703 1   62.553029 -16.951942 -1.67508
 3704 1   63.789674 -16.254009 -1.67508
 3705 1   61.302490 -19.069807 -1.67508
 3706 1   60.079740 -18.347808 -1.67508
 3707 1   60.093635 -16.927876 -1.67508
 3708 1   61.330279 -16.229943 -1.67508
 3709 1   58.843095 -19.045740 -1.67508
 3710 1   57.620345 -18.323741 -1.67508
 3711 1   57.634240 -16.903809 -1.67508
 3712 1   58.870885 -16.205876 -1.67508
 3713 1   56.383701 -19.021674 -1.67508
 3714 1   55.160951 -18.299674 -1.67508
 3715 1   55.174846 -16.879742 -1.67508
 3716 1   56.411491 -16.181810 -1.67508
 3717 1   53.924306 -18.997607 -1.67508
 3718 1   52.701557 -18.275608 -1.67508
 3719 1   52.715452 -16.855676 -1.67508
 3720 1   53.952096 -16.157743 -1.67508
 3721 1   51.464912 -18.973540 -1.67508
 3722 1   50.242162 -18.251541 -1.67508
 3723 1   50.256057 -16.831609 -1.67508
 3724 1   51.492702 -16.133676 -1.67508
 3725 1   49.005518 -18.949474 -1.67508
 3726 1   47.782768 -18.227474 -1.67508
 3727 1   47.796663 -16.807542 -1.67508
 3728 1   49.033307 -16.109610 -1.67508
 3729 1   46.546123 -18.925407 -1.67508
 3730 1   45.323374 -18.203408 -1.67508
 3731 1   45.337268 -16.783476 -1.67508
 3732 1   46.573913 -16.085543 -1.67508
 3733 1   44.086729 -18.901340 -1.67508
 3734 1   42.863979 -18.179341 -1.67508
 3735 1   42.877874 -16.759409 -1.67508
 3736 1   44.114519 -16.061476 -1.67508
 3737 1   41.627334 -18.877274 -1.67508
 3738 1   40.404585 -18.155274 -1.67508
 3739 1   40.418480 -16.735342 -1.67508
 3740 1   41.655124 -16.037410 -1.67508
 3741 1   39.167940 -18.853207 -1.67508
 3742 1   37.945190 -18.131208 -1.67508
 3743 1   37.959085 -16.711276 -1.67508
 3744 1   39.195730 -16.013343 -1.67508
 3745 1   36.708546 -18.829140 -1.67508
 3746 1   35.485796 -18.107141 -1.67508
 3747 1   35.499691 -16.687209 -1.67508
 3748 1   36.736335 -15.989276 -1.67508
 3749 1   34.249151 -18.805074 -1.67508
 3750 1   33.026402 -18.083074 -1.67508
 3751 1   33.040296 -16.663142 -1.67508
 3752 1   34.276941 -15.965210 -1.67508
 3753 1   31.789757 -18.781007 -1.67508
 3754 1   30.567007 -18.059008 -1.67508
 3755 1   30.580902 -16.639076 -1.67508
 3756 1   31.817547 -15.941143 -1.67508
 3757 1   29.330362 -18.756941 -1.67508
 3758 1   28.107613 -18.034941 -1.67508
 3759 1   28.121508 -16.615009 -1.67508
 3760 1   29.358152 -15.917076 -1.67508
 3761 1   26.870968 -18.732874 -1.67508
 3762 1   25.648218 -18.010875 -1.67508
 3763 1   25.662113 -16.590943 -1.67508
 3764 1   26.898758 -15.893010 -1.67508
 3765 1   24.411574 -18.708807 -1.67508
 3766 1   23.188824 -17.986808 -1.67508
 3767 1   23.202719 -16.566876 -1.67508
 3768 1   24.439363 -15.868943 -1.67508
 3769 1   21.952179 -18.684741 -1.67508
 3770 1   20.729430 -17.962741 -1.67508
 3771 1   20.743324 -16.542809 -1.67508
 3772 1   21.979969 -15.844877 -1.67508
 3773 1   19.492785 -18.660674 -1.67508
 3774 1   18.270035 -17.938675 -1.67508
 3775 1   18.283930 -16.518743 -1.67508
 3776 1   19.520575 -15.820810 -1.67508
 3777 1   17.033391 -18.636607 -1.67508
 3778 1   15.810641 -17.914608 -1.67508
 3779 1   15.824536 -16.494676 -1.67508
 3780 1   17.061180 -15.796743 -1.67508
 3781 1   14.573996 -18.612541 -1.67508
 3782 1   13.351246 -17.890541 -1.67508
 3783 1   13.365141 -16.470609 -1.67508
 3784 1   14.601786 -15.772677 -1.67508
 3785 1   12.114602 -18.588474 -1.67508
 3786 1   10.891852 -17.866475 -1.67508
 3787 1   10.905747 -16.446543 -1.67508
 3788 1   12.142391 -15.748610 -1.67508
 3789 1    9.655207 -18.564407 -1.67508
 3790 1    8.432458 -17.842408 -1.67508
 3791 1    8.446352 -16.422476 -1.67508
 3792 1    9.682997 -15.724543 -1.67508
 3793 1    7.195813 -18.540341 -1.67508
 3794 1    5.973063 -17.818341 -1.67508
 3795 1    5.986958 -16.398409 -1.67508
 3796 1    7.223603 -15.700477 -1.67508
 3797 1    4.736419 -18.516274 -1.67508
 3798 1    3.513669 -17.794275 -1.67508
 3799 1    3.527564 -16.374343 -1.67508
 3800 1    4.764208 -15.676410 -1.67508
 3801 1    2.277024 -18.492207 -1.67508
 3802 1    1.054274 -17.770208 -1.67508
 3803 1    1.068169 -16.350276 -1.67508
 3804 1    2.304814 -15.652343 -1.67508
 3805 1   -0.182370 -18.468141 -1.67508
 3806 1   -1.405120 -17.746141 -1.67508
 3807 1   -1.391225 -16.326209 -1.67508
 3808 1   -0.154580 -15.628277 -1.67508
 3809 1   -2.641765 -18.444074 -1.67508
 3810 1   -3.864514 -17.722075 -1.67508
 3811 1   -3.850620 -16.302143 -1.67508
 3812 1   -2.613975 -15.604210 -1.67508
 3813 1   -5.101159 -18.420007 -1.67508
 3814 1   -6.323909 -17.698008 -1.67508
 3815 1   -6.310014 -16.278076 -1.67508
 3816 1   -5.073369 -15.580143 -1.67508
 3817 1   -7.560553 -18.395941 -1.67508
 3818 1   -8.783303 -17.673942 -1.67508
 3819 1   -8.769408 -16.254009 -1.67508
 3820 1   -7.532764 -15.556077 -1.67508
 3821 1  -10.019948 -18.371874 -1.67508
 3822 1  -11.242698 -17.649875 -1.67508
 3823 1  -11.228803 -16.229943 -1.67508
 3824 1   -9.992158 -15.532010 -1.67508
 3825 1  -12.479342 -18.347808 -1.67508
 3826 1  -13.702092 -17.625808 -1.67508
 3827 1  -13.688197 -16.205876 -1.67508
 3828 1  -12.451552 -15.507944 -1.67508
 3829 1  -14.938737 -18.323741 -1.67508
 3830 1  -16.161486 -17.601742 -1.67508
 3831 1  -16.147592 -16.181810 -1.67508
 3832 1  -14.910947 -15.483877 -1.67508
 3833 1  -17.398131 -18.299674 -1.67508
 3834 1  -18.620881 -17.577675 -1.67508
 3835 1  -18.606986 -16.157743 -1.67508
 3836 1  -17.370341 -15.459810 -1.67508
 3837 1  -19.857525 -18.275608 -1.67508
 3838 1  -21.080275 -17.553608 -1.67508
 3839 1  -21.066380 -16.133676 -1.67508
 3840 1  -19.829736 -15.435744 -1.67508
 3841 1  -22.316920 -18.251541 -1.67508
 3842 1  -23.539670 -17.529542 -1.67508
 3843 1  -23.525775 -16.109610 -1.67508
 3844 1  -22.289130 -15.411677 -1.67508
 3845 1  -24.776314 -18.227474 -1.67508
 3846 1  -25.999064 -17.505475 -1.67508
 3847 1  -25.985169 -16.085543 -1.67508
 3848 1  -24.748524 -15.387610 -1.67508
 3849 1  -27.235709 -18.203408 -1.67508
 3850 1  -28.458458 -17.481408 -1.67508
 3851 1  -28.444563 -16.061476 -1.67508
 3852 1  -27.207919 -15.363544 -1.67508
 3853 1  -29.695103 -18.179341 -1.67508
 3854 1  -30.917853 -17.457342 -1.67508
 3855 1  -30.903958 -16.037410 -1.67508
 3856 1  -29.667313 -15.339477 -1.67508
 3857 1  -32.154497 -18.155274 -1.67508
 3858 1  -33.377247 -17.433275 -1.67508
 3859 1  -33.363352 -16.013343 -1.67508
 3860 1  -32.126708 -15.315410 -1.67508
 3861 1  -34.613892 -18.131208 -1.67508
 3862 1  -35.836642 -17.409208 -1.67508
 3863 1  -35.822747 -15.989276 -1.67508
 3864 1  -34.586102 -15.291344 -1.67508
 3865 1  -37.073286 -18.107141 -1.67508
 3866 1  -38.296036 -17.385142 -1.67508
 3867 1  -38.282141 -15.965210 -1.67508
 3868 1  -37.045496 -15.267277 -1.67508
 3869 1  -39.532681 -18.083074 -1.67508
 3870 1  -40.755430 -17.361075 -1.67508
 3871 1  -40.741535 -15.941143 -1.67508
 3872 1  -39.504891 -15.243210 -1.67508
 3873 1  -41.992075 -18.059008 -1.67508
 3874 1  -43.214825 -17.337008 -1.67508
 3875 1  -43.200930 -15.917076 -1.67508
 3876 1  -41.964285 -15.219144 -1.67508
 3877 1  -44.451469 -18.034941 -1.67508
 3878 1  -45.674219 -17.312942 -1.67508
 3879 1  -45.660324 -15.893010 -1.67508
 3880 1  -44.423680 -15.195077 -1.67508
 3881 1  -46.910864 -18.010875 -1.67508
 3882 1  -48.133614 -17.288875 -1.67508
 3883 1  -48.119719 -15.868943 -1.67508
 3884 1  -46.883074 -15.171011 -1.67508
 3885 1  -49.370258 -17.986808 -1.67508
 3886 1  -50.593008 -17.264809 -1.67508
 3887 1  -50.579113 -15.844877 -1.67508
 3888 1  -49.342468 -15.146944 -1.67508
 3889 1  -51.829653 -17.962741 -1.67508
 3890 1  -53.052402 -17.240742 -1.67508
 3891 1  -53.038507 -15.820810 -1.67508
 3892 1  -51.801863 -15.122877 -1.67508
 3893 1  -54.289047 -17.938675 -1.67508
 3894 1  -55.511797 -17.216675 -1.67508
 3895 1  -55.497902 -15.796743 -1.67508
 3896 1  -54.261257 -15.098811 -1.67508
 3897 1  -56.748441 -17.914608 -1.67508
 3898 1  -57.971191 -17.192609 -1.67508
 3899 1  -57.957296 -15.772677 -1.67508
 3900 1  -56.720652 -15.074744 -1.67508
 3901 1  -59.207836 -17.890541 -1.67508
 3902 1  -60.430586 -17.168542 -1.67508
 3903 1  -60.416691 -15.748610 -1.67508
 3904 1  -59.180046 -15.050677 -1.67508
 3905 1  -61.667230 -17.866475 -1.67508
 3906 1  -62.889980 -17.144475 -1.67508
 3907 1  -62.876085 -15.724543 -1.67508
 3908 1  -61.639440 -15.026611 -1.67508
 3909 1  -64.126625 -17.842408 -1.67508
 3910 1  -65.349374 -17.120409 -1.67508
 3911 1  -65.335479 -15.700477 -1.67508
 3912 1  -64.098835 -15.002544 -1.67508
 3913 1  -66.586019 -17.818341 -1.67508
 3914 1  -67.808769 -17.096342 -1.67508
 3915 1  -67.794874 -15.676410 -1.67508
 3916 1  -66.558229 -14.978477 -1.67508
 3917 1  -69.045413 -17.794275 -1.67508
 3918 1  -70.268163 -17.072275 -1.67508
 3919 1  -70.254268 -15.652343 -1.67508
 3920 1  -69.017624 -14.954411 -1.67508
 3921 1  -71.504808 -17.770208 -1.67508
 3922 1  -72.727558 -17.048209 -1.67508
 3923 1  -72.713663 -15.628277 -1.67508
 3924 1  -71.477018 -14.930344 -1.67508
 3925 1  -73.964202 -17.746141 -1.67508
 3926 1  -75.186952 -17.024142 -1.67508
 3927 1  -75.173057 -15.604210 -1.67508
 3928 1  -73.936412 -14.906277 -1.67508
 3929 1  -76.423597 -17.722075 -1.67508
 3930 1  -77.646346 -17.000075 -1.67508
 3931 1  -77.632451 -15.580143 -1.67508
 3932 1  -76.395807 -14.882211 -1.67508
 3933 1  -78.882991 -17.698008 -1.67508
 3934 1  -80.105741 -16.976009 -1.67508
 3935 1  -80.091846 -15.556077 -1.67508
 3936 1  -78.855201 -14.858144 -1.67508
 3937 1  -81.342385 -17.673942 -1.67508
 3938 1  -82.565135 -16.951942 -1.67508
 3939 1  -82.551240 -15.532010 -1.67508
 3940 1  -81.314596 -14.834077 -1.67508
 3941 1  -83.801780 -17.649875 -1.67508
 3942 1  -85.024529 -16.927876 -1.67508
 3943 1  -85.010635 -15.507944 -1.67508
 3944 1  -83.773990 -14.810011 -1.67508
 3945 1  -86.261174 -17.625808 -1.67508
 3946 1  -87.483924 -16.903809 -1.67508
 3947 1  -87.470029 -15.483877 -1.67508
 3948 1  -86.233384 -14.785944 -1.67508
 3949 1  -88.720569 -17.601742 -1.67508
 3950 1  -89.943318 -16.879742 -1.67508
 3951 1  -89.929423 -15.459810 -1.67508
 3952 1  -88.692779 -14.761878 -1.67508
 3953 1  -91.179963 -17.577675 -1.67508
 3954 1  -92.402713 -16.855676 -1.67508
 3955 1  -92.388818 -15.435744 -1.67508
 3956 1  -91.152173 -14.737811 -1.67508
 3957 1  -93.639357 -17.553608 -1.67508
 3958 1  -94.862107 -16.831609 -1.67508
 3959 1  -94.848212 -15.411677 -1.67508
 3960 1  -93.611568 -14.713744 -1.67508
 3961 1  -96.098752 -17.529542 -1.67508
 3962 1  -97.321501 -16.807542 -1.67508
 3963 1  -97.307607 -15.387610 -1.67508
 3964 1  -96.070962 -14.689678 -1.67508
 3965 1  -98.558146 -17.505475 -1.67508
 3966 1  -99.780896 -16.783476 -1.67508
 3967 1  -99.767001 -15.363544 -1.67508
 3968 1  -98.530356 -14.665611 -1.67508
 3969 1 -101.017541 -17.481408 -1.67508
 3970 1 -102.240290 -16.759409 -1.67508
 3971 1 -102.226395 -15.339477 -1.67508
 3972 1 -100.989751 -14.641544 -1.67508
 3973 1 -103.476935 -17.457342 -1.67508
 3974 1 -104.699685 -16.735342 -1.67508
 3975 1 -104.685790 -15.315410 -1.67508
 3976 1 -103.449145 -14.617478 -1.67508
 3977 1 -105.936329 -17.433275 -1.67508
 3978 1 -107.159079 -16.711276 -1.67508
 3979 1 -107.145184 -15.291344 -1.67508
 3980 1 -105.908540 -14.593411 -1.67508
 3981 1 -108.395724 -17.409208 -1.67508
 3982 1 -108.367934 -14.569344 -1.67508
 3983 1  108.072668 -15.267277 -1.67508
 3984 1  106.849918 -14.545278 -1.67508
 3985 1  106.863813 -13.125346 -1.67508
 3986 1  108.100458 -12.427413 -1.67508
 3987 1  105.613273 -15.243210 -1.67508
 3988 1  104.390524 -14.521211 -1.67508
 3989 1  104.404419 -13.101279 -1.67508
 3990 1  105.641063 -12.403346 -1.67508
 3991 1  103.153879 -15.219144 -1.67508
 3992 1  101.931129 -14.497144 -1.67508
 3993 1  101.945024 -13.077212 -1.67508
 3994 1  103.181669 -12.379280 -1.67508
 3995 1  100.694485 -15.195077 -1.67508
 3996 1   99.471735 -14.473078 -1.67508
 3997 1   99.485630 -13.053146 -1.67508
 3998 1  100.722274 -12.355213 -1.67508
 3999 1   98.235090 -15.171011 -1.67508
 4000 1   97.012340 -14.449011 -1.67508
 4001 1   97.026235 -13.029079 -1.67508
 4002 1   98.262880 -12.331146 -1.67508
 4003 1   95.775696 -15.146944 -1.67508
 4004 1   94.552946 -14.424945 -1.67508
 4005 1   94.566841 -13.005013 -1.67508
 4006 1   95.803486 -12.307080 -1.67508
 4007 1   93.316301 -15.122877 -1.67508
 4008 1   92.093552 -14.400878 -1.67508
 4009 1   92.107447 -12.980946 -1.67508
 4010 1   93.344091 -12.283013 -1.67508
 4011 1   90.856907 -15.098811 -1.67508
 4012 1   89.634157 -14.376811 -1.67508
 4013 1   89.648052 -12.956879 -1.67508
 4014 1   90.884697 -12.258947 -1.67508
 4015 1   88.397513 -15.074744 -1.67508
 4016 1   87.174763 -14.352745 -1.67508
 4017 1   87.188658 -12.932813 -1.67508
 4018 1   88.425302 -12.234880 -1.67508
 4019 1   85.938118 -15.050677 -1.67508
 4020 1   84.715369 -14.328678 -1.67508
 4021 1   84.729263 -12.908746 -1.67508
 4022 1   85.965908 -12.210813 -1.67508
 4023 1   83.478724 -15.026611 -1.67508
 4024 1   82.255974 -14.304611 -1.67508
 4025 1   82.269869 -12.884679 -1.67508
 4026 1   83.506514 -12.186747 -1.67508
 4027 1   81.019329 -15.002544 -1.67508
 4028 1   79.796580 -14.280545 -1.67508
 4029 1   79.810475 -12.860613 -1.67508
 4030 1   81.047119 -12.162680 -1.67508
 4031 1   78.559935 -14.978477 -1.67508
 4032 1   77.337185 -14.256478 -1.67508
 4033 1   77.351080 -12.836546 -1.67508
 4034 1   78.587725 -12.138613 -1.67508
 4035 1   76.100541 -14.954411 -1.67508
 4036 1   74.877791 -14.232411 -1.67508
 4037 1   74.891686 -12.812479 -1.67508
 4038 1   76.128330 -12.114547 -1.67508
 4039 1   73.641146 -14.930344 -1.67508
 4040 1   72.418397 -14.208345 -1.67508
 4041 1   72.432291 -12.788413 -1.67508
 4042 1   73.668936 -12.090480 -1.67508
 4043 1   71.181752 -14.906277 -1.67508
 4044 1   69.959002 -14.184278 -1.67508
 4045 1   69.972897 -12.764346 -1.67508
 4046 1   71.209542 -12.066413 -1.67508
 4047 1   68.722357 -14.882211 -1.67508
 4048 1   67.499608 -14.160211 -1.67508
 4049 1   67.513503 -12.740279 -1.67508
 4050 1   68.750147 -12.042347 -1.67508
 4051 1   66.262963 -14.858144 -1.67508
 4052 1   65.040213 -14.136145 -1.67508
 4053 1   65.054108 -12.716213 -1.67508
 4054 1   66.290753 -12.018280 -1.67508
 4055 1   63.803569 -14.834077 -1.67508
 4056 1   62.580819 -14.112078 -1.67508
 4057 1   62.594714 -12.692146 -1.67508
 4058 1   63.831358 -11.994213 -1.67508
 4059 1   61.344174 -14.810011 -1.67508
 4060 1   60.121425 -14.088012 -1.67508
 4061 1   60.135319 -12.668079 -1.67508
 4062 1   61.371964 -11.970147 -1.67508
 4063 1   58.884780 -14.785944 -1.67508
 4064 1   57.662030 -14.063945 -1.67508
 4065 1   57.675925 -12.644013 -1.67508
 4066 1   58.912570 -11.946080 -1.67508
 4067 1   56.425386 -14.761878 -1.67508
 4068 1   55.202636 -14.039878 -1.67508
 4069 1   55.216531 -12.619946 -1.67508
 4070 1   56.453175 -11.922014 -1.67508
 4071 1   53.965991 -14.737811 -1.67508
 4072 1   52.743241 -14.015812 -1.67508
 4073 1   52.757136 -12.595880 -1.67508
 4074 1   53.993781 -11.897947 -1.67508
 4075 1   51.506597 -14.713744 -1.67508
 4076 1   50.283847 -13.991745 -1.67508
 4077 1   50.297742 -12.571813 -1.67508
 4078 1   51.534386 -11.873880 -1.67508
 4079 1   49.047202 -14.689678 -1.67508
 4080 1   47.824453 -13.967678 -1.67508
 4081 1   47.838347 -12.547746 -1.67508
 4082 1   49.074992 -11.849814 -1.67508
 4083 1   46.587808 -14.665611 -1.67508
 4084 1   45.365058 -13.943612 -1.67508
 4085 1   45.378953 -12.523680 -1.67508
 4086 1   46.615598 -11.825747 -1.67508
 4087 1   44.128414 -14.641544 -1.67508
 4088 1   42.905664 -13.919545 -1.67508
 4089 1   42.919559 -12.499613 -1.67508
 4090 1   44.156203 -11.801680 -1.67508
 4091 1   41.669019 -14.617478 -1.67508
 4092 1   40.446269 -13.895478 -1.67508
 4093 1   40.460164 -12.475546 -1.67508
 4094 1   41.696809 -11.777614 -1.67508
 4095 1   39.209625 -14.593411 -1.67508
 4096 1   37.986875 -13.871412 -1.67508
 4097 1   38.000770 -12.451480 -1.67508
 4098 1   39.237414 -11.753547 -1.67508
 4099 1   36.750230 -14.569344 -1.67508
 4100 1   35.527481 -13.847345 -1.67508
 4101 1   35.541375 -12.427413 -1.67508
 4102 1   36.778020 -11.729480 -1.67508
 4103 1   34.290836 -14.545278 -1.67508
 4104 1   33.068086 -13.823278 -1.67508
 4105 1   33.081981 -12.403346 -1.67508
 4106 1   34.318626 -11.705414 -1.67508
 4107 1   31.831442 -14.521211 -1.67508
 4108 1   30.608692 -13.799212 -1.67508
 4109 1   30.622587 -12.379280 -1.67508
 4110 1   31.859231 -11.681347 -1.67508
 4111 1   29.372047 -14.497144 -1.67508
 4112 1   28.149297 -13.775145 -1.67508
 4113 1   28.163192 -12.355213 -1.67508
 4114 1   29.399837 -11.657280 -1.67508
 4115 1   26.912653 -14.473078 -1.67508
 4116 1   25.689903 -13.751078 -1.67508
 4117 1   25.703798 -12.331146 -1.67508
 4118 1   26.940443 -11.633214 -1.67508
 4119 1   24.453258 -14.449011 -1.67508
 4120 1   23.230509 -13.727012 -1.67508
 4121 1   23.244403 -12.307080 -1.67508
 4122 1   24.481048 -11.609147 -1.67508
 4123 1   21.993864 -14.424945 -1.67508
 4124 1   20.771114 -13.702945 -1.67508
 4125 1   20.785009 -12.283013 -1.67508
 4126 1   22.021654 -11.585080 -1.67508
 4127 1   19.534470 -14.400878 -1.67508
 4128 1   18.311720 -13.678879 -1.67508
 4129 1   18.325615 -12.258947 -1.67508
 4130 1   19.562259 -11.561014 -1.67508
 4131 1   17.075075 -14.376811 -1.67508
 4132 1   15.852325 -13.654812 -1.67508
 4133 1   15.866220 -12.234880 -1.67508
 4134 1   17.102865 -11.536947 -1.67508
 4135 1   14.615681 -14.352745 -1.67508
 4136 1   13.392931 -13.630745 -1.67508
 4137 1   13.406826 -12.210813 -1.67508
 4138 1   14.643471 -11.512881 -1.67508
 4139 1   12.156286 -14.328678 -1.67508
 4140 1   10.933537 -13.606679 -1.67508
 4141 1   10.947431 -12.186747 -1.67508
 4142 1   12.184076 -11.488814 -1.67508
 4143 1    9.696892 -14.304611 -1.67508
 4144 1    8.474142 -13.582612 -1.67508
 4145 1    8.488037 -12.162680 -1.67508
 4146 1    9.724682 -11.464747 -1.67508
 4147 1    7.237498 -14.280545 -1.67508
 4148 1    6.014748 -13.558545 -1.67508
 4149 1    6.028643 -12.138613 -1.67508
 4150 1    7.265287 -11.440681 -1.67508
 4151 1    4.778103 -14.256478 -1.67508
 4152 1    3.555353 -13.534479 -1.67508
 4153 1    3.569248 -12.114547 -1.67508
 4154 1    4.805893 -11.416614 -1.67508
 4155 1    2.318709 -14.232411 -1.67508
 4156 1    1.095959 -13.510412 -1.67508
 4157 1    1.109854 -12.090480 -1.67508
 4158 1    2.346499 -11.392547 -1.67508
 4159 1   -0.140686 -14.208345 -1.67508
 4160 1   -1.363435 -13.486345 -1.67508
 4161 1   -1.349540 -12.066413 -1.67508
 4162 1   -0.112896 -11.368481 -1.67508
 4163 1   -2.600080 -14.184278 -1.67508
 4164 1   -3.822830 -13.462279 -1.67508
 4165 1   -3.808935 -12.042347 -1.67508
 4166 1   -2.572290 -11.344414 -1.67508
 4167 1   -5.059474 -14.160211 -1.67508
 4168 1   -6.282224 -13.438212 -1.67508
 4169 1   -6.268329 -12.018280 -1.67508
 4170 1   -5.031685 -11.320347 -1.67508
 4171 1   -7.518869 -14.136145 -1.67508
 4172 1   -8.741619 -13.414145 -1.67508
 4173 1   -8.727724 -11.994213 -1.67508
 4174 1   -7.491079 -11.296281 -1.67508
 4175 1   -9.978263 -14.112078 -1.67508
 4176 1  -11.201013 -13.390079 -1.67508
 4177 1  -11.187118 -11.970147 -1.67508
 4178 1   -9.950473 -11.272214 -1.67508
 4179 1  -12.437658 -14.088012 -1.67508
 4180 1  -13.660407 -13.366012 -1.67508
 4181 1  -13.646512 -11.946080 -1.67508
 4182 1  -12.409868 -11.248147 -1.67508
 4183 1  -14.897052 -14.063945 -1.67508
 4184 1  -16.119802 -13.341946 -1.67508
 4185 1  -16.105907 -11.922014 -1.67508
 4186 1  -14.869262 -11.224081 -1.67508
 4187 1  -17.356446 -14.039878 -1.67508
 4188 1  -18.579196 -13.317879 -1.67508
 4189 1  -18.565301 -11.897947 -1.67508
 4190 1  -17.328657 -11.200014 -1.67508
 4191 1  -19.815841 -14.015812 -1.67508
 4192 1  -21.038591 -13.293812 -1.67508
 4193 1  -21.024696 -11.873880 -1.67508
 4194 1  -19.788051 -11.175948 -1.67508
 4195 1  -22.275235 -13.991745 -1.67508
 4196 1  -23.497985 -13.269746 -1.67508
 4197 1  -23.484090 -11.849814 -1.67508
 4198 1  -22.247445 -11.151881 -1.67508
 4199 1  -24.734630 -13.967678 -1.67508
 4200 1  -25.957379 -13.245679 -1.67508
 4201 1  -25.943484 -11.825747 -1.67508
 4202 1  -24.706840 -11.127814 -1.67508
 4203 1  -27.194024 -13.943612 -1.67508
 4204 1  -28.416774 -13.221612 -1.67508
 4205 1  -28.402879 -11.801680 -1.67508
 4206 1  -27.166234 -11.103748 -1.67508
 4207 1  -29.653418 -13.919545 -1.67508
 4208 1  -30.876168 -13.197546 -1.67508
 4209 1  -30.862273 -11.777614 -1.67508
 4210 1  -29.625629 -11.079681 -1.67508
 4211 1  -32.112813 -13.895478 -1.67508
 4212 1  -33.335563 -13.173479 -1.67508
 4213 1  -33.321668 -11.753547 -1.67508
 4214 1  -32.085023 -11.055614 -1.67508
 4215 1  -34.572207 -13.871412 -1.67508
 4216 1  -35.794957 -13.149412 -1.67508
 4217 1  -35.781062 -11.729480 -1.67508
 4218 1  -34.544417 -11.031548 -1.67508
 4219 1  -37.031602 -13.847345 -1.67508
 4220 1  -38.254351 -13.125346 -1.67508
 4221 1  -38.240456 -11.705414 -1.67508
 4222 1  -37.003812 -11.007481 -1.67508
 4223 1  -39.490996 -13.823278 -1.67508
 4224 1  -40.713746 -13.101279 -1.67508
 4225 1  -40.699851 -11.681347 -1.67508
 4226 1  -39.463206 -10.983414 -1.67508
 4227 1  -41.950390 -13.799212 -1.67508
 4228 1  -43.173140 -13.077212 -1.67508
 4229 1  -43.159245 -11.657280 -1.67508
 4230 1  -41.922601 -10.959348 -1.67508
 4231 1  -44.409785 -13.775145 -1.67508
 4232 1  -45.632535 -13.053146 -1.67508
 4233 1  -45.618640 -11.633214 -1.67508
 4234 1  -44.381995 -10.935281 -1.67508
 4235 1  -46.869179 -13.751078 -1.67508
 4236 1  -48.091929 -13.029079 -1.67508
 4237 1  -48.078034 -11.609147 -1.67508
 4238 1  -46.841389 -10.911214 -1.67508
 4239 1  -49.328574 -13.727012 -1.67508
 4240 1  -50.551323 -13.005013 -1.67508
 4241 1  -50.537428 -11.585080 -1.67508
 4242 1  -49.300784 -10.887148 -1.67508
 4243 1  -51.787968 -13.702945 -1.67508
 4244 1  -53.010718 -12.980946 -1.67508
 4245 1  -52.996823 -11.561014 -1.67508
 4246 1  -51.760178 -10.863081 -1.67508
 4247 1  -54.247362 -13.678879 -1.67508
 4248 1  -55.470112 -12.956879 -1.67508
 4249 1  -55.456217 -11.536947 -1.67508
 4250 1  -54.219573 -10.839015 -1.67508
 4251 1  -56.706757 -13.654812 -1.67508
 4252 1  -57.929506 -12.932813 -1.67508
 4253 1  -57.915612 -11.512881 -1.67508
 4254 1  -56.678967 -10.814948 -1.67508
 4255 1  -59.166151 -13.630745 -1.67508
 4256 1  -60.388901 -12.908746 -1.67508
 4257 1  -60.375006 -11.488814 -1.67508
 4258 1  -59.138361 -10.790881 -1.67508
 4259 1  -61.625546 -13.606679 -1.67508
 4260 1  -62.848295 -12.884679 -1.67508
 4261 1  -62.834400 -11.464747 -1.67508
 4262 1  -61.597756 -10.766815 -1.67508
 4263 1  -64.084940 -13.582612 -1.67508
 4264 1  -65.307690 -12.860613 -1.67508
 4265 1  -65.293795 -11.440681 -1.67508
 4266 1  -64.057150 -10.742748 -1.67508
 4267 1  -66.544334 -13.558545 -1.67508
 4268 1  -67.767084 -12.836546 -1.67508
 4269 1  -67.753189 -11.416614 -1.67508
 4270 1  -66.516545 -10.718681 -1.67508
 4271 1  -69.003729 -13.534479 -1.67508
 4272 1  -70.226478 -12.812479 -1.67508
 4273 1  -70.212584 -11.392547 -1.67508
 4274 1  -68.975939 -10.694615 -1.67508
 4275 1  -71.463123 -13.510412 -1.67508
 4276 1  -72.685873 -12.788413 -1.67508
 4277 1  -72.671978 -11.368481 -1.67508
 4278 1  -71.435333 -10.670548 -1.67508
 4279 1  -73.922518 -13.486345 -1.67508
 4280 1  -75.145267 -12.764346 -1.67508
 4281 1  -75.131372 -11.344414 -1.67508
 4282 1  -73.894728 -10.646481 -1.67508
 4283 1  -76.381912 -13.462279 -1.67508
 4284 1  -77.604662 -12.740279 -1.67508
 4285 1  -77.590767 -11.320347 -1.67508
 4286 1  -76.354122 -10.622415 -1.67508
 4287 1  -78.841306 -13.438212 -1.67508
 4288 1  -80.064056 -12.716213 -1.67508
 4289 1  -80.050161 -11.296281 -1.67508
 4290 1  -78.813517 -10.598348 -1.67508
 4291 1  -81.300701 -13.414145 -1.67508
 4292 1  -82.523450 -12.692146 -1.67508
 4293 1  -82.509556 -11.272214 -1.67508
 4294 1  -81.272911 -10.574281 -1.67508
 4295 1  -83.760095 -13.390079 -1.67508
 4296 1  -84.982845 -12.668079 -1.67508
 4297 1  -84.968950 -11.248147 -1.67508
 4298 1  -83.732305 -10.550215 -1.67508
 4299 1  -86.219489 -13.366012 -1.67508
 4300 1  -87.442239 -12.644013 -1.67508
 4301 1  -87.428344 -11.224081 -1.67508
 4302 1  -86.191700 -10.526148 -1.67508
 4303 1  -88.678884 -13.341946 -1.67508
 4304 1  -89.901634 -12.619946 -1.67508
 4305 1  -89.887739 -11.200014 -1.67508
 4306 1  -88.651094 -10.502081 -1.67508
 4307 1  -91.138278 -13.317879 -1.67508
 4308 1  -92.361028 -12.595880 -1.67508
 4309 1  -92.347133 -11.175948 -1.67508
 4310 1  -91.110489 -10.478015 -1.67508
 4311 1  -93.597673 -13.293812 -1.67508
 4312 1  -94.820422 -12.571813 -1.67508
 4313 1  -94.806528 -11.151881 -1.67508
 4314 1  -93.569883 -10.453948 -1.67508
 4315 1  -96.057067 -13.269746 -1.67508
 4316 1  -97.279817 -12.547746 -1.67508
 4317 1  -97.265922 -11.127814 -1.67508
 4318 1  -96.029277 -10.429882 -1.67508
 4319 1  -98.516461 -13.245679 -1.67508
 4320 1  -99.739211 -12.523680 -1.67508
 4321 1  -99.725316 -11.103748 -1.67508
 4322 1  -98.488672 -10.405815 -1.67508
 4323 1 -100.975856 -13.221612 -1.67508
 4324 1 -102.198606 -12.499613 -1.67508
 4325 1 -102.184711 -11.079681 -1.67508
 4326 1 -100.948066 -10.381748 -1.67508
 4327 1 -103.435250 -13.197546 -1.67508
 4328 1 -104.658000 -12.475546 -1.67508
 4329 1 -104.644105 -11.055614 -1.67508
 4330 1 -103.407460 -10.357682 -1.67508
 4331 1 -105.894645 -13.173479 -1.67508
 4332 1 -107.117394 -12.451480 -1.67508
 4333 1 -107.103500 -11.031548 -1.67508
 4334 1 -105.866855 -10.333615 -1.67508
 4335 1 -108.354039 -13.149412 -1.67508
 4336 1 -108.326249 -10.309548 -1.67508
 4337 1  108.114352 -11.007481 -1.67508
 4338 1  106.891603 -10.285482 -1.67508
 4339 1  106.905498  -8.865550 -1.67508
 4340 1  108.142142  -8.167617 -1.67508
 4341 1  105.654958 -10.983414 -1.67508
 4342 1  104.432208 -10.261415 -1.67508
 4343 1  104.446103  -8.841483 -1.67508
 4344 1  105.682748  -8.143550 -1.67508
 4345 1  103.195564 -10.959348 -1.67508
 4346 1  101.972814 -10.237348 -1.67508
 4347 1  101.986709  -8.817416 -1.67508
 4348 1  103.223353  -8.119484 -1.67508
 4349 1  100.736169 -10.935281 -1.67508
 4350 1   99.513420 -10.213282 -1.67508
 4351 1   99.527314  -8.793350 -1.67508
 4352 1  100.763959  -8.095417 -1.67508
 4353 1   98.276775 -10.911214 -1.67508
 4354 1   97.054025 -10.189215 -1.67508
 4355 1   97.067920  -8.769283 -1.67508
 4356 1   98.304565  -8.071350 -1.67508
 4357 1   95.817380 -10.887148 -1.67508
 4358 1   94.594631 -10.165148 -1.67508
 4359 1   94.608526  -8.745216 -1.67508
 4360 1   95.845170  -8.047284 -1.67508
 4361 1   93.357986 -10.863081 -1.67508
 4362 1   92.135236 -10.141082 -1.67508
 4363 1   92.149131  -8.721150 -1.67508
 4364 1   93.385776  -8.023217 -1.67508
 4365 1   90.898592 -10.839015 -1.67508
 4366 1   89.675842 -10.117015 -1.67508
 4367 1   89.689737  -8.697083 -1.67508
 4368 1   90.926381  -7.999150 -1.67508
 4369 1   88.439197 -10.814948 -1.67508
 4370 1   87.216448 -10.092949 -1.67508
 4371 1   87.230342  -8.673017 -1.67508
 4372 1   88.466987  -7.975084 -1.67508
 4373 1   85.979803 -10.790881 -1.67508
 4374 1   84.757053 -10.068882 -1.67508
 4375 1   84.770948  -8.648950 -1.67508
 4376 1   86.007593  -7.951017 -1.67508
 4377 1   83.520409 -10.766815 -1.67508
 4378 1   82.297659 -10.044815 -1.67508
 4379 1   82.311554  -8.624883 -1.67508
 4380 1   83.548198  -7.926951 -1.67508
 4381 1   81.061014 -10.742748 -1.67508
 4382 1   79.838264 -10.020749 -1.67508
 4383 1   79.852159  -8.600817 -1.67508
 4384 1   81.088804  -7.902884 -1.67508
 4385 1   78.601620 -10.718681 -1.67508
 4386 1   77.378870  -9.996682 -1.67508
 4387 1   77.392765  -8.576750 -1.67508
 4388 1   78.629409  -7.878817 -1.67508
 4389 1   76.142225 -10.694615 -1.67508
 4390 1   74.919476  -9.972615 -1.67508
 4391 1   74.933370  -8.552683 -1.67508
 4392 1   76.170015  -7.854751 -1.67508
 4393 1   73.682831 -10.670548 -1.67508
 4394 1   72.460081  -9.948549 -1.67508
 4395 1   72.473976  -8.528617 -1.67508
 4396 1   73.710621  -7.830684 -1.67508
 4397 1   71.223437 -10.646481 -1.67508
 4398 1   70.000687  -9.924482 -1.67508
 4399 1   70.014582  -8.504550 -1.67508
 4400 1   71.251226  -7.806617 -1.67508
 4401 1   68.764042 -10.622415 -1.67508
 4402 1   67.541292  -9.900415 -1.67508
 4403 1   67.555187  -8.480483 -1.67508
 4404 1   68.791832  -7.782551 -1.67508
 4405 1   66.304648 -10.598348 -1.67508
 4406 1   65.081898  -9.876349 -1.67508
 4407 1   65.095793  -8.456417 -1.67508
 4408 1   66.332438  -7.758484 -1.67508
 4409 1   63.845253 -10.574281 -1.67508
 4410 1   62.622504  -9.852282 -1.67508
 4411 1   62.636398  -8.432350 -1.67508
 4412 1   63.873043  -7.734417 -1.67508
 4413 1   61.385859 -10.550215 -1.67508
 4414 1   60.163109  -9.828215 -1.67508
 4415 1   60.177004  -8.408283 -1.67508
 4416 1   61.413649  -7.710351 -1.67508
 4417 1   58.926465 -10.526148 -1.67508
 4418 1   57.703715  -9.804149 -1.67508
 4419 1   57.717610  -8.384217 -1.67508
 4420 1   58.954254  -7.686284 -1.67508
 4421 1   56.467070 -10.502081 -1.67508
 4422 1   55.244320  -9.780082 -1.67508
 4423 1   55.258215  -8.360150 -1.67508
 4424 1   56.494860  -7.662217 -1.67508
 4425 1   54.007676 -10.478015 -1.67508
 4426 1   52.784926  -9.756016 -1.67508
 4427 1   52.798821  -8.336084 -1.67508
 4428 1   54.035466  -7.638151 -1.67508
 4429 1   51.548281 -10.453948 -1.67508
 4430 1   50.325532  -9.731949 -1.67508
 4431 1   50.339426  -8.312017 -1.67508
 4432 1   51.576071  -7.614084 -1.67508
 4433 1   49.088887 -10.429882 -1.67508
 4434 1   47.866137  -9.707882 -1.67508
 4435 1   47.880032  -8.287950 -1.67508
 4436 1   49.116677  -7.590018 -1.67508
 4437 1   46.629493 -10.405815 -1.67508
 4438 1   45.406743  -9.683816 -1.67508
 4439 1   45.420638  -8.263884 -1.67508
 4440 1   46.657282  -7.565951 -1.67508
 4441 1   44.170098 -10.381748 -1.67508
 4442 1   42.947348  -9.659749 -1.67508
 4443 1   42.961243  -8.239817 -1.67508
 4444 1   44.197888  -7.541884 -1.67508
 4445 1   41.710704 -10.357682 -1.67508
 4446 1   40.487954  -9.635682 -1.67508
 4447 1   40.501849  -8.215750 -1.67508
 4448 1   41.738494  -7.517818 -1.67508
 4449 1   39.251309 -10.333615 -1.67508
 4450 1   38.028560  -9.611616 -1.67508
 4451 1   38.042455  -8.191684 -1.67508
 4452 1   39.279099  -7.493751 -1.67508
 4453 1   36.791915 -10.309548 -1.67508
 4454 1   35.569165  -9.587549 -1.67508
 4455 1   35.583060  -8.167617 -1.67508
 4456 1   36.819705  -7.469684 -1.67508
 4457 1   34.332521 -10.285482 -1.67508
 4458 1   33.109771  -9.563482 -1.67508
 4459 1   33.123666  -8.143550 -1.67508
 4460 1   34.360310  -7.445618 -1.67508
 4461 1   31.873126 -10.261415 -1.67508
 4462 1   30.650376  -9.539416 -1.67508
 4463 1   30.664271  -8.119484 -1.67508
 4464 1   31.900916  -7.421551 -1.67508
 4465 1   29.413732 -10.237348 -1.67508
 4466 1   28.190982  -9.515349 -1.67508
 4467 1   28.204877  -8.095417 -1.67508
 4468 1   29.441522  -7.397484 -1.67508
 4469 1   26.954337 -10.213282 -1.67508
 4470 1   25.731588  -9.491282 -1.67508
 4471 1   25.745483  -8.071350 -1.67508
 4472 1   26.982127  -7.373418 -1.67508
 4473 1   24.494943 -10.189215 -1.67508
 4474 1   23.272193  -9.467216 -1.67508
 4475 1   23.286088  -8.047284 -1.67508
 4476 1   24.522733  -7.349351 -1.67508
 4477 1   22.035549 -10.165148 -1.67508
 4478 1   20.812799  -9.443149 -1.67508
 4479 1   20.826694  -8.023217 -1.67508
 4480 1   22.063338  -7.325284 -1.67508
 4481 1   19.576154 -10.141082 -1.67508
 4482 1   18.353404  -9.419083 -1.67508
 4483 1   18.367299  -7.999150 -1.67508
 4484 1   19.603944  -7.301218 -1.67508
 4485 1   17.116760 -10.117015 -1.67508
 4486 1   15.894010  -9.395016 -1.67508
 4487 1   15.907905  -7.975084 -1.67508
 4488 1   17.144550  -7.277151 -1.67508
 4489 1   14.657365 -10.092949 -1.67508
 4490 1   13.434616  -9.370949 -1.67508
 4491 1   13.448511  -7.951017 -1.67508
 4492 1   14.685155  -7.253085 -1.67508
 4493 1   12.197971 -10.068882 -1.67508
 4494 1   10.975221  -9.346883 -1.67508
 4495 1   10.989116  -7.926951 -1.67508
 4496 1   12.225761  -7.229018 -1.67508
 4497 1    9.738577 -10.044815 -1.67508
 4498 1    8.515827  -9.322816 -1.67508
 4499 1    8.529722  -7.902884 -1.67508
 4500 1    9.766366  -7.204951 -1.67508
 4501 1    7.279182 -10.020749 -1.67508
 4502 1    6.056432  -9.298749 -1.67508
 4503 1    6.070327  -7.878817 -1.67508
 4504 1    7.306972  -7.180885 -1.67508
 4505 1    4.819788  -9.996682 -1.67508
 4506 1    3.597038  -9.274683 -1.67508
 4507 1    3.610933  -7.854751 -1.67508
 4508 1    4.847578  -7.156818 -1.67508
 4509 1    2.360393  -9.972615 -1.67508
 4510 1    1.137644  -9.250616 -1.67508
 4511 1    1.151539  -7.830684 -1.67508
 4512 1    2.388183  -7.132751 -1.67508
 4513 1   -0.099001  -9.948549 -1.67508
 4514 1   -1.321751  -9.226549 -1.67508
 4515 1   -1.307856  -7.806617 -1.67508
 4516 1   -0.071211  -7.108685 -1.67508
 4517 1   -2.558395  -9.924482 -1.67508
 4518 1   -3.781145  -9.202483 -1.67508
 4519 1   -3.767250  -7.782551 -1.67508
 4520 1   -2.530606  -7.084618 -1.67508
 4521 1   -5.017790  -9.900415 -1.67508
 4522 1   -6.240540  -9.178416 -1.67508
 4523 1   -6.226645  -7.758484 -1.67508
 4524 1   -4.990000  -7.060551 -1.67508
 4525 1   -7.477184  -9.876349 -1.67508
 4526 1   -8.699934  -9.154349 -1.67508
 4527 1   -8.686039  -7.734417 -1.67508
 4528 1   -7.449394  -7.036485 -1.67508
 4529 1   -9.936579  -9.852282 -1.67508
 4530 1  -11.159328  -9.130283 -1.67508
 4531 1  -11.145433  -7.710351 -1.67508
 4532 1   -9.908789  -7.012418 -1.67508
 4533 1  -12.395973  -9.828215 -1.67508
 4534 1  -13.618723  -9.106216 -1.67508
 4535 1  -13.604828  -7.686284 -1.67508
 4536 1  -12.368183  -6.988351 -1.67508
 4537 1  -14.855367  -9.804149 -1.67508
 4538 1  -16.078117  -9.082149 -1.67508
 4539 1  -16.064222  -7.662217 -1.67508
 4540 1  -14.827578  -6.964285 -1.67508
 4541 1  -17.314762  -9.780082 -1.67508
 4542 1  -18.537511  -9.058083 -1.67508
 4543 1  -18.523617  -7.638151 -1.67508
 4544 1  -17.286972  -6.940218 -1.67508
 4545 1  -19.774156  -9.756016 -1.67508
 4546 1  -20.996906  -9.034016 -1.67508
 4547 1  -20.983011  -7.614084 -1.67508
 4548 1  -19.746366  -6.916151 -1.67508
 4549 1  -22.233551  -9.731949 -1.67508
 4550 1  -23.456300  -9.009950 -1.67508
 4551 1  -23.442405  -7.590018 -1.67508
 4552 1  -22.205761  -6.892085 -1.67508
 4553 1  -24.692945  -9.707882 -1.67508
 4554 1  -25.915695  -8.985883 -1.67508
 4555 1  -25.901800  -7.565951 -1.67508
 4556 1  -24.665155  -6.868018 -1.67508
 4557 1  -27.152339  -9.683816 -1.67508
 4558 1  -28.375089  -8.961816 -1.67508
 4559 1  -28.361194  -7.541884 -1.67508
 4560 1  -27.124550  -6.843952 -1.67508
 4561 1  -29.611734  -9.659749 -1.67508
 4562 1  -30.834483  -8.937750 -1.67508
 4563 1  -30.820589  -7.517818 -1.67508
 4564 1  -29.583944  -6.819885 -1.67508
 4565 1  -32.071128  -9.635682 -1.67508
 4566 1  -33.293878  -8.913683 -1.67508
 4567 1  -33.279983  -7.493751 -1.67508
 4568 1  -32.043338  -6.795818 -1.67508
 4569 1  -34.530523  -9.611616 -1.67508
 4570 1  -35.753272  -8.889616 -1.67508
 4571 1  -35.739377  -7.469684 -1.67508
 4572 1  -34.502733  -6.771752 -1.67508
 4573 1  -36.989917  -9.587549 -1.67508
 4574 1  -38.212667  -8.865550 -1.67508
 4575 1  -38.198772  -7.445618 -1.67508
 4576 1  -36.962127  -6.747685 -1.67508
 4577 1  -39.449311  -9.563482 -1.67508
 4578 1  -40.672061  -8.841483 -1.67508
 4579 1  -40.658166  -7.421551 -1.67508
 4580 1  -39.421522  -6.723618 -1.67508
 4581 1  -41.908706  -9.539416 -1.67508
 4582 1  -43.131455  -8.817416 -1.67508
 4583 1  -43.117561  -7.397484 -1.67508
 4584 1  -41.880916  -6.699552 -1.67508
 4585 1  -44.368100  -9.515349 -1.67508
 4586 1  -45.590850  -8.793350 -1.67508
 4587 1  -45.576955  -7.373418 -1.67508
 4588 1  -44.340310  -6.675485 -1.67508
 4589 1  -46.827494  -9.491282 -1.67508
 4590 1  -48.050244  -8.769283 -1.67508
 4591 1  -48.036349  -7.349351 -1.67508
 4592 1  -46.799705  -6.651418 -1.67508
 4593 1  -49.286889  -9.467216 -1.67508
 4594 1  -50.509639  -8.745216 -1.67508
 4595 1  -50.495744  -7.325284 -1.67508
 4596 1  -49.259099  -6.627352 -1.67508
 4597 1  -51.746283  -9.443149 -1.67508
 4598 1  -52.969033  -8.721150 -1.67508
 4599 1  -52.955138  -7.301218 -1.67508
 4600 1  -51.718494  -6.603285 -1.67508
 4601 1  -54.205678  -9.419083 -1.67508
 4602 1  -55.428427  -8.697083 -1.67508
 4603 1  -55.414533  -7.277151 -1.67508
 4604 1  -54.177888  -6.579218 -1.67508
 4605 1  -56.665072  -9.395016 -1.67508
 4606 1  -57.887822  -8.673017 -1.67508
 4607 1  -57.873927  -7.253085 -1.67508
 4608 1  -56.637282  -6.555152 -1.67508
 4609 1  -59.124466  -9.370949 -1.67508
 4610 1  -60.347216  -8.648950 -1.67508
 4611 1  -60.333321  -7.229018 -1.67508
 4612 1  -59.096677  -6.531085 -1.67508
 4613 1  -61.583861  -9.346883 -1.67508
 4614 1  -62.806611  -8.624883 -1.67508
 4615 1  -62.792716  -7.204951 -1.67508
 4616 1  -61.556071  -6.507019 -1.67508
 4617 1  -64.043255  -9.322816 -1.67508
 4618 1  -65.266005  -8.600817 -1.67508
 4619 1  -65.252110  -7.180885 -1.67508
 4620 1  -64.015465  -6.482952 -1.67508
 4621 1  -66.502650  -9.298749 -1.67508
 4622 1  -67.725399  -8.576750 -1.67508
 4623 1  -67.711505  -7.156818 -1.67508
 4624 1  -66.474860  -6.458885 -1.67508
 4625 1  -68.962044  -9.274683 -1.67508
 4626 1  -70.184794  -8.552683 -1.67508
 4627 1  -70.170899  -7.132751 -1.67508
 4628 1  -68.934254  -6.434819 -1.67508
 4629 1  -71.421438  -9.250616 -1.67508
 4630 1  -72.644188  -8.528617 -1.67508
 4631 1  -72.630293  -7.108685 -1.67508
 4632 1  -71.393649  -6.410752 -1.67508
 4633 1  -73.880833  -9.226549 -1.67508
 4634 1  -75.103583  -8.504550 -1.67508
 4635 1  -75.089688  -7.084618 -1.67508
 4636 1  -73.853043  -6.386685 -1.67508
 4637 1  -76.340227  -9.202483 -1.67508
 4638 1  -77.562977  -8.480483 -1.67508
 4639 1  -77.549082  -7.060551 -1.67508
 4640 1  -76.312437  -6.362619 -1.67508
 4641 1  -78.799622  -9.178416 -1.67508
 4642 1  -80.022371  -8.456417 -1.67508
 4643 1  -80.008477  -7.036485 -1.67508
 4644 1  -78.771832  -6.338552 -1.67508
 4645 1  -81.259016  -9.154349 -1.67508
 4646 1  -82.481766  -8.432350 -1.67508
 4647 1  -82.467871  -7.012418 -1.67508
 4648 1  -81.231226  -6.314485 -1.67508
 4649 1  -83.718410  -9.130283 -1.67508
 4650 1  -84.941160  -8.408283 -1.67508
 4651 1  -84.927265  -6.988351 -1.67508
 4652 1  -83.690621  -6.290419 -1.67508
 4653 1  -86.177805  -9.106216 -1.67508
 4654 1  -87.400555  -8.384217 -1.67508
 4655 1  -87.386660  -6.964285 -1.67508
 4656 1  -86.150015  -6.266352 -1.67508
 4657 1  -88.637199  -9.082149 -1.67508
 4658 1  -89.859949  -8.360150 -1.67508
 4659 1  -89.846054  -6.940218 -1.67508
 4660 1  -88.609409  -6.242285 -1.67508
 4661 1  -91.096594  -9.058083 -1.67508
 4662 1  -92.319343  -8.336084 -1.67508
 4663 1  -92.305448  -6.916151 -1.67508
 4664 1  -91.068804  -6.218219 -1.67508
 4665 1  -93.555988  -9.034016 -1.67508
 4666 1  -94.778738  -8.312017 -1.67508
 4667 1  -94.764843  -6.892085 -1.67508
 4668 1  -93.528198  -6.194152 -1.67508
 4669 1  -96.015382  -9.009950 -1.67508
 4670 1  -97.238132  -8.287950 -1.67508
 4671 1  -97.224237  -6.868018 -1.67508
 4672 1  -95.987593  -6.170086 -1.67508
 4673 1  -98.474777  -8.985883 -1.67508
 4674 1  -99.697527  -8.263884 -1.67508
 4675 1  -99.683632  -6.843952 -1.67508
 4676 1  -98.446987  -6.146019 -1.67508
 4677 1 -100.934171  -8.961816 -1.67508
 4678 1 -102.156921  -8.239817 -1.67508
 4679 1 -102.143026  -6.819885 -1.67508
 4680 1 -100.906381  -6.121952 -1.67508
 4681 1 -103.393566  -8.937750 -1.67508
 4682 1 -104.616315  -8.215750 -1.67508
 4683 1 -104.602420  -6.795818 -1.67508
 4684 1 -103.365776  -6.097886 -1.67508
 4685 1 -105.852960  -8.913683 -1.67508
 4686 1 -107.075710  -8.191684 -1.67508
 4687 1 -107.061815  -6.771752 -1.67508
 4688 1 -105.825170  -6.073819 -1.67508
 4689 1 -108.312354  -8.889616 -1.67508
 4690 1 -108.284565  -6.049752 -1.67508
 4691 1  108.156037  -6.747685 -1.67508
 4692 1  106.933287  -6.025686 -1.67508
 4693 1  106.947182  -4.605754 -1.67508
 4694 1  108.183827  -3.907821 -1.67508
 4695 1  105.696643  -6.723618 -1.67508
 4696 1  104.473893  -6.001619 -1.67508
 4697 1  104.487788  -4.581687 -1.67508
 4698 1  105.724432  -3.883754 -1.67508
 4699 1  103.237248  -6.699552 -1.67508
 4700 1  102.014499  -5.977552 -1.67508
 4701 1  102.028393  -4.557620 -1.67508
 4702 1  103.265038  -3.859688 -1.67508
 4703 1  100.777854  -6.675485 -1.67508
 4704 1   99.555104  -5.953486 -1.67508
 4705 1   99.568999  -4.533554 -1.67508
 4706 1  100.805644  -3.835621 -1.67508
 4707 1   98.318460  -6.651418 -1.67508
 4708 1   97.095710  -5.929419 -1.67508
 4709 1   97.109605  -4.509487 -1.67508
 4710 1   98.346249  -3.811554 -1.67508
 4711 1   95.859065  -6.627352 -1.67508
 4712 1   94.636315  -5.905352 -1.67508
 4713 1   94.650210  -4.485420 -1.67508
 4714 1   95.886855  -3.787488 -1.67508
 4715 1   93.399671  -6.603285 -1.67508
 4716 1   92.176921  -5.881286 -1.67508
 4717 1   92.190816  -4.461354 -1.67508
 4718 1   93.427461  -3.763421 -1.67508
 4719 1   90.940276  -6.579218 -1.67508
 4720 1   89.717527  -5.857219 -1.67508
 4721 1   89.731421  -4.437287 -1.67508
 4722 1   90.968066  -3.739354 -1.67508
 4723 1   88.480882  -6.555152 -1.67508
 4724 1   87.258132  -5.833152 -1.67508
 4725 1   87.272027  -4.413220 -1.67508
 4726 1   88.508672  -3.715288 -1.67508
 4727 1   86.021488  -6.531085 -1.67508
 4728 1   84.798738  -5.809086 -1.67508
 4729 1   84.812633  -4.389154 -1.67508
 4730 1   86.049277  -3.691221 -1.67508
 4731 1   83.562093  -6.507019 -1.67508
 4732 1   82.339343  -5.785019 -1.67508
 4733 1   82.353238  -4.365087 -1.67508
 4734 1   83.589883  -3.667155 -1.67508
 4735 1   81.102699  -6.482952 -1.67508
 4736 1   79.879949  -5.760953 -1.67508
 4737 1   79.893844  -4.341021 -1.67508
 4738 1   81.130489  -3.643088 -1.67508
 4739 1   78.643304  -6.458885 -1.67508
 4740 1   77.420555  -5.736886 -1.67508
 4741 1   77.434449  -4.316954 -1.67508
 4742 1   78.671094  -3.619021 -1.67508
 4743 1   76.183910  -6.434819 -1.67508
 4744 1   74.961160  -5.712819 -1.67508
 4745 1   74.975055  -4.292887 -1.67508
 4746 1   76.211700  -3.594955 -1.67508
 4747 1   73.724516  -6.410752 -1.67508
 4748 1   72.501766  -5.688753 -1.67508
 4749 1   72.515661  -4.268821 -1.67508
 4750 1   73.752305  -3.570888 -1.67508
 4751 1   71.265121  -6.386685 -1.67508
 4752 1   70.042371  -5.664686 -1.67508
 4753 1   70.056266  -4.244754 -1.67508
 4754 1   71.292911  -3.546821 -1.67508
 4755 1   68.805727  -6.362619 -1.67508
 4756 1   67.582977  -5.640619 -1.67508
 4757 1   67.596872  -4.220687 -1.67508
 4758 1   68.833517  -3.522755 -1.67508
 4759 1   66.346332  -6.338552 -1.67508
 4760 1   65.123583  -5.616553 -1.67508
 4761 1   65.137478  -4.196621 -1.67508
 4762 1   66.374122  -3.498688 -1.67508
 4763 1   63.886938  -6.314485 -1.67508
 4764 1   62.664188  -5.592486 -1.67508
 4765 1   62.678083  -4.172554 -1.67508
 4766 1   63.914728  -3.474621 -1.67508
 4767 1   61.427544  -6.290419 -1.67508
 4768 1   60.204794  -5.568419 -1.67508
 4769 1   60.218689  -4.148487 -1.67508
 4770 1   61.455333  -3.450555 -1.67508
 4771 1   58.968149  -6.266352 -1.67508
 4772 1   57.745399  -5.544353 -1.67508
 4773 1   57.759294  -4.124421 -1.67508
 4774 1   58.995939  -3.426488 -1.67508
 4775 1   56.508755  -6.242285 -1.67508
 4776 1   55.286005  -5.520286 -1.67508
 4777 1   55.299900  -4.100354 -1.67508
 4778 1   56.536545  -3.402421 -1.67508
 4779 1   54.049360  -6.218219 -1.67508
 4780 1   52.826611  -5.496219 -1.67508
 4781 1   52.840506  -4.076287 -1.67508
 4782 1   54.077150  -3.378355 -1.67508
 4783 1   51.589966  -6.194152 -1.67508
 4784 1   50.367216  -5.472153 -1.67508
 4785 1   50.381111  -4.052221 -1.67508
 4786 1   51.617756  -3.354288 -1.67508
 4787 1   49.130572  -6.170086 -1.67508
 4788 1   47.907822  -5.448086 -1.67508
 4789 1   47.921717  -4.028154 -1.67508
 4790 1   49.158361  -3.330221 -1.67508
 4791 1   46.671177  -6.146019 -1.67508
 4792 1   45.448427  -5.424020 -1.67508
 4793 1   45.462322  -4.004088 -1.67508
 4794 1   46.698967  -3.306155 -1.67508
 4795 1   44.211783  -6.121952 -1.67508
 4796 1   42.989033  -5.399953 -1.67508
 4797 1   43.002928  -3.980021 -1.67508
 4798 1   44.239573  -3.282088 -1.67508
 4799 1   41.752388  -6.097886 -1.67508
 4800 1   40.529639  -5.375886 -1.67508
 4801 1   40.543534  -3.955954 -1.67508
 4802 1   41.780178  -3.258022 -1.67508
 4803 1   39.292994  -6.073819 -1.67508
 4804 1   38.070244  -5.351820 -1.67508
 4805 1   38.084139  -3.931888 -1.67508
 4806 1   39.320784  -3.233955 -1.67508
 4807 1   36.833600  -6.049752 -1.67508
 4808 1   35.610850  -5.327753 -1.67508
 4809 1   35.624745  -3.907821 -1.67508
 4810 1   36.861389  -3.209888 -1.67508
 4811 1   34.374205  -6.025686 -1.67508
 4812 1   33.151455  -5.303686 -1.67508
 4813 1   33.165350  -3.883754 -1.67508
 4814 1   34.401995  -3.185822 -1.67508
 4815 1   31.914811  -6.001619 -1.67508
 4816 1   30.692061  -5.279620 -1.67508
 4817 1   30.705956  -3.859688 -1.67508
 4818 1   31.942601  -3.161755 -1.67508
 4819 1   29.455416  -5.977552 -1.67508
 4820 1   28.232667  -5.255553 -1.67508
 4821 1   28.246562  -3.835621 -1.67508
 4822 1   29.483206  -3.137688 -1.67508
 4823 1   26.996022  -5.953486 -1.67508
 4824 1   25.773272  -5.231486 -1.67508
 4825 1   25.787167  -3.811554 -1.67508
 4826 1   27.023812  -3.113622 -1.67508
 4827 1   24.536628  -5.929419 -1.67508
 4828 1   23.313878  -5.207420 -1.67508
 4829 1   23.327773  -3.787488 -1.67508
 4830 1   24.564417  -3.089555 -1.67508
 4831 1   22.077233  -5.905352 -1.67508
 4832 1   20.854483  -5.183353 -1.67508
 4833 1   20.868378  -3.763421 -1.67508
 4834 1   22.105023  -3.065488 -1.67508
 4835 1   19.617839  -5.881286 -1.67508
 4836 1   18.395089  -5.159286 -1.67508
 4837 1   18.408984  -3.739354 -1.67508
 4838 1   19.645629  -3.041422 -1.67508
 4839 1   17.158444  -5.857219 -1.67508
 4840 1   15.935695  -5.135220 -1.67508
 4841 1   15.949590  -3.715288 -1.67508
 4842 1   17.186234  -3.017355 -1.67508
 4843 1   14.699050  -5.833152 -1.67508
 4844 1   13.476300  -5.111153 -1.67508
 4845 1   13.490195  -3.691221 -1.67508
 4846 1   14.726840  -2.993288 -1.67508
 4847 1   12.239656  -5.809086 -1.67508
 4848 1   11.016906  -5.087087 -1.67508
 4849 1   11.030801  -3.667155 -1.67508
 4850 1   12.267445  -2.969222 -1.67508
 4851 1    9.780261  -5.785019 -1.67508
 4852 1    8.557512  -5.063020 -1.67508
 4853 1    8.571406  -3.643088 -1.67508
 4854 1    9.808051  -2.945155 -1.67508
 4855 1    7.320867  -5.760953 -1.67508
 4856 1    6.098117  -5.038953 -1.67508
 4857 1    6.112012  -3.619021 -1.67508
 4858 1    7.348657  -2.921089 -1.67508
 4859 1    4.861472  -5.736886 -1.67508
 4860 1    3.638723  -5.014887 -1.67508
 4861 1    3.652618  -3.594955 -1.67508
 4862 1    4.889262  -2.897022 -1.67508
 4863 1    2.402078  -5.712819 -1.67508
 4864 1    1.179328  -4.990820 -1.67508
 4865 1    1.193223  -3.570888 -1.67508
 4866 1    2.429868  -2.872955 -1.67508
 4867 1   -0.057316  -5.688753 -1.67508
 4868 1   -1.280066  -4.966753 -1.67508
 4869 1   -1.266171  -3.546821 -1.67508
 4870 1   -0.029527  -2.848889 -1.67508
 4871 1   -2.516711  -5.664686 -1.67508
 4872 1   -3.739460  -4.942687 -1.67508
 4873 1   -3.725566  -3.522755 -1.67508
 4874 1   -2.488921  -2.824822 -1.67508
 4875 1   -4.976105  -5.640619 -1.67508
 4876 1   -6.198855  -4.918620 -1.67508
 4877 1   -6.184960  -3.498688 -1.67508
 4878 1   -4.948315  -2.800755 -1.67508
 4879 1   -7.435500  -5.616553 -1.67508
 4880 1   -8.658249  -4.894553 -1.67508
 4881 1   -8.644354  -3.474621 -1.67508
 4882 1   -7.407710  -2.776689 -1.67508
 4883 1   -9.894894  -5.592486 -1.67508
 4884 1  -11.117644  -4.870487 -1.67508
 4885 1  -11.103749  -3.450555 -1.67508
 4886 1   -9.867104  -2.752622 -1.67508
 4887 1  -12.354288  -5.568419 -1.67508
 4888 1  -13.577038  -4.846420 -1.67508
 4889 1  -13.563143  -3.426488 -1.67508
 4890 1  -12.326499  -2.728555 -1.67508
 4891 1  -14.813683  -5.544353 -1.67508
 4892 1  -16.036432  -4.822353 -1.67508
 4893 1  -16.022538  -3.402421 -1.67508
 4894 1  -14.785893  -2.704489 -1.67508
 4895 1  -17.273077  -5.520286 -1.67508
 4896 1  -18.495827  -4.798287 -1.67508
 4897 1  -18.481932  -3.378355 -1.67508
 4898 1  -17.245287  -2.680422 -1.67508
 4899 1  -19.732471  -5.496219 -1.67508
 4900 1  -20.955221  -4.774220 -1.67508
 4901 1  -20.941326  -3.354288 -1.67508
 4902 1  -19.704682  -2.656355 -1.67508
 4903 1  -22.191866  -5.472153 -1.67508
 4904 1  -23.414616  -4.750153 -1.67508
 4905 1  -23.400721  -3.330221 -1.67508
 4906 1  -22.164076  -2.632289 -1.67508
 4907 1  -24.651260  -5.448086 -1.67508
 4908 1  -25.874010  -4.726087 -1.67508
 4909 1  -25.860115  -3.306155 -1.67508
 4910 1  -24.623471  -2.608222 -1.67508
 4911 1  -27.110655  -5.424020 -1.67508
 4912 1  -28.333404  -4.702020 -1.67508
 4913 1  -28.319510  -3.282088 -1.67508
 4914 1  -27.082865  -2.584156 -1.67508
 4915 1  -29.570049  -5.399953 -1.67508
 4916 1  -30.792799  -4.677954 -1.67508
 4917 1  -30.778904  -3.258022 -1.67508
 4918 1  -29.542259  -2.560089 -1.67508
 4919 1  -32.029443  -5.375886 -1.67508
 4920 1  -33.252193  -4.653887 -1.67508
 4921 1  -33.238298  -3.233955 -1.67508
 4922 1  -32.001654  -2.536022 -1.67508
 4923 1  -34.488838  -5.351820 -1.67508
 4924 1  -35.711588  -4.629820 -1.67508
 4925 1  -35.697693  -3.209888 -1.67508
 4926 1  -34.461048  -2.511956 -1.67508
 4927 1  -36.948232  -5.327753 -1.67508
 4928 1  -38.170982  -4.605754 -1.67508
 4929 1  -38.157087  -3.185822 -1.67508
 4930 1  -36.920442  -2.487889 -1.67508
 4931 1  -39.407627  -5.303686 -1.67508
 4932 1  -40.630376  -4.581687 -1.67508
 4933 1  -40.616482  -3.161755 -1.67508
 4934 1  -39.379837  -2.463822 -1.67508
 4935 1  -41.867021  -5.279620 -1.67508
 4936 1  -43.089771  -4.557620 -1.67508
 4937 1  -43.075876  -3.137688 -1.67508
 4938 1  -41.839231  -2.439756 -1.67508
 4939 1  -44.326415  -5.255553 -1.67508
 4940 1  -45.549165  -4.533554 -1.67508
 4941 1  -45.535270  -3.113622 -1.67508
 4942 1  -44.298626  -2.415689 -1.67508
 4943 1  -46.785810  -5.231486 -1.67508
 4944 1  -48.008560  -4.509487 -1.67508
 4945 1  -47.994665  -3.089555 -1.67508
 4946 1  -46.758020  -2.391622 -1.67508
 4947 1  -49.245204  -5.207420 -1.67508
 4948 1  -50.467954  -4.485420 -1.67508
 4949 1  -50.454059  -3.065488 -1.67508
 4950 1  -49.217414  -2.367556 -1.67508
 4951 1  -51.704599  -5.183353 -1.67508
 4952 1  -52.927348  -4.461354 -1.67508
 4953 1  -52.913454  -3.041422 -1.67508
 4954 1  -51.676809  -2.343489 -1.67508
 4955 1  -54.163993  -5.159286 -1.67508
 4956 1  -55.386743  -4.437287 -1.67508
 4957 1  -55.372848  -3.017355 -1.67508
 4958 1  -54.136203  -2.319422 -1.67508
 4959 1  -56.623387  -5.135220 -1.67508
 4960 1  -57.846137  -4.413220 -1.67508
 4961 1  -57.832242  -2.993288 -1.67508
 4962 1  -56.595598  -2.295356 -1.67508
 4963 1  -59.082782  -5.111153 -1.67508
 4964 1  -60.305532  -4.389154 -1.67508
 4965 1  -60.291637  -2.969222 -1.67508
 4966 1  -59.054992  -2.271289 -1.67508
 4967 1  -61.542176  -5.087087 -1.67508
 4968 1  -62.764926  -4.365087 -1.67508
 4969 1  -62.751031  -2.945155 -1.67508
 4970 1  -61.514386  -2.247222 -1.67508
 4971 1  -64.001571  -5.063020 -1.67508
 4972 1  -65.224320  -4.341021 -1.67508
 4973 1  -65.210425  -2.921089 -1.67508
 4974 1  -63.973781  -2.223156 -1.67508
 4975 1  -66.460965  -5.038953 -1.67508
 4976 1  -67.683715  -4.316954 -1.67508
 4977 1  -67.669820  -2.897022 -1.67508
 4978 1  -66.433175  -2.199089 -1.67508
 4979 1  -68.920359  -5.014887 -1.67508
 4980 1  -70.143109  -4.292887 -1.67508
 4981 1  -70.129214  -2.872955 -1.67508
 4982 1  -68.892570  -2.175023 -1.67508
 4983 1  -71.379754  -4.990820 -1.67508
 4984 1  -72.602504  -4.268821 -1.67508
 4985 1  -72.588609  -2.848889 -1.67508
 4986 1  -71.351964  -2.150956 -1.67508
 4987 1  -73.839148  -4.966753 -1.67508
 4988 1  -75.061898  -4.244754 -1.67508
 4989 1  -75.048003  -2.824822 -1.67508
 4990 1  -73.811358  -2.126889 -1.67508
 4991 1  -76.298543  -4.942687 -1.67508
 4992 1  -77.521292  -4.220687 -1.67508
 4993 1  -77.507397  -2.800755 -1.67508
 4994 1  -76.270753  -2.102823 -1.67508
 4995 1  -78.757937  -4.918620 -1.67508
 4996 1  -79.980687  -4.196621 -1.67508
 4997 1  -79.966792  -2.776689 -1.67508
 4998 1  -78.730147  -2.078756 -1.67508
 4999 1  -81.217331  -4.894553 -1.67508
 5000 1  -82.440081  -4.172554 -1.67508
 5001 1  -82.426186  -2.752622 -1.67508
 5002 1  -81.189542  -2.054689 -1.67508
 5003 1  -83.676726  -4.870487 -1.67508
 5004 1  -84.899476  -4.148487 -1.67508
 5005 1  -84.885581  -2.728555 -1.67508
 5006 1  -83.648936  -2.030623 -1.67508
 5007 1  -86.136120  -4.846420 -1.67508
 5008 1  -87.358870  -4.124421 -1.67508
 5009 1  -87.344975  -2.704489 -1.67508
 5010 1  -86.108330  -2.006556 -1.67508
 5011 1  -88.595515  -4.822353 -1.67508
 5012 1  -89.818264  -4.100354 -1.67508
 5013 1  -89.804369  -2.680422 -1.67508
 5014 1  -88.567725  -1.982489 -1.67508
 5015 1  -91.054909  -4.798287 -1.67508
 5016 1  -92.277659  -4.076287 -1.67508
 5017 1  -92.263764  -2.656355 -1.67508
 5018 1  -91.027119  -1.958423 -1.67508
 5019 1  -93.514303  -4.774220 -1.67508
 5020 1  -94.737053  -4.052221 -1.67508
 5021 1  -94.723158  -2.632289 -1.67508
 5022 1  -93.486514  -1.934356 -1.67508
 5023 1  -95.973698  -4.750153 -1.67508
 5024 1  -97.196448  -4.028154 -1.67508
 5025 1  -97.182553  -2.608222 -1.67508
 5026 1  -95.945908  -1.910289 -1.67508
 5027 1  -98.433092  -4.726087 -1.67508
 5028 1  -99.655842  -4.004088 -1.67508
 5029 1  -99.641947  -2.584156 -1.67508
 5030 1  -98.405302  -1.886223 -1.67508
 5031 1 -100.892487  -4.702020 -1.67508
 5032 1 -102.115236  -3.980021 -1.67508
 5033 1 -102.101341  -2.560089 -1.67508
 5034 1 -100.864697  -1.862156 -1.67508
 5035 1 -103.351881  -4.677954 -1.67508
 5036 1 -104.574631  -3.955954 -1.67508
 5037 1 -104.560736  -2.536022 -1.67508
 5038 1 -103.324091  -1.838090 -1.67508
 5039 1 -105.811275  -4.653887 -1.67508
 5040 1 -107.034025  -3.931888 -1.67508
 5041 1 -107.020130  -2.511956 -1.67508
 5042 1 -105.783486  -1.814023 -1.67508
 5043 1 -108.270670  -4.629820 -1.67508
 5044 1 -108.242880  -1.789956 -1.67508
 5045 1  108.197722  -2.487889 -1.67508
 5046 1  106.974972  -1.765890 -1.67508
 5047 1  106.988867  -0.345958 -1.67508
 5048 1  108.225512   0.351975 -1.67508
 5049 1  105.738327  -2.463822 -1.67508
 5050 1  104.515578  -1.741823 -1.67508
 5051 1  104.529473  -0.321891 -1.67508
 5052 1  105.766117   0.376042 -1.67508
 5053 1  103.278933  -2.439756 -1.67508
 5054 1  102.056183  -1.717756 -1.67508
 5055 1  102.070078  -0.297824 -1.67508
 5056 1  103.306723   0.400108 -1.67508
 5057 1  100.819539  -2.415689 -1.67508
 5058 1   99.596789  -1.693690 -1.67508
 5059 1   99.610684  -0.273758 -1.67508
 5060 1  100.847328   0.424175 -1.67508
 5061 1   98.360144  -2.391622 -1.67508
 5062 1   97.137394  -1.669623 -1.67508
 5063 1   97.151289  -0.249691 -1.67508
 5064 1   98.387934   0.448242 -1.67508
 5065 1   95.900750  -2.367556 -1.67508
 5066 1   94.678000  -1.645556 -1.67508
 5067 1   94.691895  -0.225624 -1.67508
 5068 1   95.928540   0.472308 -1.67508
 5069 1   93.441355  -2.343489 -1.67508
 5070 1   92.218606  -1.621490 -1.67508
 5071 1   92.232501  -0.201558 -1.67508
 5072 1   93.469145   0.496375 -1.67508
 5073 1   90.981961  -2.319422 -1.67508
 5074 1   89.759211  -1.597423 -1.67508
 5075 1   89.773106  -0.177491 -1.67508
 5076 1   91.009751   0.520442 -1.67508
 5077 1   88.522567  -2.295356 -1.67508
 5078 1   87.299817  -1.573356 -1.67508
 5079 1   87.313712  -0.153424 -1.67508
 5080 1   88.550356   0.544508 -1.67508
 5081 1   86.063172  -2.271289 -1.67508
 5082 1   84.840422  -1.549290 -1.67508
 5083 1   84.854317  -0.129358 -1.67508
 5084 1   86.090962   0.568575 -1.67508
 5085 1   83.603778  -2.247222 -1.67508
 5086 1   82.381028  -1.525223 -1.67508
 5087 1   82.394923  -0.105291 -1.67508
 5088 1   83.631568   0.592642 -1.67508
 5089 1   81.144383  -2.223156 -1.67508
 5090 1   79.921634  -1.501157 -1.67508
 5091 1   79.935529  -0.081224 -1.67508
 5092 1   81.172173   0.616708 -1.67508
 5093 1   78.684989  -2.199089 -1.67508
 5094 1   77.462239  -1.477090 -1.67508
 5095 1   77.476134  -0.057158 -1.67508
 5096 1   78.712779   0.640775 -1.67508
 5097 1   76.225595  -2.175023 -1.67508
 5098 1   75.002845  -1.453023 -1.67508
 5099 1   75.016740  -0.033091 -1.67508
 5100 1   76.253384   0.664841 -1.67508
 5101 1   73.766200  -2.150956 -1.67508
 5102 1   72.543450  -1.428957 -1.67508
 5103 1   72.557345  -0.009025 -1.67508
 5104 1   73.793990   0.688908 -1.67508
 5105 1   71.306806  -2.126889 -1.67508
 5106 1   70.084056  -1.404890 -1.67508
 5107 1   70.097951   0.015042 -1.67508
 5108 1   71.334596   0.712975 -1.67508
 5109 1   68.847411  -2.102823 -1.67508
 5110 1   67.624662  -1.380823 -1.67508
 5111 1   67.638557   0.039109 -1.67508
 5112 1   68.875201   0.737041 -1.67508
 5113 1   66.388017  -2.078756 -1.67508
 5114 1   65.165267  -1.356757 -1.67508
 5115 1   65.179162   0.063175 -1.67508
 5116 1   66.415807   0.761108 -1.67508
 5117 1   63.928623  -2.054689 -1.67508
 5118 1   62.705873  -1.332690 -1.67508
 5119 1   62.719768   0.087242 -1.67508
 5120 1   63.956412   0.785175 -1.67508
 5121 1   61.469228  -2.030623 -1.67508
 5122 1   60.246478  -1.308623 -1.67508
 5123 1   60.260373   0.111309 -1.67508
 5124 1   61.497018   0.809241 -1.67508
 5125 1   59.009834  -2.006556 -1.67508
 5126 1   57.787084  -1.284557 -1.67508
 5127 1   57.800979   0.135375 -1.67508
 5128 1   59.037624   0.833308 -1.67508
 5129 1   56.550439  -1.982489 -1.67508
 5130 1   55.327690  -1.260490 -1.67508
 5131 1   55.341585   0.159442 -1.67508
 5132 1   56.578229   0.857375 -1.67508
 5133 1   54.091045  -1.958423 -1.67508
 5134 1   52.868295  -1.236423 -1.67508
 5135 1   52.882190   0.183509 -1.67508
 5136 1   54.118835   0.881441 -1.67508
 5137 1   51.631651  -1.934356 -1.67508
 5138 1   50.408901  -1.212357 -1.67508
 5139 1   50.422796   0.207575 -1.67508
 5140 1   51.659440   0.905508 -1.67508
 5141 1   49.172256  -1.910289 -1.67508
 5142 1   47.949507  -1.188290 -1.67508
 5143 1   47.963401   0.231642 -1.67508
 5144 1   49.200046   0.929575 -1.67508
 5145 1   46.712862  -1.886223 -1.67508
 5146 1   45.490112  -1.164223 -1.67508
 5147 1   45.504007   0.255709 -1.67508
 5148 1   46.740652   0.953641 -1.67508
 5149 1   44.253467  -1.862156 -1.67508
 5150 1   43.030718  -1.140157 -1.67508
 5151 1   43.044613   0.279775 -1.67508
 5152 1   44.281257   0.977708 -1.67508
 5153 1   41.794073  -1.838090 -1.67508
 5154 1   40.571323  -1.116090 -1.67508
 5155 1   40.585218   0.303842 -1.67508
 5156 1   41.821863   1.001775 -1.67508
 5157 1   39.334679  -1.814023 -1.67508
 5158 1   38.111929  -1.092024 -1.67508
 5159 1   38.125824   0.327908 -1.67508
 5160 1   39.362468   1.025841 -1.67508
 5161 1   36.875284  -1.789956 -1.67508
 5162 1   35.652535  -1.067957 -1.67508
 5163 1   35.666429   0.351975 -1.67508
 5164 1   36.903074   1.049908 -1.67508
 5165 1   34.415890  -1.765890 -1.67508
 5166 1   33.193140  -1.043890 -1.67508
 5167 1   33.207035   0.376042 -1.67508
 5168 1   34.443680   1.073974 -1.67508
 5169 1   31.956495  -1.741823 -1.67508
 5170 1   30.733746  -1.019824 -1.67508
 5171 1   30.747641   0.400108 -1.67508
 5172 1   31.984285   1.098041 -1.67508
 5173 1   29.497101  -1.717756 -1.67508
 5174 1   28.274351  -0.995757 -1.67508
 5175 1   28.288246   0.424175 -1.67508
 5176 1   29.524891   1.122108 -1.67508
 5177 1   27.037707  -1.693690 -1.67508
 5178 1   25.814957  -0.971690 -1.67508
 5179 1   25.828852   0.448242 -1.67508
 5180 1   27.065496   1.146174 -1.67508
 5181 1   24.578312  -1.669623 -1.67508
 5182 1   23.355563  -0.947624 -1.67508
 5183 1   23.369457   0.472308 -1.67508
 5184 1   24.606102   1.170241 -1.67508
 5185 1   22.118918  -1.645556 -1.67508
 5186 1   20.896168  -0.923557 -1.67508
 5187 1   20.910063   0.496375 -1.67508
 5188 1   22.146708   1.194308 -1.67508
 5189 1   19.659524  -1.621490 -1.67508
 5190 1   18.436774  -0.899490 -1.67508
 5191 1   18.450669   0.520442 -1.67508
 5192 1   19.687313   1.218374 -1.67508
 5193 1   17.200129  -1.597423 -1.67508
 5194 1   15.977379  -0.875424 -1.67508
 5195 1   15.991274   0.544508 -1.67508
 5196 1   17.227919   1.242441 -1.67508
 5197 1   14.740735  -1.573356 -1.67508
 5198 1   13.517985  -0.851357 -1.67508
 5199 1   13.531880   0.568575 -1.67508
 5200 1   14.768524   1.266508 -1.67508
 5201 1   12.281340  -1.549290 -1.67508
 5202 1   11.058591  -0.827290 -1.67508
 5203 1   11.072485   0.592642 -1.67508
 5204 1   12.309130   1.290574 -1.67508
 5205 1    9.821946  -1.525223 -1.67508
 5206 1    8.599196  -0.803224 -1.67508
 5207 1    8.613091   0.616708 -1.67508
 5208 1    9.849736   1.314641 -1.67508
 5209 1    7.362552  -1.501157 -1.67508
 5210 1    6.139802  -0.779157 -1.67508
 5211 1    6.153697   0.640775 -1.67508
 5212 1    7.390341   1.338708 -1.67508
 5213 1    4.903157  -1.477090 -1.67508
 5214 1    3.680407  -0.755091 -1.67508
 5215 1    3.694302   0.664841 -1.67508
 5216 1    4.930947   1.362774 -1.67508
 5217 1    2.443763  -1.453023 -1.67508
 5218 1    1.221013  -0.731024 -1.67508
 5219 1    1.234908   0.688908 -1.67508
 5220 1    2.471553   1.386841 -1.67508
 5221 1   -0.015632  -1.428957 -1.67508
 5222 1   -1.238381  -0.706957 -1.67508
 5223 1   -1.224487   0.712975 -1.67508
 5224 1    0.012158   1.410907 -1.67508
 5225 1   -2.475026  -1.404890 -1.67508
 5226 1   -3.697776  -0.682891 -1.67508
 5227 1   -3.683881   0.737041 -1.67508
 5228 1   -2.447236   1.434974 -1.67508
 5229 1   -4.934420  -1.380823 -1.67508
 5230 1   -6.157170  -0.658824 -1.67508
 5231 1   -6.143275   0.761108 -1.67508
 5232 1   -4.906631   1.459041 -1.67508
 5233 1   -7.393815  -1.356757 -1.67508
 5234 1   -8.616565  -0.634757 -1.67508
 5235 1   -8.602670   0.785175 -1.67508
 5236 1   -7.366025   1.483107 -1.67508
 5237 1   -9.853209  -1.332690 -1.67508
 5238 1  -11.075959  -0.610691 -1.67508
 5239 1  -11.062064   0.809241 -1.67508
 5240 1   -9.825419   1.507174 -1.67508
 5241 1  -12.312604  -1.308623 -1.67508
 5242 1  -13.535353  -0.586624 -1.67508
 5243 1  -13.521459   0.833308 -1.67508
 5244 1  -12.284814   1.531241 -1.67508
 5245 1  -14.771998  -1.284557 -1.67508
 5246 1  -15.994748  -0.562557 -1.67508
 5247 1  -15.980853   0.857375 -1.67508
 5248 1  -14.744208   1.555307 -1.67508
 5249 1  -17.231392  -1.260490 -1.67508
 5250 1  -18.454142  -0.538491 -1.67508
 5251 1  -18.440247   0.881441 -1.67508
 5252 1  -17.203603   1.579374 -1.67508
 5253 1  -19.690787  -1.236423 -1.67508
 5254 1  -20.913537  -0.514424 -1.67508
 5255 1  -20.899642   0.905508 -1.67508
 5256 1  -19.662997   1.603441 -1.67508
 5257 1  -22.150181  -1.212357 -1.67508
 5258 1  -23.372931  -0.490357 -1.67508
 5259 1  -23.359036   0.929575 -1.67508
 5260 1  -22.122391   1.627507 -1.67508
 5261 1  -24.609576  -1.188290 -1.67508
 5262 1  -25.832325  -0.466291 -1.67508
 5263 1  -25.818430   0.953641 -1.67508
 5264 1  -24.581786   1.651574 -1.67508
 5265 1  -27.068970  -1.164223 -1.67508
 5266 1  -28.291720  -0.442224 -1.67508
 5267 1  -28.277825   0.977708 -1.67508
 5268 1  -27.041180   1.675641 -1.67508
 5269 1  -29.528364  -1.140157 -1.67508
 5270 1  -30.751114  -0.418158 -1.67508
 5271 1  -30.737219   1.001775 -1.67508
 5272 1  -29.500575   1.699707 -1.67508
 5273 1  -31.987759  -1.116090 -1.67508
 5274 1  -33.210509  -0.394091 -1.67508
 5275 1  -33.196614   1.025841 -1.67508
 5276 1  -31.959969   1.723774 -1.67508
 5277 1  -34.447153  -1.092024 -1.67508
 5278 1  -35.669903  -0.370024 -1.67508
 5279 1  -35.656008   1.049908 -1.67508
 5280 1  -34.419363   1.747840 -1.67508
 5281 1  -36.906548  -1.067957 -1.67508
 5282 1  -38.129297  -0.345958 -1.67508
 5283 1  -38.115402   1.073974 -1.67508
 5284 1  -36.878758   1.771907 -1.67508
 5285 1  -39.365942  -1.043890 -1.67508
 5286 1  -40.588692  -0.321891 -1.67508
 5287 1  -40.574797   1.098041 -1.67508
 5288 1  -39.338152   1.795974 -1.67508
 5289 1  -41.825336  -1.019824 -1.67508
 5290 1  -43.048086  -0.297824 -1.67508
 5291 1  -43.034191   1.122108 -1.67508
 5292 1  -41.797547   1.820040 -1.67508
 5293 1  -44.284731  -0.995757 -1.67508
 5294 1  -45.507481  -0.273758 -1.67508
 5295 1  -45.493586   1.146174 -1.67508
 5296 1  -44.256941   1.844107 -1.67508
 5297 1  -46.744125  -0.971690 -1.67508
 5298 1  -47.966875  -0.249691 -1.67508
 5299 1  -47.952980   1.170241 -1.67508
 5300 1  -46.716335   1.868174 -1.67508
 5301 1  -49.203520  -0.947624 -1.67508
 5302 1  -50.426269  -0.225624 -1.67508
 5303 1  -50.412374   1.194308 -1.67508
 5304 1  -49.175730   1.892240 -1.67508
 5305 1  -51.662914  -0.923557 -1.67508
 5306 1  -52.885664  -0.201558 -1.67508
 5307 1  -52.871769   1.218374 -1.67508
 5308 1  -51.635124   1.916307 -1.67508
 5309 1  -54.122308  -0.899490 -1.67508
 5310 1  -55.345058  -0.177491 -1.67508
 5311 1  -55.331163   1.242441 -1.67508
 5312 1  -54.094519   1.940374 -1.67508
 5313 1  -56.581703  -0.875424 -1.67508
 5314 1  -57.804453  -0.153424 -1.67508
 5315 1  -57.790558   1.266508 -1.67508
 5316 1  -56.553913   1.964440 -1.67508
 5317 1  -59.041097  -0.851357 -1.67508
 5318 1  -60.263847  -0.129358 -1.67508
 5319 1  -60.249952   1.290574 -1.67508
 5320 1  -59.013307   1.988507 -1.67508
 5321 1  -61.500492  -0.827290 -1.67508
 5322 1  -62.723241  -0.105291 -1.67508
 5323 1  -62.709346   1.314641 -1.67508
 5324 1  -61.472702   2.012574 -1.67508
 5325 1  -63.959886  -0.803224 -1.67508
 5326 1  -65.182636  -0.081224 -1.67508
 5327 1  -65.168741   1.338708 -1.67508
 5328 1  -63.932096   2.036640 -1.67508
 5329 1  -66.419280  -0.779157 -1.67508
 5330 1  -67.642030  -0.057158 -1.67508
 5331 1  -67.628135   1.362774 -1.67508
 5332 1  -66.391491   2.060707 -1.67508
 5333 1  -68.878675  -0.755091 -1.67508
 5334 1  -70.101425  -0.033091 -1.67508
 5335 1  -70.087530   1.386841 -1.67508
 5336 1  -68.850885   2.084773 -1.67508
 5337 1  -71.338069  -0.731024 -1.67508
 5338 1  -72.560819  -0.009025 -1.67508
 5339 1  -72.546924   1.410907 -1.67508
 5340 1  -71.310279   2.108840 -1.67508
 5341 1  -73.797464  -0.706957 -1.67508
 5342 1  -75.020213   0.015042 -1.67508
 5343 1  -75.006318   1.434974 -1.67508
 5344 1  -73.769674   2.132907 -1.67508
 5345 1  -76.256858  -0.682891 -1.67508
 5346 1  -77.479608   0.039109 -1.67508
 5347 1  -77.465713   1.459041 -1.67508
 5348 1  -76.229068   2.156973 -1.67508
 5349 1  -78.716252  -0.658824 -1.67508
 5350 1  -79.939002   0.063175 -1.67508
 5351 1  -79.925107   1.483107 -1.67508
 5352 1  -78.688463   2.181040 -1.67508
 5353 1  -81.175647  -0.634757 -1.67508
 5354 1  -82.398396   0.087242 -1.67508
 5355 1  -82.384502   1.507174 -1.67508
 5356 1  -81.147857   2.205107 -1.67508
 5357 1  -83.635041  -0.610691 -1.67508
 5358 1  -84.857791   0.111309 -1.67508
 5359 1  -84.843896   1.531241 -1.67508
 5360 1  -83.607251   2.229173 -1.67508
 5361 1  -86.094436  -0.586624 -1.67508
 5362 1  -87.317185   0.135375 -1.67508
 5363 1  -87.303290   1.555307 -1.67508
 5364 1  -86.066646   2.253240 -1.67508
 5365 1  -88.553830  -0.562557 -1.67508
 5366 1  -89.776580   0.159442 -1.67508
 5367 1  -89.762685   1.579374 -1.67508
 5368 1  -88.526040   2.277307 -1.67508
 5369 1  -91.013224  -0.538491 -1.67508
 5370 1  -92.235974   0.183509 -1.67508
 5371 1  -92.222079   1.603441 -1.67508
 5372 1  -90.985435   2.301373 -1.67508
 5373 1  -93.472619  -0.514424 -1.67508
 5374 1  -94.695368   0.207575 -1.67508
 5375 1  -94.681474   1.627507 -1.67508
 5376 1  -93.444829   2.325440 -1.67508
 5377 1  -95.932013  -0.490357 -1.67508
 5378 1  -97.154763   0.231642 -1.67508
 5379 1  -97.140868   1.651574 -1.67508
 5380 1  -95.904223   2.349507 -1.67508
 5381 1  -98.391408  -0.466291 -1.67508
 5382 1  -99.614157   0.255709 -1.67508
 5383 1  -99.600262   1.675641 -1.67508
 5384 1  -98.363618   2.373573 -1.67508
 5385 1 -100.850802  -0.442224 -1.67508
 5386 1 -102.073552   0.279775 -1.67508
 5387 1 -102.059657   1.699707 -1.67508
 5388 1 -100.823012   2.397640 -1.67508
 5389 1 -103.310196  -0.418158 -1.67508
 5390 1 -104.532946   0.303842 -1.67508
 5391 1 -104.519051   1.723774 -1.67508
 5392 1 -103.282407   2.421707 -1.67508
 5393 1 -105.769591  -0.394091 -1.67508
 5394 1 -106.992340   0.327908 -1.67508
 5395 1 -106.978446   1.747840 -1.67508
 5396 1 -105.741801   2.445773 -1.67508
 5397 1 -108.228985  -0.370024 -1.67508
 5398 1 -108.201195   2.469840 -1.67508
 5399 1  108.239406   1.771907 -1.67508
 5400 1  107.016657   2.493906 -1.67508
 5401 1  107.030552   3.913838 -1.67508
 5402 1  108.267196   4.611771 -1.67508
 5403 1  105.780012   1.795974 -1.67508
 5404 1  104.557262   2.517973 -1.67508
 5405 1  104.571157   3.937905 -1.67508
 5406 1  105.807802   4.635838 -1.67508
 5407 1  103.320618   1.820040 -1.67508
 5408 1  102.097868   2.542040 -1.67508
 5409 1  102.111763   3.961972 -1.67508
 5410 1  103.348407   4.659904 -1.67508
 5411 1  100.861223   1.844107 -1.67508
 5412 1   99.638473   2.566106 -1.67508
 5413 1   99.652368   3.986038 -1.67508
 5414 1  100.889013   4.683971 -1.67508
 5415 1   98.401829   1.868174 -1.67508
 5416 1   97.179079   2.590173 -1.67508
 5417 1   97.192974   4.010105 -1.67508
 5418 1   98.429619   4.708038 -1.67508
 5419 1   95.942434   1.892240 -1.67508
 5420 1   94.719685   2.614240 -1.67508
 5421 1   94.733580   4.034172 -1.67508
 5422 1   95.970224   4.732104 -1.67508
 5423 1   93.483040   1.916307 -1.67508
 5424 1   92.260290   2.638306 -1.67508
 5425 1   92.274185   4.058238 -1.67508
 5426 1   93.510830   4.756171 -1.67508
 5427 1   91.023646   1.940374 -1.67508
 5428 1   89.800896   2.662373 -1.67508
 5429 1   89.814791   4.082305 -1.67508
 5430 1   91.051435   4.780238 -1.67508
 5431 1   88.564251   1.964440 -1.67508
 5432 1   87.341502   2.686440 -1.67508
 5433 1   87.355396   4.106372 -1.67508
 5434 1   88.592041   4.804304 -1.67508
 5435 1   86.104857   1.988507 -1.67508
 5436 1   84.882107   2.710506 -1.67508
 5437 1   84.896002   4.130438 -1.67508
 5438 1   86.132647   4.828371 -1.67508
 5439 1   83.645462   2.012574 -1.67508
 5440 1   82.422713   2.734573 -1.67508
 5441 1   82.436608   4.154505 -1.67508
 5442 1   83.673252   4.852438 -1.67508
 5443 1   81.186068   2.036640 -1.67508
 5444 1   79.963318   2.758640 -1.67508
 5445 1   79.977213   4.178572 -1.67508
 5446 1   81.213858   4.876504 -1.67508
 5447 1   78.726674   2.060707 -1.67508
 5448 1   77.503924   2.782706 -1.67508
 5449 1   77.517819   4.202638 -1.67508
 5450 1   78.754463   4.900571 -1.67508
 5451 1   76.267279   2.084773 -1.67508
 5452 1   75.044530   2.806773 -1.67508
 5453 1   75.058424   4.226705 -1.67508
 5454 1   76.295069   4.924638 -1.67508
 5455 1   73.807885   2.108840 -1.67508
 5456 1   72.585135   2.830839 -1.67508
 5457 1   72.599030   4.250771 -1.67508
 5458 1   73.835675   4.948704 -1.67508
 5459 1   71.348490   2.132907 -1.67508
 5460 1   70.125741   2.854906 -1.67508
 5461 1   70.139636   4.274838 -1.67508
 5462 1   71.376280   4.972771 -1.67508
 5463 1   68.889096   2.156973 -1.67508
 5464 1   67.666346   2.878973 -1.67508
 5465 1   67.680241   4.298905 -1.67508
 5466 1   68.916886   4.996837 -1.67508
 5467 1   66.429702   2.181040 -1.67508
 5468 1   65.206952   2.903039 -1.67508
 5469 1   65.220847   4.322971 -1.67508
 5470 1   66.457491   5.020904 -1.67508
 5471 1   63.970307   2.205107 -1.67508
 5472 1   62.747558   2.927106 -1.67508
 5473 1   62.761452   4.347038 -1.67508
 5474 1   63.998097   5.044971 -1.67508
 5475 1   61.510913   2.229173 -1.67508
 5476 1   60.288163   2.951173 -1.67508
 5477 1   60.302058   4.371105 -1.67508
 5478 1   61.538703   5.069037 -1.67508
 5479 1   59.051519   2.253240 -1.67508
 5480 1   57.828769   2.975239 -1.67508
 5481 1   57.842664   4.395171 -1.67508
 5482 1   59.079308   5.093104 -1.67508
 5483 1   56.592124   2.277307 -1.67508
 5484 1   55.369374   2.999306 -1.67508
 5485 1   55.383269   4.419238 -1.67508
 5486 1   56.619914   5.117171 -1.67508
 5487 1   54.132730   2.301373 -1.67508
 5488 1   52.909980   3.023373 -1.67508
 5489 1   52.923875   4.443305 -1.67508
 5490 1   54.160519   5.141237 -1.67508
 5491 1   51.673335   2.325440 -1.67508
 5492 1   50.450586   3.047439 -1.67508
 5493 1   50.464480   4.467371 -1.67508
 5494 1   51.701125   5.165304 -1.67508
 5495 1   49.213941   2.349507 -1.67508
 5496 1   47.991191   3.071506 -1.67508
 5497 1   48.005086   4.491438 -1.67508
 5498 1   49.241731   5.189371 -1.67508
 5499 1   46.754547   2.373573 -1.67508
 5500 1   45.531797   3.095573 -1.67508
 5501 1   45.545692   4.515505 -1.67508
 5502 1   46.782336   5.213437 -1.67508
 5503 1   44.295152   2.397640 -1.67508
 5504 1   43.072402   3.119639 -1.67508
 5505 1   43.086297   4.539571 -1.67508
 5506 1   44.322942   5.237504 -1.67508
 5507 1   41.835758   2.421707 -1.67508
 5508 1   40.613008   3.143706 -1.67508
 5509 1   40.626903   4.563638 -1.67508
 5510 1   41.863547   5.261571 -1.67508
 5511 1   39.376363   2.445773 -1.67508
 5512 1   38.153614   3.167772 -1.67508
 5513 1   38.167508   4.587705 -1.67508
 5514 1   39.404153   5.285637 -1.67508
 5515 1   36.916969   2.469840 -1.67508
 5516 1   35.694219   3.191839 -1.67508
 5517 1   35.708114   4.611771 -1.67508
 5518 1   36.944759   5.309704 -1.67508
 5519 1   34.457575   2.493906 -1.67508
 5520 1   33.234825   3.215906 -1.67508
 5521 1   33.248720   4.635838 -1.67508
 5522 1   34.485364   5.333770 -1.67508
 5523 1   31.998180   2.517973 -1.67508
 5524 1   30.775430   3.239972 -1.67508
 5525 1   30.789325   4.659904 -1.67508
 5526 1   32.025970   5.357837 -1.67508
 5527 1   29.538786   2.542040 -1.67508
 5528 1   28.316036   3.264039 -1.67508
 5529 1   28.329931   4.683971 -1.67508
 5530 1   29.566576   5.381904 -1.67508
 5531 1   27.079391   2.566106 -1.67508
 5532 1   25.856642   3.288106 -1.67508
 5533 1   25.870536   4.708038 -1.67508
 5534 1   27.107181   5.405970 -1.67508
 5535 1   24.619997   2.590173 -1.67508
 5536 1   23.397247   3.312172 -1.67508
 5537 1   23.411142   4.732104 -1.67508
 5538 1   24.647787   5.430037 -1.67508
 5539 1   22.160603   2.614240 -1.67508
 5540 1   20.937853   3.336239 -1.67508
 5541 1   20.951748   4.756171 -1.67508
 5542 1   22.188392   5.454104 -1.67508
 5543 1   19.701208   2.638306 -1.67508
 5544 1   18.478458   3.360306 -1.67508
 5545 1   18.492353   4.780238 -1.67508
 5546 1   19.728998   5.478170 -1.67508
 5547 1   17.241814   2.662373 -1.67508
 5548 1   16.019064   3.384372 -1.67508
 5549 1   16.032959   4.804304 -1.67508
 5550 1   17.269604   5.502237 -1.67508
 5551 1   14.782419   2.686440 -1.67508
 5552 1   13.559670   3.408439 -1.67508
 5553 1   13.573564   4.828371 -1.67508
 5554 1   14.810209   5.526304 -1.67508
 5555 1   12.323025   2.710506 -1.67508
 5556 1   11.100275   3.432506 -1.67508
 5557 1   11.114170   4.852438 -1.67508
 5558 1   12.350815   5.550370 -1.67508
 5559 1    9.863631   2.734573 -1.67508
 5560 1    8.640881   3.456572 -1.67508
 5561 1    8.654776   4.876504 -1.67508
 5562 1    9.891420   5.574437 -1.67508
 5563 1    7.404236   2.758640 -1.67508
 5564 1    6.181486   3.480639 -1.67508
 5565 1    6.195381   4.900571 -1.67508
 5566 1    7.432026   5.598504 -1.67508
 5567 1    4.944842   2.782706 -1.67508
 5568 1    3.722092   3.504706 -1.67508
 5569 1    3.735987   4.924638 -1.67508
 5570 1    4.972632   5.622570 -1.67508
 5571 1    2.485447   2.806773 -1.67508
 5572 1    1.262698   3.528772 -1.67508
 5573 1    1.276593   4.948704 -1.67508
 5574 1    2.513237   5.646637 -1.67508
 5575 1    0.026053   2.830839 -1.67508
 5576 1   -1.196697   3.552839 -1.67508
 5577 1   -1.182802   4.972771 -1.67508
 5578 1    0.053843   5.670704 -1.67508
 5579 1   -2.433341   2.854906 -1.67508
 5580 1   -3.656091   3.576905 -1.67508
 5581 1   -3.642196   4.996837 -1.67508
 5582 1   -2.405552   5.694770 -1.67508
 5583 1   -4.892736   2.878973 -1.67508
 5584 1   -6.115486   3.600972 -1.67508
 5585 1   -6.101591   5.020904 -1.67508
 5586 1   -4.864946   5.718837 -1.67508
 5587 1   -7.352130   2.903039 -1.67508
 5588 1   -8.574880   3.625039 -1.67508
 5589 1   -8.560985   5.044971 -1.67508
 5590 1   -7.324340   5.742903 -1.67508
 5591 1   -9.811525   2.927106 -1.67508
 5592 1  -11.034274   3.649105 -1.67508
 5593 1  -11.020379   5.069037 -1.67508
 5594 1   -9.783735   5.766970 -1.67508
 5595 1  -12.270919   2.951173 -1.67508
 5596 1  -13.493669   3.673172 -1.67508
 5597 1  -13.479774   5.093104 -1.67508
 5598 1  -12.243129   5.791037 -1.67508
 5599 1  -14.730313   2.975239 -1.67508
 5600 1  -15.953063   3.697239 -1.67508
 5601 1  -15.939168   5.117171 -1.67508
 5602 1  -14.702524   5.815103 -1.67508
 5603 1  -17.189708   2.999306 -1.67508
 5604 1  -18.412458   3.721305 -1.67508
 5605 1  -18.398563   5.141237 -1.67508
 5606 1  -17.161918   5.839170 -1.67508
 5607 1  -19.649102   3.023373 -1.67508
 5608 1  -20.871852   3.745372 -1.67508
 5609 1  -20.857957   5.165304 -1.67508
 5610 1  -19.621312   5.863237 -1.67508
 5611 1  -22.108497   3.047439 -1.67508
 5612 1  -23.331246   3.769439 -1.67508
 5613 1  -23.317351   5.189371 -1.67508
 5614 1  -22.080707   5.887303 -1.67508
 5615 1  -24.567891   3.071506 -1.67508
 5616 1  -25.790641   3.793505 -1.67508
 5617 1  -25.776746   5.213437 -1.67508
 5618 1  -24.540101   5.911370 -1.67508
 5619 1  -27.027285   3.095573 -1.67508
 5620 1  -28.250035   3.817572 -1.67508
 5621 1  -28.236140   5.237504 -1.67508
 5622 1  -26.999496   5.935437 -1.67508
 5623 1  -29.486680   3.119639 -1.67508
 5624 1  -30.709430   3.841639 -1.67508
 5625 1  -30.695535   5.261571 -1.67508
 5626 1  -29.458890   5.959503 -1.67508
 5627 1  -31.946074   3.143706 -1.67508
 5628 1  -33.168824   3.865705 -1.67508
 5629 1  -33.154929   5.285637 -1.67508
 5630 1  -31.918284   5.983570 -1.67508
 5631 1  -34.405469   3.167772 -1.67508
 5632 1  -35.628218   3.889772 -1.67508
 5633 1  -35.614323   5.309704 -1.67508
 5634 1  -34.377679   6.007637 -1.67508
 5635 1  -36.864863   3.191839 -1.67508
 5636 1  -38.087613   3.913838 -1.67508
 5637 1  -38.073718   5.333770 -1.67508
 5638 1  -36.837073   6.031703 -1.67508
 5639 1  -39.324257   3.215906 -1.67508
 5640 1  -40.547007   3.937905 -1.67508
 5641 1  -40.533112   5.357837 -1.67508
 5642 1  -39.296468   6.055770 -1.67508
 5643 1  -41.783652   3.239972 -1.67508
 5644 1  -43.006402   3.961972 -1.67508
 5645 1  -42.992507   5.381904 -1.67508
 5646 1  -41.755862   6.079836 -1.67508
 5647 1  -44.243046   3.264039 -1.67508
 5648 1  -45.465796   3.986038 -1.67508
 5649 1  -45.451901   5.405970 -1.67508
 5650 1  -44.215256   6.103903 -1.67508
 5651 1  -46.702441   3.288106 -1.67508
 5652 1  -47.925190   4.010105 -1.67508
 5653 1  -47.911295   5.430037 -1.67508
 5654 1  -46.674651   6.127970 -1.67508
 5655 1  -49.161835   3.312172 -1.67508
 5656 1  -50.384585   4.034172 -1.67508
 5657 1  -50.370690   5.454104 -1.67508
 5658 1  -49.134045   6.152036 -1.67508
 5659 1  -51.621229   3.336239 -1.67508
 5660 1  -52.843979   4.058238 -1.67508
 5661 1  -52.830084   5.478170 -1.67508
 5662 1  -51.593440   6.176103 -1.67508
 5663 1  -54.080624   3.360306 -1.67508
 5664 1  -55.303373   4.082305 -1.67508
 5665 1  -55.289479   5.502237 -1.67508
 5666 1  -54.052834   6.200170 -1.67508
 5667 1  -56.540018   3.384372 -1.67508
 5668 1  -57.762768   4.106372 -1.67508
 5669 1  -57.748873   5.526304 -1.67508
 5670 1  -56.512228   6.224236 -1.67508
 5671 1  -58.999413   3.408439 -1.67508
 5672 1  -60.222162   4.130438 -1.67508
 5673 1  -60.208267   5.550370 -1.67508
 5674 1  -58.971623   6.248303 -1.67508
 5675 1  -61.458807   3.432506 -1.67508
 5676 1  -62.681557   4.154505 -1.67508
 5677 1  -62.667662   5.574437 -1.67508
 5678 1  -61.431017   6.272370 -1.67508
 5679 1  -63.918201   3.456572 -1.67508
 5680 1  -65.140951   4.178572 -1.67508
 5681 1  -65.127056   5.598504 -1.67508
 5682 1  -63.890412   6.296436 -1.67508
 5683 1  -66.377596   3.480639 -1.67508
 5684 1  -67.600345   4.202638 -1.67508
 5685 1  -67.586451   5.622570 -1.67508
 5686 1  -66.349806   6.320503 -1.67508
 5687 1  -68.836990   3.504706 -1.67508
 5688 1  -70.059740   4.226705 -1.67508
 5689 1  -70.045845   5.646637 -1.67508
 5690 1  -68.809200   6.344570 -1.67508
 5691 1  -71.296385   3.528772 -1.67508
 5692 1  -72.519134   4.250771 -1.67508
 5693 1  -72.505239   5.670704 -1.67508
 5694 1  -71.268595   6.368636 -1.67508
 5695 1  -73.755779   3.552839 -1.67508
 5696 1  -74.978529   4.274838 -1.67508
 5697 1  -74.964634   5.694770 -1.67508
 5698 1  -73.727989   6.392703 -1.67508
 5699 1  -76.215173   3.576905 -1.67508
 5700 1  -77.437923   4.298905 -1.67508
 5701 1  -77.424028   5.718837 -1.67508
 5702 1  -76.187384   6.416769 -1.67508
 5703 1  -78.674568   3.600972 -1.67508
 5704 1  -79.897317   4.322971 -1.67508
 5705 1  -79.883423   5.742903 -1.67508
 5706 1  -78.646778   6.440836 -1.67508
 5707 1  -81.133962   3.625039 -1.67508
 5708 1  -82.356712   4.347038 -1.67508
 5709 1  -82.342817   5.766970 -1.67508
 5710 1  -81.106172   6.464903 -1.67508
 5711 1  -83.593356   3.649105 -1.67508
 5712 1  -84.816106   4.371105 -1.67508
 5713 1  -84.802211   5.791037 -1.67508
 5714 1  -83.565567   6.488969 -1.67508
 5715 1  -86.052751   3.673172 -1.67508
 5716 1  -87.275501   4.395171 -1.67508
 5717 1  -87.261606   5.815103 -1.67508
 5718 1  -86.024961   6.513036 -1.67508
 5719 1  -88.512145   3.697239 -1.67508
 5720 1  -89.734895   4.419238 -1.67508
 5721 1  -89.721000   5.839170 -1.67508
 5722 1  -88.484356   6.537103 -1.67508
 5723 1  -90.971540   3.721305 -1.67508
 5724 1  -92.194289   4.443305 -1.67508
 5725 1  -92.180395   5.863237 -1.67508
 5726 1  -90.943750   6.561169 -1.67508
 5727 1  -93.430934   3.745372 -1.67508
 5728 1  -94.653684   4.467371 -1.67508
 5729 1  -94.639789   5.887303 -1.67508
 5730 1  -93.403144   6.585236 -1.67508
 5731 1  -95.890328   3.769439 -1.67508
 5732 1  -97.113078   4.491438 -1.67508
 5733 1  -97.099183   5.911370 -1.67508
 5734 1  -95.862539   6.609303 -1.67508
 5735 1  -98.349723   3.793505 -1.67508
 5736 1  -99.572473   4.515505 -1.67508
 5737 1  -99.558578   5.935437 -1.67508
 5738 1  -98.321933   6.633369 -1.67508
 5739 1 -100.809117   3.817572 -1.67508
 5740 1 -102.031867   4.539571 -1.67508
 5741 1 -102.017972   5.959503 -1.67508
 5742 1 -100.781327   6.657436 -1.67508
 5743 1 -103.268512   3.841639 -1.67508
 5744 1 -104.491261   4.563638 -1.67508
 5745 1 -104.477367   5.983570 -1.67508
 5746 1 -103.240722   6.681503 -1.67508
 5747 1 -105.727906   3.865705 -1.67508
 5748 1 -106.950656   4.587705 -1.67508
 5749 1 -106.936761   6.007637 -1.67508
 5750 1 -105.700116   6.705569 -1.67508
 5751 1 -108.187300   3.889772 -1.67508
 5752 1 -108.159511   6.729636 -1.67508
 5753 1  108.281091   6.031703 -1.67508
 5754 1  107.058341   6.753703 -1.67508
 5755 1  107.072236   8.173635 -1.67508
 5756 1  108.308881   8.871567 -1.67508
 5757 1  105.821697   6.055770 -1.67508
 5758 1  104.598947   6.777769 -1.67508
 5759 1  104.612842   8.197701 -1.67508
 5760 1  105.849486   8.895634 -1.67508
 5761 1  103.362302   6.079836 -1.67508
 5762 1  102.139553   6.801836 -1.67508
 5763 1  102.153447   8.221768 -1.67508
 5764 1  103.390092   8.919700 -1.67508
 5765 1  100.902908   6.103903 -1.67508
 5766 1   99.680158   6.825902 -1.67508
 5767 1   99.694053   8.245834 -1.67508
 5768 1  100.930698   8.943767 -1.67508
 5769 1   98.443513   6.127970 -1.67508
 5770 1   97.220764   6.849969 -1.67508
 5771 1   97.234659   8.269901 -1.67508
 5772 1   98.471303   8.967834 -1.67508
 5773 1   95.984119   6.152036 -1.67508
 5774 1   94.761369   6.874036 -1.67508
 5775 1   94.775264   8.293968 -1.67508
 5776 1   96.011909   8.991900 -1.67508
 5777 1   93.524725   6.176103 -1.67508
 5778 1   92.301975   6.898102 -1.67508
 5779 1   92.315870   8.318034 -1.67508
 5780 1   93.552514   9.015967 -1.67508
 5781 1   91.065330   6.200170 -1.67508
 5782 1   89.842581   6.922169 -1.67508
 5783 1   89.856475   8.342101 -1.67508
 5784 1   91.093120   9.040034 -1.67508
 5785 1   88.605936   6.224236 -1.67508
 5786 1   87.383186   6.946236 -1.67508
 5787 1   87.397081   8.366168 -1.67508
 5788 1   88.633726   9.064100 -1.67508
 5789 1   86.146542   6.248303 -1.67508
 5790 1   84.923792   6.970302 -1.67508
 5791 1   84.937687   8.390234 -1.67508
 5792 1   86.174331   9.088167 -1.67508
 5793 1   83.687147   6.272370 -1.67508
 5794 1   82.464397   6.994369 -1.67508
 5795 1   82.478292   8.414301 -1.67508
 5796 1   83.714937   9.112234 -1.67508
 5797 1   81.227753   6.296436 -1.67508
 5798 1   80.005003   7.018436 -1.67508
 5799 1   80.018898   8.438368 -1.67508
 5800 1   81.255542   9.136300 -1.67508
 5801 1   78.768358   6.320503 -1.67508
 5802 1   77.545609   7.042502 -1.67508
 5803 1   77.559503   8.462434 -1.67508
 5804 1   78.796148   9.160367 -1.67508
 5805 1   76.308964   6.344570 -1.67508
 5806 1   75.086214   7.066569 -1.67508
 5807 1   75.100109   8.486501 -1.67508
 5808 1   76.336754   9.184434 -1.67508
 5809 1   73.849570   6.368636 -1.67508
 5810 1   72.626820   7.090636 -1.67508
 5811 1   72.640715   8.510568 -1.67508
 5812 1   73.877359   9.208500 -1.67508
 5813 1   71.390175   6.392703 -1.67508
 5814 1   70.167425   7.114702 -1.67508
 5815 1   70.181320   8.534634 -1.67508
 5816 1   71.417965   9.232567 -1.67508
 5817 1   68.930781   6.416769 -1.67508
 5818 1   67.708031   7.138769 -1.67508
 5819 1   67.721926   8.558701 -1.67508
 5820 1   68.958571   9.256634 -1.67508
 5821 1   66.471386   6.440836 -1.67508
 5822 1   65.248637   7.162835 -1.67508
 5823 1   65.262531   8.582767 -1.67508
 5824 1   66.499176   9.280700 -1.67508
 5825 1   64.011992   6.464903 -1.67508
 5826 1   62.789242   7.186902 -1.67508
 5827 1   62.803137   8.606834 -1.67508
 5828 1   64.039782   9.304767 -1.67508
 5829 1   61.552598   6.488969 -1.67508
 5830 1   60.329848   7.210969 -1.67508
 5831 1   60.343743   8.630901 -1.67508
 5832 1   61.580387   9.328833 -1.67508
 5833 1   59.093203   6.513036 -1.67508
 5834 1   57.870453   7.235035 -1.67508
 5835 1   57.884348   8.654967 -1.67508
 5836 1   59.120993   9.352900 -1.67508
 5837 1   56.633809   6.537103 -1.67508
 5838 1   55.411059   7.259102 -1.67508
 5839 1   55.424954   8.679034 -1.67508
 5840 1   56.661599   9.376967 -1.67508
 5841 1   54.174414   6.561169 -1.67508
 5842 1   52.951665   7.283169 -1.67508
 5843 1   52.965559   8.703101 -1.67508
 5844 1   54.202204   9.401033 -1.67508
 5845 1   51.715020   6.585236 -1.67508
 5846 1   50.492270   7.307235 -1.67508
 5847 1   50.506165   8.727167 -1.67508
 5848 1   51.742810   9.425100 -1.67508
 5849 1   49.255626   6.609303 -1.67508
 5850 1   48.032876   7.331302 -1.67508
 5851 1   48.046771   8.751234 -1.67508
 5852 1   49.283415   9.449167 -1.67508
 5853 1   46.796231   6.633369 -1.67508
 5854 1   45.573481   7.355369 -1.67508
 5855 1   45.587376   8.775301 -1.67508
 5856 1   46.824021   9.473233 -1.67508
 5857 1   44.336837   6.657436 -1.67508
 5858 1   43.114087   7.379435 -1.67508
 5859 1   43.127982   8.799367 -1.67508
 5860 1   44.364627   9.497300 -1.67508
 5861 1   41.877442   6.681503 -1.67508
 5862 1   40.654693   7.403502 -1.67508
 5863 1   40.668588   8.823434 -1.67508
 5864 1   41.905232   9.521367 -1.67508
 5865 1   39.418048   6.705569 -1.67508
 5866 1   38.195298   7.427569 -1.67508
 5867 1   38.209193   8.847501 -1.67508
 5868 1   39.445838   9.545433 -1.67508
 5869 1   36.958654   6.729636 -1.67508
 5870 1   35.735904   7.451635 -1.67508
 5871 1   35.749799   8.871567 -1.67508
 5872 1   36.986443   9.569500 -1.67508
 5873 1   34.499259   6.753703 -1.67508
 5874 1   33.276509   7.475702 -1.67508
 5875 1   33.290404   8.895634 -1.67508
 5876 1   34.527049   9.593567 -1.67508
 5877 1   32.039865   6.777769 -1.67508
 5878 1   30.817115   7.499768 -1.67508
 5879 1   30.831010   8.919700 -1.67508
 5880 1   32.067655   9.617633 -1.67508
 5881 1   29.580470   6.801836 -1.67508
 5882 1   28.357721   7.523835 -1.67508
 5883 1   28.371616   8.943767 -1.67508
 5884 1   29.608260   9.641700 -1.67508
 5885 1   27.121076   6.825902 -1.67508
 5886 1   25.898326   7.547902 -1.67508
 5887 1   25.912221   8.967834 -1.67508
 5888 1   27.148866   9.665766 -1.67508
 5889 1   24.661682   6.849969 -1.67508
 5890 1   23.438932   7.571968 -1.67508
 5891 1   23.452827   8.991900 -1.67508
 5892 1   24.689471   9.689833 -1.67508
 5893 1   22.202287   6.874036 -1.67508
 5894 1   20.979537   7.596035 -1.67508
 5895 1   20.993432   9.015967 -1.67508
 5896 1   22.230077   9.713900 -1.67508
 5897 1   19.742893   6.898102 -1.67508
 5898 1   18.520143   7.620102 -1.67508
 5899 1   18.534038   9.040034 -1.67508
 5900 1   19.770683   9.737966 -1.67508
 5901 1   17.283498   6.922169 -1.67508
 5902 1   16.060749   7.644168 -1.67508
 5903 1   16.074644   9.064100 -1.67508
 5904 1   17.311288   9.762033 -1.67508
 5905 1   14.824104   6.946236 -1.67508
 5906 1   13.601354   7.668235 -1.67508
 5907 1   13.615249   9.088167 -1.67508
 5908 1   14.851894   9.786100 -1.67508
 5909 1   12.364710   6.970302 -1.67508
 5910 1   11.141960   7.692302 -1.67508
 5911 1   11.155855   9.112234 -1.67508
 5912 1   12.392499   9.810166 -1.67508
 5913 1    9.905315   6.994369 -1.67508
 5914 1    8.682565   7.716368 -1.67508
 5915 1    8.696460   9.136300 -1.67508
 5916 1    9.933105   9.834233 -1.67508
 5917 1    7.445921   7.018436 -1.67508
 5918 1    6.223171   7.740435 -1.67508
 5919 1    6.237066   9.160367 -1.67508
 5920 1    7.473711   9.858300 -1.67508
 5921 1    4.986526   7.042502 -1.67508
 5922 1    3.763777   7.764502 -1.67508
 5923 1    3.777672   9.184434 -1.67508
 5924 1    5.014316   9.882366 -1.67508
 5925 1    2.527132   7.066569 -1.67508
 5926 1    1.304382   7.788568 -1.67508
 5927 1    1.318277   9.208500 -1.67508
 5928 1    2.554922   9.906433 -1.67508
 5929 1    0.067738   7.090636 -1.67508
 5930 1   -1.155012   7.812635 -1.67508
 5931 1   -1.141117   9.232567 -1.67508
 5932 1    0.095527   9.930500 -1.67508
 5933 1   -2.391657   7.114702 -1.67508
 5934 1   -3.614407   7.836701 -1.67508
 5935 1   -3.600512   9.256634 -1.67508
 5936 1   -2.363867   9.954566 -1.67508
 5937 1   -4.851051   7.138769 -1.67508
 5938 1   -6.073801   7.860768 -1.67508
 5939 1   -6.059906   9.280700 -1.67508
 5940 1   -4.823261   9.978633 -1.67508
 5941 1   -7.310446   7.162835 -1.67508
 5942 1   -8.533195   7.884835 -1.67508
 5943 1   -8.519300   9.304767 -1.67508
 5944 1   -7.282656  10.002699 -1.67508
 5945 1   -9.769840   7.186902 -1.67508
 5946 1  -10.992590   7.908901 -1.67508
 5947 1  -10.978695   9.328833 -1.67508
 5948 1   -9.742050  10.026766 -1.67508
 5949 1  -12.229234   7.210969 -1.67508
 5950 1  -13.451984   7.932968 -1.67508
 5951 1  -13.438089   9.352900 -1.67508
 5952 1  -12.201445  10.050833 -1.67508
 5953 1  -14.688629   7.235035 -1.67508
 5954 1  -15.911378   7.957035 -1.67508
 5955 1  -15.897484   9.376967 -1.67508
 5956 1  -14.660839  10.074899 -1.67508
 5957 1  -17.148023   7.259102 -1.67508
 5958 1  -18.370773   7.981101 -1.67508
 5959 1  -18.356878   9.401033 -1.67508
 5960 1  -17.120233  10.098966 -1.67508
 5961 1  -19.607418   7.283169 -1.67508
 5962 1  -20.830167   8.005168 -1.67508
 5963 1  -20.816272   9.425100 -1.67508
 5964 1  -19.579628  10.123033 -1.67508
 5965 1  -22.066812   7.307235 -1.67508
 5966 1  -23.289562   8.029235 -1.67508
 5967 1  -23.275667   9.449167 -1.67508
 5968 1  -22.039022  10.147099 -1.67508
 5969 1  -24.526206   7.331302 -1.67508
 5970 1  -25.748956   8.053301 -1.67508
 5971 1  -25.735061   9.473233 -1.67508
 5972 1  -24.498417  10.171166 -1.67508
 5973 1  -26.985601   7.355369 -1.67508
 5974 1  -28.208350   8.077368 -1.67508
 5975 1  -28.194456   9.497300 -1.67508
 5976 1  -26.957811  10.195233 -1.67508
 5977 1  -29.444995   7.379435 -1.67508
 5978 1  -30.667745   8.101435 -1.67508
 5979 1  -30.653850   9.521367 -1.67508
 5980 1  -29.417205  10.219299 -1.67508
 5981 1  -31.904390   7.403502 -1.67508
 5982 1  -33.127139   8.125501 -1.67508
 5983 1  -33.113244   9.545433 -1.67508
 5984 1  -31.876600  10.243366 -1.67508
 5985 1  -34.363784   7.427569 -1.67508
 5986 1  -35.586534   8.149568 -1.67508
 5987 1  -35.572639   9.569500 -1.67508
 5988 1  -34.335994  10.267433 -1.67508
 5989 1  -36.823178   7.451635 -1.67508
 5990 1  -38.045928   8.173635 -1.67508
 5991 1  -38.032033   9.593567 -1.67508
 5992 1  -36.795389  10.291499 -1.67508
 5993 1  -39.282573   7.475702 -1.67508
 5994 1  -40.505322   8.197701 -1.67508
 5995 1  -40.491428   9.617633 -1.67508
 5996 1  -39.254783  10.315566 -1.67508
 5997 1  -41.741967   7.499768 -1.67508
 5998 1  -42.964717   8.221768 -1.67508
 5999 1  -42.950822   9.641700 -1.67508
 6000 1  -41.714177  10.339633 -1.67508
 6001 1  -44.201361   7.523835 -1.67508
 6002 1  -45.424111   8.245834 -1.67508
 6003 1  -45.410216   9.665766 -1.67508
 6004 1  -44.173572  10.363699 -1.67508
 6005 1  -46.660756   7.547902 -1.67508
 6006 1  -47.883506   8.269901 -1.67508
 6007 1  -47.869611   9.689833 -1.67508
 6008 1  -46.632966  10.387766 -1.67508
 6009 1  -49.120150   7.571968 -1.67508
 6010 1  -50.342900   8.293968 -1.67508
 6011 1  -50.329005   9.713900 -1.67508
 6012 1  -49.092361  10.411832 -1.67508
 6013 1  -51.579545   7.596035 -1.67508
 6014 1  -52.802294   8.318034 -1.67508
 6015 1  -52.788400   9.737966 -1.67508
 6016 1  -51.551755  10.435899 -1.67508
 6017 1  -54.038939   7.620102 -1.67508
 6018 1  -55.261689   8.342101 -1.67508
 6019 1  -55.247794   9.762033 -1.67508
 6020 1  -54.011149  10.459966 -1.67508
 6021 1  -56.498333   7.644168 -1.67508
 6022 1  -57.721083   8.366168 -1.67508
 6023 1  -57.707188   9.786100 -1.67508
 6024 1  -56.470544  10.484032 -1.67508
 6025 1  -58.957728   7.668235 -1.67508
 6026 1  -60.180478   8.390234 -1.67508
 6027 1  -60.166583   9.810166 -1.67508
 6028 1  -58.929938  10.508099 -1.67508
 6029 1  -61.417122   7.692302 -1.67508
 6030 1  -62.639872   8.414301 -1.67508
 6031 1  -62.625977   9.834233 -1.67508
 6032 1  -61.389333  10.532166 -1.67508
 6033 1  -63.876517   7.716368 -1.67508
 6034 1  -65.099266   8.438368 -1.67508
 6035 1  -65.085372   9.858300 -1.67508
 6036 1  -63.848727  10.556232 -1.67508
 6037 1  -66.335911   7.740435 -1.67508
 6038 1  -67.558661   8.462434 -1.67508
 6039 1  -67.544766   9.882366 -1.67508
 6040 1  -66.308121  10.580299 -1.67508
 6041 1  -68.795305   7.764502 -1.67508
 6042 1  -70.018055   8.486501 -1.67508
 6043 1  -70.004160   9.906433 -1.67508
 6044 1  -68.767516  10.604366 -1.67508
 6045 1  -71.254700   7.788568 -1.67508
 6046 1  -72.477450   8.510568 -1.67508
 6047 1  -72.463555   9.930500 -1.67508
 6048 1  -71.226910  10.628432 -1.67508
 6049 1  -73.714094   7.812635 -1.67508
 6050 1  -74.936844   8.534634 -1.67508
 6051 1  -74.922949   9.954566 -1.67508
 6052 1  -73.686304  10.652499 -1.67508
 6053 1  -76.173489   7.836701 -1.67508
 6054 1  -77.396238   8.558701 -1.67508
 6055 1  -77.382344   9.978633 -1.67508
 6056 1  -76.145699  10.676566 -1.67508
 6057 1  -78.632883   7.860768 -1.67508
 6058 1  -79.855633   8.582767 -1.67508
 6059 1  -79.841738  10.002699 -1.67508
 6060 1  -78.605093  10.700632 -1.67508
 6061 1  -81.092277   7.884835 -1.67508
 6062 1  -82.315027   8.606834 -1.67508
 6063 1  -82.301132  10.026766 -1.67508
 6064 1  -81.064488  10.724699 -1.67508
 6065 1  -83.551672   7.908901 -1.67508
 6066 1  -84.774422   8.630901 -1.67508
 6067 1  -84.760527  10.050833 -1.67508
 6068 1  -83.523882  10.748765 -1.67508
 6069 1  -86.011066   7.932968 -1.67508
 6070 1  -87.233816   8.654967 -1.67508
 6071 1  -87.219921  10.074899 -1.67508
 6072 1  -85.983276  10.772832 -1.67508
 6073 1  -88.470461   7.957035 -1.67508
 6074 1  -89.693210   8.679034 -1.67508
 6075 1  -89.679315  10.098966 -1.67508
 6076 1  -88.442671  10.796899 -1.67508
 6077 1  -90.929855   7.981101 -1.67508
 6078 1  -92.152605   8.703101 -1.67508
 6079 1  -92.138710  10.123033 -1.67508
 6080 1  -90.902065  10.820965 -1.67508
 6081 1  -93.389249   8.005168 -1.67508
 6082 1  -94.611999   8.727167 -1.67508
 6083 1  -94.598104  10.147099 -1.67508
 6084 1  -93.361460  10.845032 -1.67508
 6085 1  -95.848644   8.029235 -1.67508
 6086 1  -97.071394   8.751234 -1.67508
 6087 1  -97.057499  10.171166 -1.67508
 6088 1  -95.820854  10.869099 -1.67508
 6089 1  -98.308038   8.053301 -1.67508
 6090 1  -99.530788   8.775301 -1.67508
 6091 1  -99.516893  10.195233 -1.67508
 6092 1  -98.280248  10.893165 -1.67508
 6093 1 -100.767433   8.077368 -1.67508
 6094 1 -101.990182   8.799367 -1.67508
 6095 1 -101.976287  10.219299 -1.67508
 6096 1 -100.739643  10.917232 -1.67508
 6097 1 -103.226827   8.101435 -1.67508
 6098 1 -104.449577   8.823434 -1.67508
 6099 1 -104.435682  10.243366 -1.67508
 6100 1 -103.199037  10.941299 -1.67508
 6101 1 -105.686221   8.125501 -1.67508
 6102 1 -106.908971   8.847501 -1.67508
 6103 1 -106.895076  10.267433 -1.67508
 6104 1 -105.658432  10.965365 -1.67508
 6105 1 -108.145616   8.149568 -1.67508
 6106 1 -108.117826  10.989432 -1.67508
 6107 1  108.322776  10.291499 -1.67508
 6108 1  107.100026  11.013499 -1.67508
 6109 1  107.113921  12.433431 -1.67508
 6110 1  108.350565  13.131363 -1.67508
 6111 1  105.863381  10.315566 -1.67508
 6112 1  104.640632  11.037565 -1.67508
 6113 1  104.654526  12.457497 -1.67508
 6114 1  105.891171  13.155430 -1.67508
 6115 1  103.403987  10.339633 -1.67508
 6116 1  102.181237  11.061632 -1.67508
 6117 1  102.195132  12.481564 -1.67508
 6118 1  103.431777  13.179497 -1.67508
 6119 1  100.944593  10.363699 -1.67508
 6120 1   99.721843  11.085698 -1.67508
 6121 1   99.735738  12.505631 -1.67508
 6122 1  100.972382  13.203563 -1.67508
 6123 1   98.485198  10.387766 -1.67508
 6124 1   97.262448  11.109765 -1.67508
 6125 1   97.276343  12.529697 -1.67508
 6126 1   98.512988  13.227630 -1.67508
 6127 1   96.025804  10.411832 -1.67508
 6128 1   94.803054  11.133832 -1.67508
 6129 1   94.816949  12.553764 -1.67508
 6130 1   96.053594  13.251696 -1.67508
 6131 1   93.566409  10.435899 -1.67508
 6132 1   92.343660  11.157898 -1.67508
 6133 1   92.357554  12.577830 -1.67508
 6134 1   93.594199  13.275763 -1.67508
 6135 1   91.107015  10.459966 -1.67508
 6136 1   89.884265  11.181965 -1.67508
 6137 1   89.898160  12.601897 -1.67508
 6138 1   91.134805  13.299830 -1.67508
 6139 1   88.647621  10.484032 -1.67508
 6140 1   87.424871  11.206032 -1.67508
 6141 1   87.438766  12.625964 -1.67508
 6142 1   88.675410  13.323896 -1.67508
 6143 1   86.188226  10.508099 -1.67508
 6144 1   84.965476  11.230098 -1.67508
 6145 1   84.979371  12.650030 -1.67508
 6146 1   86.216016  13.347963 -1.67508
 6147 1   83.728832  10.532166 -1.67508
 6148 1   82.506082  11.254165 -1.67508
 6149 1   82.519977  12.674097 -1.67508
 6150 1   83.756622  13.372030 -1.67508
 6151 1   81.269437  10.556232 -1.67508
 6152 1   80.046688  11.278232 -1.67508
 6153 1   80.060582  12.698164 -1.67508
 6154 1   81.297227  13.396096 -1.67508
 6155 1   78.810043  10.580299 -1.67508
 6156 1   77.587293  11.302298 -1.67508
 6157 1   77.601188  12.722230 -1.67508
 6158 1   78.837833  13.420163 -1.67508
 6159 1   76.350649  10.604366 -1.67508
 6160 1   75.127899  11.326365 -1.67508
 6161 1   75.141794  12.746297 -1.67508
 6162 1   76.378438  13.444230 -1.67508
 6163 1   73.891254  10.628432 -1.67508
 6164 1   72.668504  11.350432 -1.67508
 6165 1   72.682399  12.770364 -1.67508
 6166 1   73.919044  13.468296 -1.67508
 6167 1   71.431860  10.652499 -1.67508
 6168 1   70.209110  11.374498 -1.67508
 6169 1   70.223005  12.794430 -1.67508
 6170 1   71.459650  13.492363 -1.67508
 6171 1   68.972465  10.676566 -1.67508
 6172 1   67.749716  11.398565 -1.67508
 6173 1   67.763611  12.818497 -1.67508
 6174 1   69.000255  13.516430 -1.67508
 6175 1   66.513071  10.700632 -1.67508
 6176 1   65.290321  11.422632 -1.67508
 6177 1   65.304216  12.842564 -1.67508
 6178 1   66.540861  13.540496 -1.67508
 6179 1   64.053677  10.724699 -1.67508
 6180 1   62.830927  11.446698 -1.67508
 6181 1   62.844822  12.866630 -1.67508
 6182 1   64.081466  13.564563 -1.67508
 6183 1   61.594282  10.748765 -1.67508
 6184 1   60.371532  11.470765 -1.67508
 6185 1   60.385427  12.890697 -1.67508
 6186 1   61.622072  13.588629 -1.67508
 6187 1   59.134888  10.772832 -1.67508
 6188 1   57.912138  11.494831 -1.67508
 6189 1   57.926033  12.914763 -1.67508
 6190 1   59.162678  13.612696 -1.67508
 6191 1   56.675493  10.796899 -1.67508
 6192 1   55.452744  11.518898 -1.67508
 6193 1   55.466639  12.938830 -1.67508
 6194 1   56.703283  13.636763 -1.67508
 6195 1   54.216099  10.820965 -1.67508
 6196 1   52.993349  11.542965 -1.67508
 6197 1   53.007244  12.962897 -1.67508
 6198 1   54.243889  13.660829 -1.67508
 6199 1   51.756705  10.845032 -1.67508
 6200 1   50.533955  11.567031 -1.67508
 6201 1   50.547850  12.986963 -1.67508
 6202 1   51.784494  13.684896 -1.67508
 6203 1   49.297310  10.869099 -1.67508
 6204 1   48.074560  11.591098 -1.67508
 6205 1   48.088455  13.011030 -1.67508
 6206 1   49.325100  13.708963 -1.67508
 6207 1   46.837916  10.893165 -1.67508
 6208 1   45.615166  11.615165 -1.67508
 6209 1   45.629061  13.035097 -1.67508
 6210 1   46.865706  13.733029 -1.67508
 6211 1   44.378521  10.917232 -1.67508
 6212 1   43.155772  11.639231 -1.67508
 6213 1   43.169667  13.059163 -1.67508
 6214 1   44.406311  13.757096 -1.67508
 6215 1   41.919127  10.941299 -1.67508
 6216 1   40.696377  11.663298 -1.67508
 6217 1   40.710272  13.083230 -1.67508
 6218 1   41.946917  13.781163 -1.67508
 6219 1   39.459733  10.965365 -1.67508
 6220 1   38.236983  11.687365 -1.67508
 6221 1   38.250878  13.107297 -1.67508
 6222 1   39.487522  13.805229 -1.67508
 6223 1   37.000338  10.989432 -1.67508
 6224 1   35.777588  11.711431 -1.67508
 6225 1   35.791483  13.131363 -1.67508
 6226 1   37.028128  13.829296 -1.67508
 6227 1   34.540944  11.013499 -1.67508
 6228 1   33.318194  11.735498 -1.67508
 6229 1   33.332089  13.155430 -1.67508
 6230 1   34.568734  13.853363 -1.67508
 6231 1   32.081549  11.037565 -1.67508
 6232 1   30.858800  11.759565 -1.67508
 6233 1   30.872695  13.179497 -1.67508
 6234 1   32.109339  13.877429 -1.67508
 6235 1   29.622155  11.061632 -1.67508
 6236 1   28.399405  11.783631 -1.67508
 6237 1   28.413300  13.203563 -1.67508
 6238 1   29.649945  13.901496 -1.67508
 6239 1   27.162761  11.085698 -1.67508
 6240 1   25.940011  11.807698 -1.67508
 6241 1   25.953906  13.227630 -1.67508
 6242 1   27.190550  13.925563 -1.67508
 6243 1   24.703366  11.109765 -1.67508
 6244 1   23.480616  11.831764 -1.67508
 6245 1   23.494511  13.251696 -1.67508
 6246 1   24.731156  13.949629 -1.67508
 6247 1   22.243972  11.133832 -1.67508
 6248 1   21.021222  11.855831 -1.67508
 6249 1   21.035117  13.275763 -1.67508
 6250 1   22.271762  13.973696 -1.67508
 6251 1   19.784577  11.157898 -1.67508
 6252 1   18.561828  11.879898 -1.67508
 6253 1   18.575723  13.299830 -1.67508
 6254 1   19.812367  13.997762 -1.67508
 6255 1   17.325183  11.181965 -1.67508
 6256 1   16.102433  11.903964 -1.67508
 6257 1   16.116328  13.323896 -1.67508
 6258 1   17.352973  14.021829 -1.67508
 6259 1   14.865789  11.206032 -1.67508
 6260 1   13.643039  11.928031 -1.67508
 6261 1   13.656934  13.347963 -1.67508
 6262 1   14.893578  14.045896 -1.67508
 6263 1   12.406394  11.230098 -1.67508
 6264 1   11.183645  11.952098 -1.67508
 6265 1   11.197539  13.372030 -1.67508
 6266 1   12.434184  14.069962 -1.67508
 6267 1    9.947000  11.254165 -1.67508
 6268 1    8.724250  11.976164 -1.67508
 6269 1    8.738145  13.396096 -1.67508
 6270 1    9.974790  14.094029 -1.67508
 6271 1    7.487605  11.278232 -1.67508
 6272 1    6.264856  12.000231 -1.67508
 6273 1    6.278751  13.420163 -1.67508
 6274 1    7.515395  14.118096 -1.67508
 6275 1    5.028211  11.302298 -1.67508
 6276 1    3.805461  12.024298 -1.67508
 6277 1    3.819356  13.444230 -1.67508
 6278 1    5.056001  14.142162 -1.67508
 6279 1    2.568817  11.326365 -1.67508
 6280 1    1.346067  12.048364 -1.67508
 6281 1    1.359962  13.468296 -1.67508
 6282 1    2.596606  14.166229 -1.67508
 6283 1    0.109422  11.350432 -1.67508
 6284 1   -1.113327  12.072431 -1.67508
 6285 1   -1.099433  13.492363 -1.67508
 6286 1    0.137212  14.190296 -1.67508
 6287 1   -2.349972  11.374498 -1.67508
 6288 1   -3.572722  12.096498 -1.67508
 6289 1   -3.558827  13.516430 -1.67508
 6290 1   -2.322182  14.214362 -1.67508
 6291 1   -4.809367  11.398565 -1.67508
 6292 1   -6.032116  12.120564 -1.67508
 6293 1   -6.018221  13.540496 -1.67508
 6294 1   -4.781577  14.238429 -1.67508
 6295 1   -7.268761  11.422632 -1.67508
 6296 1   -8.491511  12.144631 -1.67508
 6297 1   -8.477616  13.564563 -1.67508
 6298 1   -7.240971  14.262496 -1.67508
 6299 1   -9.728155  11.446698 -1.67508
 6300 1  -10.950905  12.168697 -1.67508
 6301 1  -10.937010  13.588629 -1.67508
 6302 1   -9.700366  14.286562 -1.67508
 6303 1  -12.187550  11.470765 -1.67508
 6304 1  -13.410299  12.192764 -1.67508
 6305 1  -13.396405  13.612696 -1.67508
 6306 1  -12.159760  14.310629 -1.67508
 6307 1  -14.646944  11.494831 -1.67508
 6308 1  -15.869694  12.216831 -1.67508
 6309 1  -15.855799  13.636763 -1.67508
 6310 1  -14.619154  14.334695 -1.67508
 6311 1  -17.106338  11.518898 -1.67508
 6312 1  -18.329088  12.240897 -1.67508
 6313 1  -18.315193  13.660829 -1.67508
 6314 1  -17.078549  14.358762 -1.67508
 6315 1  -19.565733  11.542965 -1.67508
 6316 1  -20.788483  12.264964 -1.67508
 6317 1  -20.774588  13.684896 -1.67508
 6318 1  -19.537943  14.382829 -1.67508
 6319 1  -22.025127  11.567031 -1.67508
 6320 1  -23.247877  12.289031 -1.67508
 6321 1  -23.233982  13.708963 -1.67508
 6322 1  -21.997338  14.406895 -1.67508
 6323 1  -24.484522  11.591098 -1.67508
 6324 1  -25.707271  12.313097 -1.67508
 6325 1  -25.693377  13.733029 -1.67508
 6326 1  -24.456732  14.430962 -1.67508
 6327 1  -26.943916  11.615165 -1.67508
 6328 1  -28.166666  12.337164 -1.67508
 6329 1  -28.152771  13.757096 -1.67508
 6330 1  -26.916126  14.455029 -1.67508
 6331 1  -29.403310  11.639231 -1.67508
 6332 1  -30.626060  12.361231 -1.67508
 6333 1  -30.612165  13.781163 -1.67508
 6334 1  -29.375521  14.479095 -1.67508
 6335 1  -31.862705  11.663298 -1.67508
 6336 1  -33.085455  12.385297 -1.67508
 6337 1  -33.071560  13.805229 -1.67508
 6338 1  -31.834915  14.503162 -1.67508
 6339 1  -34.322099  11.687365 -1.67508
 6340 1  -35.544849  12.409364 -1.67508
 6341 1  -35.530954  13.829296 -1.67508
 6342 1  -34.294309  14.527229 -1.67508
 6343 1  -36.781494  11.711431 -1.67508
 6344 1  -38.004243  12.433431 -1.67508
 6345 1  -37.990349  13.853363 -1.67508
 6346 1  -36.753704  14.551295 -1.67508
 6347 1  -39.240888  11.735498 -1.67508
 6348 1  -40.463638  12.457497 -1.67508
 6349 1  -40.449743  13.877429 -1.67508
 6350 1  -39.213098  14.575362 -1.67508
 6351 1  -41.700282  11.759565 -1.67508
 6352 1  -42.923032  12.481564 -1.67508
 6353 1  -42.909137  13.901496 -1.67508
 6354 1  -41.672493  14.599429 -1.67508
 6355 1  -44.159677  11.783631 -1.67508
 6356 1  -45.382427  12.505631 -1.67508
 6357 1  -45.368532  13.925563 -1.67508
 6358 1  -44.131887  14.623495 -1.67508
 6359 1  -46.619071  11.807698 -1.67508
 6360 1  -47.841821  12.529697 -1.67508
 6361 1  -47.827926  13.949629 -1.67508
 6362 1  -46.591281  14.647562 -1.67508
 6363 1  -49.078466  11.831764 -1.67508
 6364 1  -50.301215  12.553764 -1.67508
 6365 1  -50.287321  13.973696 -1.67508
 6366 1  -49.050676  14.671628 -1.67508
 6367 1  -51.537860  11.855831 -1.67508
 6368 1  -52.760610  12.577830 -1.67508
 6369 1  -52.746715  13.997762 -1.67508
 6370 1  -51.510070  14.695695 -1.67508
 6371 1  -53.997254  11.879898 -1.67508
 6372 1  -55.220004  12.601897 -1.67508
 6373 1  -55.206109  14.021829 -1.67508
 6374 1  -53.969465  14.719762 -1.67508
 6375 1  -56.456649  11.903964 -1.67508
 6376 1  -57.679399  12.625964 -1.67508
 6377 1  -57.665504  14.045896 -1.67508
 6378 1  -56.428859  14.743828 -1.67508
 6379 1  -58.916043  11.928031 -1.67508
 6380 1  -60.138793  12.650030 -1.67508
 6381 1  -60.124898  14.069962 -1.67508
 6382 1  -58.888253  14.767895 -1.67508
 6383 1  -61.375438  11.952098 -1.67508
 6384 1  -62.598187  12.674097 -1.67508
 6385 1  -62.584292  14.094029 -1.67508
 6386 1  -61.347648  14.791962 -1.67508
 6387 1  -63.834832  11.976164 -1.67508
 6388 1  -65.057582  12.698164 -1.67508
 6389 1  -65.043687  14.118096 -1.67508
 6390 1  -63.807042  14.816028 -1.67508
 6391 1  -66.294226  12.000231 -1.67508
 6392 1  -67.516976  12.722230 -1.67508
 6393 1  -67.503081  14.142162 -1.67508
 6394 1  -66.266437  14.840095 -1.67508
 6395 1  -68.753621  12.024298 -1.67508
 6396 1  -69.976371  12.746297 -1.67508
 6397 1  -69.962476  14.166229 -1.67508
 6398 1  -68.725831  14.864162 -1.67508
 6399 1  -71.213015  12.048364 -1.67508
 6400 1  -72.435765  12.770364 -1.67508
 6401 1  -72.421870  14.190296 -1.67508
 6402 1  -71.185225  14.888228 -1.67508
 6403 1  -73.672410  12.072431 -1.67508
 6404 1  -74.895159  12.794430 -1.67508
 6405 1  -74.881264  14.214362 -1.67508
 6406 1  -73.644620  14.912295 -1.67508
 6407 1  -76.131804  12.096498 -1.67508
 6408 1  -77.354554  12.818497 -1.67508
 6409 1  -77.340659  14.238429 -1.67508
 6410 1  -76.104014  14.936362 -1.67508
 6411 1  -78.591198  12.120564 -1.67508
 6412 1  -79.813948  12.842564 -1.67508
 6413 1  -79.800053  14.262496 -1.67508
 6414 1  -78.563409  14.960428 -1.67508
 6415 1  -81.050593  12.144631 -1.67508
 6416 1  -82.273343  12.866630 -1.67508
 6417 1  -82.259448  14.286562 -1.67508
 6418 1  -81.022803  14.984495 -1.67508
 6419 1  -83.509987  12.168697 -1.67508
 6420 1  -84.732737  12.890697 -1.67508
 6421 1  -84.718842  14.310629 -1.67508
 6422 1  -83.482197  15.008562 -1.67508
 6423 1  -85.969382  12.192764 -1.67508
 6424 1  -87.192131  12.914763 -1.67508
 6425 1  -87.178236  14.334695 -1.67508
 6426 1  -85.941592  15.032628 -1.67508
 6427 1  -88.428776  12.216831 -1.67508
 6428 1  -89.651526  12.938830 -1.67508
 6429 1  -89.637631  14.358762 -1.67508
 6430 1  -88.400986  15.056695 -1.67508
 6431 1  -90.888170  12.240897 -1.67508
 6432 1  -92.110920  12.962897 -1.67508
 6433 1  -92.097025  14.382829 -1.67508
 6434 1  -90.860381  15.080761 -1.67508
 6435 1  -93.347565  12.264964 -1.67508
 6436 1  -94.570315  12.986963 -1.67508
 6437 1  -94.556420  14.406895 -1.67508
 6438 1  -93.319775  15.104828 -1.67508
 6439 1  -95.806959  12.289031 -1.67508
 6440 1  -97.029709  13.011030 -1.67508
 6441 1  -97.015814  14.430962 -1.67508
 6442 1  -95.779169  15.128895 -1.67508
 6443 1  -98.266354  12.313097 -1.67508
 6444 1  -99.489103  13.035097 -1.67508
 6445 1  -99.475208  14.455029 -1.67508
 6446 1  -98.238564  15.152961 -1.67508
 6447 1 -100.725748  12.337164 -1.67508
 6448 1 -101.948498  13.059163 -1.67508
 6449 1 -101.934603  14.479095 -1.67508
 6450 1 -100.697958  15.177028 -1.67508
 6451 1 -103.185142  12.361231 -1.67508
 6452 1 -104.407892  13.083230 -1.67508
 6453 1 -104.393997  14.503162 -1.67508
 6454 1 -103.157353  15.201095 -1.67508
 6455 1 -105.644537  12.385297 -1.67508
 6456 1 -106.867287  13.107297 -1.67508
 6457 1 -106.853392  14.527229 -1.67508
 6458 1 -105.616747  15.225161 -1.67508
 6459 1 -108.103931  12.409364 -1.67508
 6460 1 -108.076141  15.249228 -1.67508
 6461 1  108.364460  14.551295 -1.67508
 6462 1  107.141711  15.273295 -1.67508
 6463 1  107.155606  16.693227 -1.67508
 6464 1  108.392250  17.391159 -1.67508
 6465 1  105.905066  14.575362 -1.67508
 6466 1  104.682316  15.297361 -1.67508
 6467 1  104.696211  16.717293 -1.67508
 6468 1  105.932856  17.415226 -1.67508
 6469 1  103.445672  14.599429 -1.67508
 6470 1  102.222922  15.321428 -1.67508
 6471 1  102.236817  16.741360 -1.67508
 6472 1  103.473461  17.439293 -1.67508
 6473 1  100.986277  14.623495 -1.67508
 6474 1   99.763527  15.345495 -1.67508
 6475 1   99.777422  16.765427 -1.67508
 6476 1  101.014067  17.463359 -1.67508
 6477 1   98.526883  14.647562 -1.67508
 6478 1   97.304133  15.369561 -1.67508
 6479 1   97.318028  16.789493 -1.67508
 6480 1   98.554673  17.487426 -1.67508
 6481 1   96.067488  14.671628 -1.67508
 6482 1   94.844739  15.393628 -1.67508
 6483 1   94.858634  16.813560 -1.67508
 6484 1   96.095278  17.511493 -1.67508
 6485 1   93.608094  14.695695 -1.67508
 6486 1   92.385344  15.417694 -1.67508
 6487 1   92.399239  16.837626 -1.67508
 6488 1   93.635884  17.535559 -1.67508
 6489 1   91.148700  14.719762 -1.67508
 6490 1   89.925950  15.441761 -1.67508
 6491 1   89.939845  16.861693 -1.67508
 6492 1   91.176489  17.559626 -1.67508
 6493 1   88.689305  14.743828 -1.67508
 6494 1   87.466555  15.465828 -1.67508
 6495 1   87.480450  16.885760 -1.67508
 6496 1   88.717095  17.583692 -1.67508
 6497 1   86.229911  14.767895 -1.67508
 6498 1   85.007161  15.489894 -1.67508
 6499 1   85.021056  16.909826 -1.67508
 6500 1   86.257701  17.607759 -1.67508
 6501 1   83.770516  14.791962 -1.67508
 6502 1   82.547767  15.513961 -1.67508
 6503 1   82.561662  16.933893 -1.67508
 6504 1   83.798306  17.631826 -1.67508
 6505 1   81.311122  14.816028 -1.67508
 6506 1   80.088372  15.538028 -1.67508
 6507 1   80.102267  16.957960 -1.67508
 6508 1   81.338912  17.655892 -1.67508
 6509 1   78.851728  14.840095 -1.67508
 6510 1   77.628978  15.562094 -1.67508
 6511 1   77.642873  16.982026 -1.67508
 6512 1   78.879517  17.679959 -1.67508
 6513 1   76.392333  14.864162 -1.67508
 6514 1   75.169583  15.586161 -1.67508
 6515 1   75.183478  17.006093 -1.67508
 6516 1   76.420123  17.704026 -1.67508
 6517 1   73.932939  14.888228 -1.67508
 6518 1   72.710189  15.610228 -1.67508
 6519 1   72.724084  17.030160 -1.67508
 6520 1   73.960729  17.728092 -1.67508
 6521 1   71.473544  14.912295 -1.67508
 6522 1   70.250795  15.634294 -1.67508
 6523 1   70.264690  17.054226 -1.67508
 6524 1   71.501334  17.752159 -1.67508
 6525 1   69.014150  14.936362 -1.67508
 6526 1   67.791400  15.658361 -1.67508
 6527 1   67.805295  17.078293 -1.67508
 6528 1   69.041940  17.776226 -1.67508
 6529 1   66.554756  14.960428 -1.67508
 6530 1   65.332006  15.682428 -1.67508
 6531 1   65.345901  17.102360 -1.67508
 6532 1   66.582545  17.800292 -1.67508
 6533 1   64.095361  14.984495 -1.67508
 6534 1   62.872611  15.706494 -1.67508
 6535 1   62.886506  17.126426 -1.67508
 6536 1   64.123151  17.824359 -1.67508
 6537 1   61.635967  15.008562 -1.67508
 6538 1   60.413217  15.730561 -1.67508
 6539 1   60.427112  17.150493 -1.67508
 6540 1   61.663757  17.848426 -1.67508
 6541 1   59.176572  15.032628 -1.67508
 6542 1   57.953823  15.754627 -1.67508
 6543 1   57.967718  17.174560 -1.67508
 6544 1   59.204362  17.872492 -1.67508
 6545 1   56.717178  15.056695 -1.67508
 6546 1   55.494428  15.778694 -1.67508
 6547 1   55.508323  17.198626 -1.67508
 6548 1   56.744968  17.896559 -1.67508
 6549 1   54.257784  15.080761 -1.67508
 6550 1   53.035034  15.802761 -1.67508
 6551 1   53.048929  17.222693 -1.67508
 6552 1   54.285573  17.920625 -1.67508
 6553 1   51.798389  15.104828 -1.67508
 6554 1   50.575640  15.826827 -1.67508
 6555 1   50.589534  17.246759 -1.67508
 6556 1   51.826179  17.944692 -1.67508
 6557 1   49.338995  15.128895 -1.67508
 6558 1   48.116245  15.850894 -1.67508
 6559 1   48.130140  17.270826 -1.67508
 6560 1   49.366785  17.968759 -1.67508
 6561 1   46.879600  15.152961 -1.67508
 6562 1   45.656851  15.874961 -1.67508
 6563 1   45.670746  17.294893 -1.67508
 6564 1   46.907390  17.992825 -1.67508
 6565 1   44.420206  15.177028 -1.67508
 6566 1   43.197456  15.899027 -1.67508
 6567 1   43.211351  17.318959 -1.67508
 6568 1   44.447996  18.016892 -1.67508
 6569 1   41.960812  15.201095 -1.67508
 6570 1   40.738062  15.923094 -1.67508
 6571 1   40.751957  17.343026 -1.67508
 6572 1   41.988601  18.040959 -1.67508
 6573 1   39.501417  15.225161 -1.67508
 6574 1   38.278668  15.947161 -1.67508
 6575 1   38.292562  17.367093 -1.67508
 6576 1   39.529207  18.065025 -1.67508
 6577 1   37.042023  15.249228 -1.67508
 6578 1   35.819273  15.971227 -1.67508
 6579 1   35.833168  17.391159 -1.67508
 6580 1   37.069813  18.089092 -1.67508
 6581 1   34.582628  15.273295 -1.67508
 6582 1   33.359879  15.995294 -1.67508
 6583 1   33.373774  17.415226 -1.67508
 6584 1   34.610418  18.113159 -1.67508
 6585 1   32.123234  15.297361 -1.67508
 6586 1   30.900484  16.019361 -1.67508
 6587 1   30.914379  17.439293 -1.67508
 6588 1   32.151024  18.137225 -1.67508
 6589 1   29.663840  15.321428 -1.67508
 6590 1   28.441090  16.043427 -1.67508
 6591 1   28.454985  17.463359 -1.67508
 6592 1   29.691629  18.161292 -1.67508
 6593 1   27.204445  15.345495 -1.67508
 6594 1   25.981696  16.067494 -1.67508
 6595 1   25.995590  17.487426 -1.67508
 6596 1   27.232235  18.185359 -1.67508
 6597 1   24.745051  15.369561 -1.67508
 6598 1   23.522301  16.091561 -1.67508
 6599 1   23.536196  17.511493 -1.67508
 6600 1   24.772841  18.209425 -1.67508
 6601 1   22.285657  15.393628 -1.67508
 6602 1   21.062907  16.115627 -1.67508
 6603 1   21.076802  17.535559 -1.67508
 6604 1   22.313446  18.233492 -1.67508
 6605 1   19.826262  15.417694 -1.67508
 6606 1   18.603512  16.139694 -1.67508
 6607 1   18.617407  17.559626 -1.67508
 6608 1   19.854052  18.257559 -1.67508
 6609 1   17.366868  15.441761 -1.67508
 6610 1   16.144118  16.163760 -1.67508
 6611 1   16.158013  17.583692 -1.67508
 6612 1   17.394657  18.281625 -1.67508
 6613 1   14.907473  15.465828 -1.67508
 6614 1   13.684724  16.187827 -1.67508
 6615 1   13.698618  17.607759 -1.67508
 6616 1   14.935263  18.305692 -1.67508
 6617 1   12.448079  15.489894 -1.67508
 6618 1   11.225329  16.211894 -1.67508
 6619 1   11.239224  17.631826 -1.67508
 6620 1   12.475869  18.329758 -1.67508
 6621 1    9.988685  15.513961 -1.67508
 6622 1    8.765935  16.235960 -1.67508
 6623 1    8.779830  17.655892 -1.67508
 6624 1   10.016474  18.353825 -1.67508
 6625 1    7.529290  15.538028 -1.67508
 6626 1    6.306540  16.260027 -1.67508
 6627 1    6.320435  17.679959 -1.67508
 6628 1    7.557080  18.377892 -1.67508
 6629 1    5.069896  15.562094 -1.67508
 6630 1    3.847146  16.284094 -1.67508
 6631 1    3.861041  17.704026 -1.67508
 6632 1    5.097686  18.401958 -1.67508
 6633 1    2.610501  15.586161 -1.67508
 6634 1    1.387752  16.308160 -1.67508
 6635 1    1.401646  17.728092 -1.67508
 6636 1    2.638291  18.426025 -1.67508
 6637 1    0.151107  15.610228 -1.67508
 6638 1   -1.071643  16.332227 -1.67508
 6639 1   -1.057748  17.752159 -1.67508
 6640 1    0.178897  18.450092 -1.67508
 6641 1   -2.308287  15.634294 -1.67508
 6642 1   -3.531037  16.356294 -1.67508
 6643 1   -3.517142  17.776226 -1.67508
 6644 1   -2.280498  18.474158 -1.67508
 6645 1   -4.767682  15.658361 -1.67508
 6646 1   -5.990432  16.380360 -1.67508
 6647 1   -5.976537  17.800292 -1.67508
 6648 1   -4.739892  18.498225 -1.67508
 6649 1   -7.227076  15.682428 -1.67508
 6650 1   -8.449826  16.404427 -1.67508
 6651 1   -8.435931  17.824359 -1.67508
 6652 1   -7.199286  18.522292 -1.67508
 6653 1   -9.686471  15.706494 -1.67508
 6654 1  -10.909220  16.428494 -1.67508
 6655 1  -10.895326  17.848426 -1.67508
 6656 1   -9.658681  18.546358 -1.67508
 6657 1  -12.145865  15.730561 -1.67508
 6658 1  -13.368615  16.452560 -1.67508
 6659 1  -13.354720  17.872492 -1.67508
 6660 1  -12.118075  18.570425 -1.67508
 6661 1  -14.605259  15.754627 -1.67508
 6662 1  -15.828009  16.476627 -1.67508
 6663 1  -15.814114  17.896559 -1.67508
 6664 1  -14.577470  18.594492 -1.67508
 6665 1  -17.064654  15.778694 -1.67508
 6666 1  -18.287404  16.500693 -1.67508
 6667 1  -18.273509  17.920625 -1.67508
 6668 1  -17.036864  18.618558 -1.67508
 6669 1  -19.524048  15.802761 -1.67508
 6670 1  -20.746798  16.524760 -1.67508
 6671 1  -20.732903  17.944692 -1.67508
 6672 1  -19.496258  18.642625 -1.67508
 6673 1  -21.983443  15.826827 -1.67508
 6674 1  -23.206192  16.548827 -1.67508
 6675 1  -23.192297  17.968759 -1.67508
 6676 1  -21.955653  18.666691 -1.67508
 6677 1  -24.442837  15.850894 -1.67508
 6678 1  -25.665587  16.572893 -1.67508
 6679 1  -25.651692  17.992825 -1.67508
 6680 1  -24.415047  18.690758 -1.67508
 6681 1  -26.902231  15.874961 -1.67508
 6682 1  -28.124981  16.596960 -1.67508
 6683 1  -28.111086  18.016892 -1.67508
 6684 1  -26.874442  18.714825 -1.67508
 6685 1  -29.361626  15.899027 -1.67508
 6686 1  -30.584376  16.621027 -1.67508
 6687 1  -30.570481  18.040959 -1.67508
 6688 1  -29.333836  18.738891 -1.67508
 6689 1  -31.821020  15.923094 -1.67508
 6690 1  -33.043770  16.645093 -1.67508
 6691 1  -33.029875  18.065025 -1.67508
 6692 1  -31.793230  18.762958 -1.67508
 6693 1  -34.280415  15.947161 -1.67508
 6694 1  -35.503164  16.669160 -1.67508
 6695 1  -35.489269  18.089092 -1.67508
 6696 1  -34.252625  18.787025 -1.67508
 6697 1  -36.739809  15.971227 -1.67508
 6698 1  -37.962559  16.693227 -1.67508
 6699 1  -37.948664  18.113159 -1.67508
 6700 1  -36.712019  18.811091 -1.67508
 6701 1  -39.199203  15.995294 -1.67508
 6702 1  -40.421953  16.717293 -1.67508
 6703 1  -40.408058  18.137225 -1.67508
 6704 1  -39.171414  18.835158 -1.67508
 6705 1  -41.658598  16.019361 -1.67508
 6706 1  -42.881348  16.741360 -1.67508
 6707 1  -42.867453  18.161292 -1.67508
 6708 1  -41.630808  18.859225 -1.67508
 6709 1  -44.117992  16.043427 -1.67508
 6710 1  -45.340742  16.765427 -1.67508
 6711 1  -45.326847  18.185359 -1.67508
 6712 1  -44.090202  18.883291 -1.67508
 6713 1  -46.577387  16.067494 -1.67508
 6714 1  -47.800136  16.789493 -1.67508
 6715 1  -47.786241  18.209425 -1.67508
 6716 1  -46.549597  18.907358 -1.67508
 6717 1  -49.036781  16.091561 -1.67508
 6718 1  -50.259531  16.813560 -1.67508
 6719 1  -50.245636  18.233492 -1.67508
 6720 1  -49.008991  18.931425 -1.67508
 6721 1  -51.496175  16.115627 -1.67508
 6722 1  -52.718925  16.837626 -1.67508
 6723 1  -52.705030  18.257559 -1.67508
 6724 1  -51.468386  18.955491 -1.67508
 6725 1  -53.955570  16.139694 -1.67508
 6726 1  -55.178320  16.861693 -1.67508
 6727 1  -55.164425  18.281625 -1.67508
 6728 1  -53.927780  18.979558 -1.67508
 6729 1  -56.414964  16.163760 -1.67508
 6730 1  -57.637714  16.885760 -1.67508
 6731 1  -57.623819  18.305692 -1.67508
 6732 1  -56.387174  19.003624 -1.67508
 6733 1  -58.874359  16.187827 -1.67508
 6734 1  -60.097108  16.909826 -1.67508
 6735 1  -60.083213  18.329758 -1.67508
 6736 1  -58.846569  19.027691 -1.67508
 6737 1  -61.333753  16.211894 -1.67508
 6738 1  -62.556503  16.933893 -1.67508
 6739 1  -62.542608  18.353825 -1.67508
 6740 1  -61.305963  19.051758 -1.67508
 6741 1  -63.793147  16.235960 -1.67508
 6742 1  -65.015897  16.957960 -1.67508
 6743 1  -65.002002  18.377892 -1.67508
 6744 1  -63.765358  19.075824 -1.67508
 6745 1  -66.252542  16.260027 -1.67508
 6746 1  -67.475292  16.982026 -1.67508
 6747 1  -67.461397  18.401958 -1.67508
 6748 1  -66.224752  19.099891 -1.67508
 6749 1  -68.711936  16.284094 -1.67508
 6750 1  -69.934686  17.006093 -1.67508
 6751 1  -69.920791  18.426025 -1.67508
 6752 1  -68.684146  19.123958 -1.67508
 6753 1  -71.171331  16.308160 -1.67508
 6754 1  -72.394080  17.030160 -1.67508
 6755 1  -72.380185  18.450092 -1.67508
 6756 1  -71.143541  19.148024 -1.67508
 6757 1  -73.630725  16.332227 -1.67508
 6758 1  -74.853475  17.054226 -1.67508
 6759 1  -74.839580  18.474158 -1.67508
 6760 1  -73.602935  19.172091 -1.67508
 6761 1  -76.090119  16.356294 -1.67508
 6762 1  -77.312869  17.078293 -1.67508
 6763 1  -77.298974  18.498225 -1.67508
 6764 1  -76.062330  19.196158 -1.67508
 6765 1  -78.549514  16.380360 -1.67508
 6766 1  -79.772263  17.102360 -1.67508
 6767 1  -79.758369  18.522292 -1.67508
 6768 1  -78.521724  19.220224 -1.67508
 6769 1  -81.008908  16.404427 -1.67508
 6770 1  -82.231658  17.126426 -1.67508
 6771 1  -82.217763  18.546358 -1.67508
 6772 1  -80.981118  19.244291 -1.67508
 6773 1  -83.468303  16.428494 -1.67508
 6774 1  -84.691052  17.150493 -1.67508
 6775 1  -84.677157  18.570425 -1.67508
 6776 1  -83.440513  19.268358 -1.67508
 6777 1  -85.927697  16.452560 -1.67508
 6778 1  -87.150447  17.174560 -1.67508
 6779 1  -87.136552  18.594492 -1.67508
 6780 1  -85.899907  19.292424 -1.67508
 6781 1  -88.387091  16.476627 -1.67508
 6782 1  -89.609841  17.198626 -1.67508
 6783 1  -89.595946  18.618558 -1.67508
 6784 1  -88.359302  19.316491 -1.67508
 6785 1  -90.846486  16.500693 -1.67508
 6786 1  -92.069235  17.222693 -1.67508
 6787 1  -92.055341  18.642625 -1.67508
 6788 1  -90.818696  19.340557 -1.67508
 6789 1  -93.305880  16.524760 -1.67508
 6790 1  -94.528630  17.246759 -1.67508
 6791 1  -94.514735  18.666691 -1.67508
 6792 1  -93.278090  19.364624 -1.67508
 6793 1  -95.765275  16.548827 -1.67508
 6794 1  -96.988024  17.270826 -1.67508
 6795 1  -96.974129  18.690758 -1.67508
 6796 1  -95.737485  19.388691 -1.67508
 6797 1  -98.224669  16.572893 -1.67508
 6798 1  -99.447419  17.294893 -1.67508
 6799 1  -99.433524  18.714825 -1.67508
 6800 1  -98.196879  19.412757 -1.67508
 6801 1 -100.684063  16.596960 -1.67508
 6802 1 -101.906813  17.318959 -1.67508
 6803 1 -101.892918  18.738891 -1.67508
 6804 1 -100.656274  19.436824 -1.67508
 6805 1 -103.143458  16.621027 -1.67508
 6806 1 -104.366207  17.343026 -1.67508
 6807 1 -104.352313  18.762958 -1.67508
 6808 1 -103.115668  19.460891 -1.67508
 6809 1 -105.602852  16.645093 -1.67508
 6810 1 -106.825602  17.367093 -1.67508
 6811 1 -106.811707  18.787025 -1.67508
 6812 1 -105.575062  19.484957 -1.67508
 6813 1 -108.062246  16.669160 -1.67508
 6814 1 -108.034457  19.509024 -1.67508
 6815 1  108.406145  18.811091 -1.67508
 6816 1  107.183395  19.533091 -1.67508
 6817 1  107.197290  20.953023 -1.67508
 6818 1  108.433935  21.650955 -1.67508
 6819 1  105.946751  18.835158 -1.67508
 6820 1  104.724001  19.557157 -1.67508
 6821 1  104.737896  20.977089 -1.67508
 6822 1  105.974540  21.675022 -1.67508
 6823 1  103.487356  18.859225 -1.67508
 6824 1  102.264606  19.581224 -1.67508
 6825 1  102.278501  21.001156 -1.67508
 6826 1  103.515146  21.699089 -1.67508
 6827 1  101.027962  18.883291 -1.67508
 6828 1   99.805212  19.605291 -1.67508
 6829 1   99.819107  21.025223 -1.67508
 6830 1  101.055752  21.723155 -1.67508
 6831 1   98.568567  18.907358 -1.67508
 6832 1   97.345818  19.629357 -1.67508
 6833 1   97.359713  21.049289 -1.67508
 6834 1   98.596357  21.747222 -1.67508
 6835 1   96.109173  18.931425 -1.67508
 6836 1   94.886423  19.653424 -1.67508
 6837 1   94.900318  21.073356 -1.67508
 6838 1   96.136963  21.771289 -1.67508
 6839 1   93.649779  18.955491 -1.67508
 6840 1   92.427029  19.677491 -1.67508
 6841 1   92.440924  21.097423 -1.67508
 6842 1   93.677568  21.795355 -1.67508
 6843 1   91.190384  18.979558 -1.67508
 6844 1   89.967635  19.701557 -1.67508
 6845 1   89.981529  21.121489 -1.67508
 6846 1   91.218174  21.819422 -1.67508
 6847 1   88.730990  19.003624 -1.67508
 6848 1   87.508240  19.725624 -1.67508
 6849 1   87.522135  21.145556 -1.67508
 6850 1   88.758780  21.843489 -1.67508
 6851 1   86.271595  19.027691 -1.67508
 6852 1   85.048846  19.749690 -1.67508
 6853 1   85.062741  21.169622 -1.67508
 6854 1   86.299385  21.867555 -1.67508
 6855 1   83.812201  19.051758 -1.67508
 6856 1   82.589451  19.773757 -1.67508
 6857 1   82.603346  21.193689 -1.67508
 6858 1   83.839991  21.891622 -1.67508
 6859 1   81.352807  19.075824 -1.67508
 6860 1   80.130057  19.797824 -1.67508
 6861 1   80.143952  21.217756 -1.67508
 6862 1   81.380596  21.915688 -1.67508
 6863 1   78.893412  19.099891 -1.67508
 6864 1   77.670663  19.821890 -1.67508
 6865 1   77.684557  21.241822 -1.67508
 6866 1   78.921202  21.939755 -1.67508
 6867 1   76.434018  19.123958 -1.67508
 6868 1   75.211268  19.845957 -1.67508
 6869 1   75.225163  21.265889 -1.67508
 6870 1   76.461808  21.963822 -1.67508
 6871 1   73.974623  19.148024 -1.67508
 6872 1   72.751874  19.870024 -1.67508
 6873 1   72.765769  21.289956 -1.67508
 6874 1   74.002413  21.987888 -1.67508
 6875 1   71.515229  19.172091 -1.67508
 6876 1   70.292479  19.894090 -1.67508
 6877 1   70.306374  21.314022 -1.67508
 6878 1   71.543019  22.011955 -1.67508
 6879 1   69.055835  19.196158 -1.67508
 6880 1   67.833085  19.918157 -1.67508
 6881 1   67.846980  21.338089 -1.67508
 6882 1   69.083624  22.036022 -1.67508
 6883 1   66.596440  19.220224 -1.67508
 6884 1   65.373691  19.942224 -1.67508
 6885 1   65.387585  21.362156 -1.67508
 6886 1   66.624230  22.060088 -1.67508
 6887 1   64.137046  19.244291 -1.67508
 6888 1   62.914296  19.966290 -1.67508
 6889 1   62.928191  21.386222 -1.67508
 6890 1   64.164836  22.084155 -1.67508
 6891 1   61.677652  19.268358 -1.67508
 6892 1   60.454902  19.990357 -1.67508
 6893 1   60.468797  21.410289 -1.67508
 6894 1   61.705441  22.108222 -1.67508
 6895 1   59.218257  19.292424 -1.67508
 6896 1   57.995507  20.014424 -1.67508
 6897 1   58.009402  21.434356 -1.67508
 6898 1   59.246047  22.132288 -1.67508
 6899 1   56.758863  19.316491 -1.67508
 6900 1   55.536113  20.038490 -1.67508
 6901 1   55.550008  21.458422 -1.67508
 6902 1   56.786652  22.156355 -1.67508
 6903 1   54.299468  19.340557 -1.67508
 6904 1   53.076719  20.062557 -1.67508
 6905 1   53.090613  21.482489 -1.67508
 6906 1   54.327258  22.180422 -1.67508
 6907 1   51.840074  19.364624 -1.67508
 6908 1   50.617324  20.086623 -1.67508
 6909 1   50.631219  21.506555 -1.67508
 6910 1   51.867864  22.204488 -1.67508
 6911 1   49.380680  19.388691 -1.67508
 6912 1   48.157930  20.110690 -1.67508
 6913 1   48.171825  21.530622 -1.67508
 6914 1   49.408469  22.228555 -1.67508
 6915 1   46.921285  19.412757 -1.67508
 6916 1   45.698535  20.134757 -1.67508
 6917 1   45.712430  21.554689 -1.67508
 6918 1   46.949075  22.252621 -1.67508
 6919 1   44.461891  19.436824 -1.67508
 6920 1   43.239141  20.158823 -1.67508
 6921 1   43.253036  21.578755 -1.67508
 6922 1   44.489680  22.276688 -1.67508
 6923 1   42.002496  19.460891 -1.67508
 6924 1   40.779747  20.182890 -1.67508
 6925 1   40.793641  21.602822 -1.67508
 6926 1   42.030286  22.300755 -1.67508
 6927 1   39.543102  19.484957 -1.67508
 6928 1   38.320352  20.206957 -1.67508
 6929 1   38.334247  21.626889 -1.67508
 6930 1   39.570892  22.324821 -1.67508
 6931 1   37.083708  19.509024 -1.67508
 6932 1   35.860958  20.231023 -1.67508
 6933 1   35.874853  21.650955 -1.67508
 6934 1   37.111497  22.348888 -1.67508
 6935 1   34.624313  19.533091 -1.67508
 6936 1   33.401563  20.255090 -1.67508
 6937 1   33.415458  21.675022 -1.67508
 6938 1   34.652103  22.372955 -1.67508
 6939 1   32.164919  19.557157 -1.67508
 6940 1   30.942169  20.279157 -1.67508
 6941 1   30.956064  21.699089 -1.67508
 6942 1   32.192709  22.397021 -1.67508
 6943 1   29.705524  19.581224 -1.67508
 6944 1   28.482775  20.303223 -1.67508
 6945 1   28.496669  21.723155 -1.67508
 6946 1   29.733314  22.421088 -1.67508
 6947 1   27.246130  19.605291 -1.67508
 6948 1   26.023380  20.327290 -1.67508
 6949 1   26.037275  21.747222 -1.67508
 6950 1   27.273920  22.445155 -1.67508
 6951 1   24.786736  19.629357 -1.67508
 6952 1   23.563986  20.351357 -1.67508
 6953 1   23.577881  21.771289 -1.67508
 6954 1   24.814525  22.469221 -1.67508
 6955 1   22.327341  19.653424 -1.67508
 6956 1   21.104591  20.375423 -1.67508
 6957 1   21.118486  21.795355 -1.67508
 6958 1   22.355131  22.493288 -1.67508
 6959 1   19.867947  19.677491 -1.67508
 6960 1   18.645197  20.399490 -1.67508
 6961 1   18.659092  21.819422 -1.67508
 6962 1   19.895737  22.517355 -1.67508
 6963 1   17.408552  19.701557 -1.67508
 6964 1   16.185803  20.423556 -1.67508
 6965 1   16.199697  21.843489 -1.67508
 6966 1   17.436342  22.541421 -1.67508
 6967 1   14.949158  19.725624 -1.67508
 6968 1   13.726408  20.447623 -1.67508
 6969 1   13.740303  21.867555 -1.67508
 6970 1   14.976948  22.565488 -1.67508
 6971 1   12.489764  19.749690 -1.67508
 6972 1   11.267014  20.471690 -1.67508
 6973 1   11.280909  21.891622 -1.67508
 6974 1   12.517553  22.589554 -1.67508
 6975 1   10.030369  19.773757 -1.67508
 6976 1    8.807619  20.495756 -1.67508
 6977 1    8.821514  21.915688 -1.67508
 6978 1   10.058159  22.613621 -1.67508
 6979 1    7.570975  19.797824 -1.67508
 6980 1    6.348225  20.519823 -1.67508
 6981 1    6.362120  21.939755 -1.67508
 6982 1    7.598765  22.637688 -1.67508
 6983 1    5.111580  19.821890 -1.67508
 6984 1    3.888831  20.543890 -1.67508
 6985 1    3.902726  21.963822 -1.67508
 6986 1    5.139370  22.661754 -1.67508
 6987 1    2.652186  19.845957 -1.67508
 6988 1    1.429436  20.567956 -1.67508
 6989 1    1.443331  21.987888 -1.67508
 6990 1    2.679976  22.685821 -1.67508
 6991 1    0.192792  19.870024 -1.67508
 6992 1   -1.029958  20.592023 -1.67508
 6993 1   -1.016063  22.011955 -1.67508
 6994 1    0.220581  22.709888 -1.67508
 6995 1   -2.266603  19.894090 -1.67508
 6996 1   -3.489353  20.616090 -1.67508
 6997 1   -3.475458  22.036022 -1.67508
 6998 1   -2.238813  22.733954 -1.67508
 6999 1   -4.725997  19.918157 -1.67508
 7000 1   -5.948747  20.640156 -1.67508
 7001 1   -5.934852  22.060088 -1.67508
 7002 1   -4.698207  22.758021 -1.67508
 7003 1   -7.185392  19.942224 -1.67508
 7004 1   -8.408141  20.664223 -1.67508
 7005 1   -8.394246  22.084155 -1.67508
 7006 1   -7.157602  22.782088 -1.67508
 7007 1   -9.644786  19.966290 -1.67508
 7008 1  -10.867536  20.688290 -1.67508
 7009 1  -10.853641  22.108222 -1.67508
 7010 1   -9.616996  22.806154 -1.67508
 7011 1  -12.104180  19.990357 -1.67508
 7012 1  -13.326930  20.712356 -1.67508
 7013 1  -13.313035  22.132288 -1.67508
 7014 1  -12.076391  22.830221 -1.67508
 7015 1  -14.563575  20.014424 -1.67508
 7016 1  -15.786325  20.736423 -1.67508
 7017 1  -15.772430  22.156355 -1.67508
 7018 1  -14.535785  22.854288 -1.67508
 7019 1  -17.022969  20.038490 -1.67508
 7020 1  -18.245719  20.760490 -1.67508
 7021 1  -18.231824  22.180422 -1.67508
 7022 1  -16.995179  22.878354 -1.67508
 7023 1  -19.482364  20.062557 -1.67508
 7024 1  -20.705113  20.784556 -1.67508
 7025 1  -20.691218  22.204488 -1.67508
 7026 1  -19.454574  22.902421 -1.67508
 7027 1  -21.941758  20.086623 -1.67508
 7028 1  -23.164508  20.808623 -1.67508
 7029 1  -23.150613  22.228555 -1.67508
 7030 1  -21.913968  22.926488 -1.67508
 7031 1  -24.401152  20.110690 -1.67508
 7032 1  -25.623902  20.832689 -1.67508
 7033 1  -25.610007  22.252621 -1.67508
 7034 1  -24.373363  22.950554 -1.67508
 7035 1  -26.860547  20.134757 -1.67508
 7036 1  -28.083297  20.856756 -1.67508
 7037 1  -28.069402  22.276688 -1.67508
 7038 1  -26.832757  22.974621 -1.67508
 7039 1  -29.319941  20.158823 -1.67508
 7040 1  -30.542691  20.880823 -1.67508
 7041 1  -30.528796  22.300755 -1.67508
 7042 1  -29.292151  22.998687 -1.67508
 7043 1  -31.779336  20.182890 -1.67508
 7044 1  -33.002085  20.904889 -1.67508
 7045 1  -32.988190  22.324821 -1.67508
 7046 1  -31.751546  23.022754 -1.67508
 7047 1  -34.238730  20.206957 -1.67508
 7048 1  -35.461480  20.928956 -1.67508
 7049 1  -35.447585  22.348888 -1.67508
 7050 1  -34.210940  23.046821 -1.67508
 7051 1  -36.698124  20.231023 -1.67508
 7052 1  -37.920874  20.953023 -1.67508
 7053 1  -37.906979  22.372955 -1.67508
 7054 1  -36.670335  23.070887 -1.67508
 7055 1  -39.157519  20.255090 -1.67508
 7056 1  -40.380269  20.977089 -1.67508
 7057 1  -40.366374  22.397021 -1.67508
 7058 1  -39.129729  23.094954 -1.67508
 7059 1  -41.616913  20.279157 -1.67508
 7060 1  -42.839663  21.001156 -1.67508
 7061 1  -42.825768  22.421088 -1.67508
 7062 1  -41.589123  23.119021 -1.67508
 7063 1  -44.076308  20.303223 -1.67508
 7064 1  -45.299057  21.025223 -1.67508
 7065 1  -45.285162  22.445155 -1.67508
 7066 1  -44.048518  23.143087 -1.67508
 7067 1  -46.535702  20.327290 -1.67508
 7068 1  -47.758452  21.049289 -1.67508
 7069 1  -47.744557  22.469221 -1.67508
 7070 1  -46.507912  23.167154 -1.67508
 7071 1  -48.995096  20.351357 -1.67508
 7072 1  -50.217846  21.073356 -1.67508
 7073 1  -50.203951  22.493288 -1.67508
 7074 1  -48.967307  23.191221 -1.67508
 7075 1  -51.454491  20.375423 -1.67508
 7076 1  -52.677240  21.097423 -1.67508
 7077 1  -52.663346  22.517355 -1.67508
 7078 1  -51.426701  23.215287 -1.67508
 7079 1  -53.913885  20.399490 -1.67508
 7080 1  -55.136635  21.121489 -1.67508
 7081 1  -55.122740  22.541421 -1.67508
 7082 1  -53.886095  23.239354 -1.67508
 7083 1  -56.373280  20.423556 -1.67508
 7084 1  -57.596029  21.145556 -1.67508
 7085 1  -57.582134  22.565488 -1.67508
 7086 1  -56.345490  23.263421 -1.67508
 7087 1  -58.832674  20.447623 -1.67508
 7088 1  -60.055424  21.169622 -1.67508
 7089 1  -60.041529  22.589554 -1.67508
 7090 1  -58.804884  23.287487 -1.67508
 7091 1  -61.292068  20.471690 -1.67508
 7092 1  -62.514818  21.193689 -1.67508
 7093 1  -62.500923  22.613621 -1.67508
 7094 1  -61.264279  23.311554 -1.67508
 7095 1  -63.751463  20.495756 -1.67508
 7096 1  -64.974212  21.217756 -1.67508
 7097 1  -64.960318  22.637688 -1.67508
 7098 1  -63.723673  23.335620 -1.67508
 7099 1  -66.210857  20.519823 -1.67508
 7100 1  -67.433607  21.241822 -1.67508
 7101 1  -67.419712  22.661754 -1.67508
 7102 1  -66.183067  23.359687 -1.67508
 7103 1  -68.670252  20.543890 -1.67508
 7104 1  -69.893001  21.265889 -1.67508
 7105 1  -69.879106  22.685821 -1.67508
 7106 1  -68.642462  23.383754 -1.67508
 7107 1  -71.129646  20.567956 -1.67508
 7108 1  -72.352396  21.289956 -1.67508
 7109 1  -72.338501  22.709888 -1.67508
 7110 1  -71.101856  23.407820 -1.67508
 7111 1  -73.589040  20.592023 -1.67508
 7112 1  -74.811790  21.314022 -1.67508
 7113 1  -74.797895  22.733954 -1.67508
 7114 1  -73.561251  23.431887 -1.67508
 7115 1  -76.048435  20.616090 -1.67508
 7116 1  -77.271184  21.338089 -1.67508
 7117 1  -77.257290  22.758021 -1.67508
 7118 1  -76.020645  23.455954 -1.67508
 7119 1  -78.507829  20.640156 -1.67508
 7120 1  -79.730579  21.362156 -1.67508
 7121 1  -79.716684  22.782088 -1.67508
 7122 1  -78.480039  23.480020 -1.67508
 7123 1  -80.967223  20.664223 -1.67508
 7124 1  -82.189973  21.386222 -1.67508
 7125 1  -82.176078  22.806154 -1.67508
 7126 1  -80.939434  23.504087 -1.67508
 7127 1  -83.426618  20.688290 -1.67508
 7128 1  -84.649368  21.410289 -1.67508
 7129 1  -84.635473  22.830221 -1.67508
 7130 1  -83.398828  23.528154 -1.67508
 7131 1  -85.886012  20.712356 -1.67508
 7132 1  -87.108762  21.434356 -1.67508
 7133 1  -87.094867  22.854288 -1.67508
 7134 1  -85.858223  23.552220 -1.67508
 7135 1  -88.345407  20.736423 -1.67508
 7136 1  -89.568156  21.458422 -1.67508
 7137 1  -89.554262  22.878354 -1.67508
 7138 1  -88.317617  23.576287 -1.67508
 7139 1  -90.804801  20.760490 -1.67508
 7140 1  -92.027551  21.482489 -1.67508
 7141 1  -92.013656  22.902421 -1.67508
 7142 1  -90.777011  23.600354 -1.67508
 7143 1  -93.264195  20.784556 -1.67508
 7144 1  -94.486945  21.506555 -1.67508
 7145 1  -94.473050  22.926488 -1.67508
 7146 1  -93.236406  23.624420 -1.67508
 7147 1  -95.723590  20.808623 -1.67508
 7148 1  -96.946340  21.530622 -1.67508
 7149 1  -96.932445  22.950554 -1.67508
 7150 1  -95.695800  23.648487 -1.67508
 7151 1  -98.182984  20.832689 -1.67508
 7152 1  -99.405734  21.554689 -1.67508
 7153 1  -99.391839  22.974621 -1.67508
 7154 1  -98.155194  23.672553 -1.67508
 7155 1 -100.642379  20.856756 -1.67508
 7156 1 -101.865128  21.578755 -1.67508
 7157 1 -101.851234  22.998687 -1.67508
 7158 1 -100.614589  23.696620 -1.67508
 7159 1 -103.101773  20.880823 -1.67508
 7160 1 -104.324523  21.602822 -1.67508
 7161 1 -104.310628  23.022754 -1.67508
 7162 1 -103.073983  23.720687 -1.67508
 7163 1 -105.561167  20.904889 -1.67508
 7164 1 -106.783917  21.626889 -1.67508
 7165 1 -106.770022  23.046821 -1.67508
 7166 1 -105.533378  23.744753 -1.67508
 7167 1 -108.020562  20.928956 -1.67508
 7168 1 -107.992772  23.768820 -1.67508
 7169 1  108.447830  23.070887 -1.67508
 7170 1  107.225080  23.792887 -1.67508
 7171 1  107.238975  25.212819 -1.67508
 7172 1  108.475619  25.910751 -1.67508
 7173 1  105.988435  23.094954 -1.67508
 7174 1  104.765686  23.816953 -1.67508
 7175 1  104.779580  25.236885 -1.67508
 7176 1  106.016225  25.934818 -1.67508
 7177 1  103.529041  23.119021 -1.67508
 7178 1  102.306291  23.841020 -1.67508
 7179 1  102.320186  25.260952 -1.67508
 7180 1  103.556831  25.958885 -1.67508
 7181 1  101.069646  23.143087 -1.67508
 7182 1   99.846897  23.865087 -1.67508
 7183 1   99.860792  25.285019 -1.67508
 7184 1  101.097436  25.982951 -1.67508
 7185 1   98.610252  23.167154 -1.67508
 7186 1   97.387502  23.889153 -1.67508
 7187 1   97.401397  25.309085 -1.67508
 7188 1   98.638042  26.007018 -1.67508
 7189 1   96.150858  23.191221 -1.67508
 7190 1   94.928108  23.913220 -1.67508
 7191 1   94.942003  25.333152 -1.67508
 7192 1   96.178647  26.031085 -1.67508
 7193 1   93.691463  23.215287 -1.67508
 7194 1   92.468714  23.937287 -1.67508
 7195 1   92.482608  25.357219 -1.67508
 7196 1   93.719253  26.055151 -1.67508
 7197 1   91.232069  23.239354 -1.67508
 7198 1   90.009319  23.961353 -1.67508
 7199 1   90.023214  25.381285 -1.67508
 7200 1   91.259859  26.079218 -1.67508
 7201 1   88.772675  23.263421 -1.67508
 7202 1   87.549925  23.985420 -1.67508
 7203 1   87.563820  25.405352 -1.67508
 7204 1   88.800464  26.103285 -1.67508
 7205 1   86.313280  23.287487 -1.67508
 7206 1   85.090530  24.009487 -1.67508
 7207 1   85.104425  25.429419 -1.67508
 7208 1   86.341070  26.127351 -1.67508
 7209 1   83.853886  23.311554 -1.67508
 7210 1   82.631136  24.033553 -1.67508
 7211 1   82.645031  25.453485 -1.67508
 7212 1   83.881675  26.151418 -1.67508
 7213 1   81.394491  23.335620 -1.67508
 7214 1   80.171742  24.057620 -1.67508
 7215 1   80.185636  25.477552 -1.67508
 7216 1   81.422281  26.175484 -1.67508
 7217 1   78.935097  23.359687 -1.67508
 7218 1   77.712347  24.081686 -1.67508
 7219 1   77.726242  25.501618 -1.67508
 7220 1   78.962887  26.199551 -1.67508
 7221 1   76.475703  23.383754 -1.67508
 7222 1   75.252953  24.105753 -1.67508
 7223 1   75.266848  25.525685 -1.67508
 7224 1   76.503492  26.223618 -1.67508
 7225 1   74.016308  23.407820 -1.67508
 7226 1   72.793558  24.129820 -1.67508
 7227 1   72.807453  25.549752 -1.67508
 7228 1   74.044098  26.247684 -1.67508
 7229 1   71.556914  23.431887 -1.67508
 7230 1   70.334164  24.153886 -1.67508
 7231 1   70.348059  25.573818 -1.67508
 7232 1   71.584704  26.271751 -1.67508
 7233 1   69.097519  23.455954 -1.67508
 7234 1   67.874770  24.177953 -1.67508
 7235 1   67.888664  25.597885 -1.67508
 7236 1   69.125309  26.295818 -1.67508
 7237 1   66.638125  23.480020 -1.67508
 7238 1   65.415375  24.202020 -1.67508
 7239 1   65.429270  25.621952 -1.67508
 7240 1   66.665915  26.319884 -1.67508
 7241 1   64.178731  23.504087 -1.67508
 7242 1   62.955981  24.226086 -1.67508
 7243 1   62.969876  25.646018 -1.67508
 7244 1   64.206520  26.343951 -1.67508
 7245 1   61.719336  23.528154 -1.67508
 7246 1   60.496586  24.250153 -1.67508
 7247 1   60.510481  25.670085 -1.67508
 7248 1   61.747126  26.368018 -1.67508
 7249 1   59.259942  23.552220 -1.67508
 7250 1   58.037192  24.274220 -1.67508
 7251 1   58.051087  25.694152 -1.67508
 7252 1   59.287732  26.392084 -1.67508
 7253 1   56.800547  23.576287 -1.67508
 7254 1   55.577798  24.298286 -1.67508
 7255 1   55.591692  25.718218 -1.67508
 7256 1   56.828337  26.416151 -1.67508
 7257 1   54.341153  23.600354 -1.67508
 7258 1   53.118403  24.322353 -1.67508
 7259 1   53.132298  25.742285 -1.67508
 7260 1   54.368943  26.440218 -1.67508
 7261 1   51.881759  23.624420 -1.67508
 7262 1   50.659009  24.346420 -1.67508
 7263 1   50.672904  25.766352 -1.67508
 7264 1   51.909548  26.464284 -1.67508
 7265 1   49.422364  23.648487 -1.67508
 7266 1   48.199614  24.370486 -1.67508
 7267 1   48.213509  25.790418 -1.67508
 7268 1   49.450154  26.488351 -1.67508
 7269 1   46.962970  23.672553 -1.67508
 7270 1   45.740220  24.394553 -1.67508
 7271 1   45.754115  25.814485 -1.67508
 7272 1   46.990760  26.512418 -1.67508
 7273 1   44.503575  23.696620 -1.67508
 7274 1   43.280826  24.418619 -1.67508
 7275 1   43.294721  25.838551 -1.67508
 7276 1   44.531365  26.536484 -1.67508
 7277 1   42.044181  23.720687 -1.67508
 7278 1   40.821431  24.442686 -1.67508
 7279 1   40.835326  25.862618 -1.67508
 7280 1   42.071971  26.560551 -1.67508
 7281 1   39.584787  23.744753 -1.67508
 7282 1   38.362037  24.466753 -1.67508
 7283 1   38.375932  25.886685 -1.67508
 7284 1   39.612576  26.584617 -1.67508
 7285 1   37.125392  23.768820 -1.67508
 7286 1   35.902642  24.490819 -1.67508
 7287 1   35.916537  25.910751 -1.67508
 7288 1   37.153182  26.608684 -1.67508
 7289 1   34.665998  23.792887 -1.67508
 7290 1   33.443248  24.514886 -1.67508
 7291 1   33.457143  25.934818 -1.67508
 7292 1   34.693788  26.632751 -1.67508
 7293 1   32.206603  23.816953 -1.67508
 7294 1   30.983854  24.538953 -1.67508
 7295 1   30.997749  25.958885 -1.67508
 7296 1   32.234393  26.656817 -1.67508
 7297 1   29.747209  23.841020 -1.67508
 7298 1   28.524459  24.563019 -1.67508
 7299 1   28.538354  25.982951 -1.67508
 7300 1   29.774999  26.680884 -1.67508
 7301 1   27.287815  23.865087 -1.67508
 7302 1   26.065065  24.587086 -1.67508
 7303 1   26.078960  26.007018 -1.67508
 7304 1   27.315604  26.704951 -1.67508
 7305 1   24.828420  23.889153 -1.67508
 7306 1   23.605670  24.611153 -1.67508
 7307 1   23.619565  26.031085 -1.67508
 7308 1   24.856210  26.729017 -1.67508
 7309 1   22.369026  23.913220 -1.67508
 7310 1   21.146276  24.635219 -1.67508
 7311 1   21.160171  26.055151 -1.67508
 7312 1   22.396816  26.753084 -1.67508
 7313 1   19.909631  23.937287 -1.67508
 7314 1   18.686882  24.659286 -1.67508
 7315 1   18.700777  26.079218 -1.67508
 7316 1   19.937421  26.777151 -1.67508
 7317 1   17.450237  23.961353 -1.67508
 7318 1   16.227487  24.683353 -1.67508
 7319 1   16.241382  26.103285 -1.67508
 7320 1   17.478027  26.801217 -1.67508
 7321 1   14.990843  23.985420 -1.67508
 7322 1   13.768093  24.707419 -1.67508
 7323 1   13.781988  26.127351 -1.67508
 7324 1   15.018632  26.825284 -1.67508
 7325 1   12.531448  24.009487 -1.67508
 7326 1   11.308698  24.731486 -1.67508
 7327 1   11.322593  26.151418 -1.67508
 7328 1   12.559238  26.849351 -1.67508
 7329 1   10.072054  24.033553 -1.67508
 7330 1    8.849304  24.755552 -1.67508
 7331 1    8.863199  26.175484 -1.67508
 7332 1   10.099844  26.873417 -1.67508
 7333 1    7.612659  24.057620 -1.67508
 7334 1    6.389910  24.779619 -1.67508
 7335 1    6.403805  26.199551 -1.67508
 7336 1    7.640449  26.897484 -1.67508
 7337 1    5.153265  24.081686 -1.67508
 7338 1    3.930515  24.803686 -1.67508
 7339 1    3.944410  26.223618 -1.67508
 7340 1    5.181055  26.921550 -1.67508
 7341 1    2.693871  24.105753 -1.67508
 7342 1    1.471121  24.827752 -1.67508
 7343 1    1.485016  26.247684 -1.67508
 7344 1    2.721660  26.945617 -1.67508
 7345 1    0.234476  24.129820 -1.67508
 7346 1   -0.988274  24.851819 -1.67508
 7347 1   -0.974379  26.271751 -1.67508
 7348 1    0.262266  26.969684 -1.67508
 7349 1   -2.224918  24.153886 -1.67508
 7350 1   -3.447668  24.875886 -1.67508
 7351 1   -3.433773  26.295818 -1.67508
 7352 1   -2.197128  26.993750 -1.67508
 7353 1   -4.684313  24.177953 -1.67508
 7354 1   -5.907062  24.899952 -1.67508
 7355 1   -5.893167  26.319884 -1.67508
 7356 1   -4.656523  27.017817 -1.67508
 7357 1   -7.143707  24.202020 -1.67508
 7358 1   -8.366457  24.924019 -1.67508
 7359 1   -8.352562  26.343951 -1.67508
 7360 1   -7.115917  27.041884 -1.67508
 7361 1   -9.603101  24.226086 -1.67508
 7362 1  -10.825851  24.948086 -1.67508
 7363 1  -10.811956  26.368018 -1.67508
 7364 1   -9.575312  27.065950 -1.67508
 7365 1  -12.062496  24.250153 -1.67508
 7366 1  -13.285245  24.972152 -1.67508
 7367 1  -13.271351  26.392084 -1.67508
 7368 1  -12.034706  27.090017 -1.67508
 7369 1  -14.521890  24.274220 -1.67508
 7370 1  -15.744640  24.996219 -1.67508
 7371 1  -15.730745  26.416151 -1.67508
 7372 1  -14.494100  27.114084 -1.67508
 7373 1  -16.981285  24.298286 -1.67508
 7374 1  -18.204034  25.020286 -1.67508
 7375 1  -18.190139  26.440218 -1.67508
 7376 1  -16.953495  27.138150 -1.67508
 7377 1  -19.440679  24.322353 -1.67508
 7378 1  -20.663429  25.044352 -1.67508
 7379 1  -20.649534  26.464284 -1.67508
 7380 1  -19.412889  27.162217 -1.67508
 7381 1  -21.900073  24.346420 -1.67508
 7382 1  -23.122823  25.068419 -1.67508
 7383 1  -23.108928  26.488351 -1.67508
 7384 1  -21.872284  27.186284 -1.67508
 7385 1  -24.359468  24.370486 -1.67508
 7386 1  -25.582217  25.092485 -1.67508
 7387 1  -25.568323  26.512418 -1.67508
 7388 1  -24.331678  27.210350 -1.67508
 7389 1  -26.818862  24.394553 -1.67508
 7390 1  -28.041612  25.116552 -1.67508
 7391 1  -28.027717  26.536484 -1.67508
 7392 1  -26.791072  27.234417 -1.67508
 7393 1  -29.278257  24.418619 -1.67508
 7394 1  -30.501006  25.140619 -1.67508
 7395 1  -30.487111  26.560551 -1.67508
 7396 1  -29.250467  27.258483 -1.67508
 7397 1  -31.737651  24.442686 -1.67508
 7398 1  -32.960401  25.164685 -1.67508
 7399 1  -32.946506  26.584617 -1.67508
 7400 1  -31.709861  27.282550 -1.67508
 7401 1  -34.197045  24.466753 -1.67508
 7402 1  -35.419795  25.188752 -1.67508
 7403 1  -35.405900  26.608684 -1.67508
 7404 1  -34.169256  27.306617 -1.67508
 7405 1  -36.656440  24.490819 -1.67508
 7406 1  -37.879189  25.212819 -1.67508
 7407 1  -37.865295  26.632751 -1.67508
 7408 1  -36.628650  27.330683 -1.67508
 7409 1  -39.115834  24.514886 -1.67508
 7410 1  -40.338584  25.236885 -1.67508
 7411 1  -40.324689  26.656817 -1.67508
 7412 1  -39.088044  27.354750 -1.67508
 7413 1  -41.575228  24.538953 -1.67508
 7414 1  -42.797978  25.260952 -1.67508
 7415 1  -42.784083  26.680884 -1.67508
 7416 1  -41.547439  27.378817 -1.67508
 7417 1  -44.034623  24.563019 -1.67508
 7418 1  -45.257373  25.285019 -1.67508
 7419 1  -45.243478  26.704951 -1.67508
 7420 1  -44.006833  27.402883 -1.67508
 7421 1  -46.494017  24.587086 -1.67508
 7422 1  -47.716767  25.309085 -1.67508
 7423 1  -47.702872  26.729017 -1.67508
 7424 1  -46.466228  27.426950 -1.67508
 7425 1  -48.953412  24.611153 -1.67508
 7426 1  -50.176161  25.333152 -1.67508
 7427 1  -50.162267  26.753084 -1.67508
 7428 1  -48.925622  27.451017 -1.67508
 7429 1  -51.412806  24.635219 -1.67508
 7430 1  -52.635556  25.357219 -1.67508
 7431 1  -52.621661  26.777151 -1.67508
 7432 1  -51.385016  27.475083 -1.67508
 7433 1  -53.872200  24.659286 -1.67508
 7434 1  -55.094950  25.381285 -1.67508
 7435 1  -55.081055  26.801217 -1.67508
 7436 1  -53.844411  27.499150 -1.67508
 7437 1  -56.331595  24.683353 -1.67508
 7438 1  -57.554345  25.405352 -1.67508
 7439 1  -57.540450  26.825284 -1.67508
 7440 1  -56.303805  27.523217 -1.67508
 7441 1  -58.790989  24.707419 -1.67508
 7442 1  -60.013739  25.429419 -1.67508
 7443 1  -59.999844  26.849351 -1.67508
 7444 1  -58.763200  27.547283 -1.67508
 7445 1  -61.250384  24.731486 -1.67508
 7446 1  -62.473133  25.453485 -1.67508
 7447 1  -62.459239  26.873417 -1.67508
 7448 1  -61.222594  27.571350 -1.67508
 7449 1  -63.709778  24.755552 -1.67508
 7450 1  -64.932528  25.477552 -1.67508
 7451 1  -64.918633  26.897484 -1.67508
 7452 1  -63.681988  27.595417 -1.67508
 7453 1  -66.169172  24.779619 -1.67508
 7454 1  -67.391922  25.501618 -1.67508
 7455 1  -67.378027  26.921550 -1.67508
 7456 1  -66.141383  27.619483 -1.67508
 7457 1  -68.628567  24.803686 -1.67508
 7458 1  -69.851317  25.525685 -1.67508
 7459 1  -69.837422  26.945617 -1.67508
 7460 1  -68.600777  27.643550 -1.67508
 7461 1  -71.087961  24.827752 -1.67508
 7462 1  -72.310711  25.549752 -1.67508
 7463 1  -72.296816  26.969684 -1.67508
 7464 1  -71.060171  27.667616 -1.67508
 7465 1  -73.547356  24.851819 -1.67508
 7466 1  -74.770105  25.573818 -1.67508
 7467 1  -74.756211  26.993750 -1.67508
 7468 1  -73.519566  27.691683 -1.67508
 7469 1  -76.006750  24.875886 -1.67508
 7470 1  -77.229500  25.597885 -1.67508
 7471 1  -77.215605  27.017817 -1.67508
 7472 1  -75.978960  27.715750 -1.67508
 7473 1  -78.466144  24.899952 -1.67508
 7474 1  -79.688894  25.621952 -1.67508
 7475 1  -79.674999  27.041884 -1.67508
 7476 1  -78.438355  27.739816 -1.67508
 7477 1  -80.925539  24.924019 -1.67508
 7478 1  -82.148289  25.646018 -1.67508
 7479 1  -82.134394  27.065950 -1.67508
 7480 1  -80.897749  27.763883 -1.67508
 7481 1  -83.384933  24.948086 -1.67508
 7482 1  -84.607683  25.670085 -1.67508
 7483 1  -84.593788  27.090017 -1.67508
 7484 1  -83.357143  27.787950 -1.67508
 7485 1  -85.844328  24.972152 -1.67508
 7486 1  -87.067077  25.694152 -1.67508
 7487 1  -87.053183  27.114084 -1.67508
 7488 1  -85.816538  27.812016 -1.67508
 7489 1  -88.303722  24.996219 -1.67508
 7490 1  -89.526472  25.718218 -1.67508
 7491 1  -89.512577  27.138150 -1.67508
 7492 1  -88.275932  27.836083 -1.67508
 7493 1  -90.763116  25.020286 -1.67508
 7494 1  -91.985866  25.742285 -1.67508
 7495 1  -91.971971  27.162217 -1.67508
 7496 1  -90.735327  27.860150 -1.67508
 7497 1  -93.222511  25.044352 -1.67508
 7498 1  -94.445261  25.766352 -1.67508
 7499 1  -94.431366  27.186284 -1.67508
 7500 1  -93.194721  27.884216 -1.67508
 7501 1  -95.681905  25.068419 -1.67508
 7502 1  -96.904655  25.790418 -1.67508
 7503 1  -96.890760  27.210350 -1.67508
 7504 1  -95.654115  27.908283 -1.67508
 7505 1  -98.141300  25.092485 -1.67508
 7506 1  -99.364049  25.814485 -1.67508
 7507 1  -99.350154  27.234417 -1.67508
 7508 1  -98.113510  27.932350 -1.67508
 7509 1 -100.600694  25.116552 -1.67508
 7510 1 -101.823444  25.838551 -1.67508
 7511 1 -101.809549  27.258483 -1.67508
 7512 1 -100.572904  27.956416 -1.67508
 7513 1 -103.060088  25.140619 -1.67508
 7514 1 -104.282838  25.862618 -1.67508
 7515 1 -104.268943  27.282550 -1.67508
 7516 1 -103.032299  27.980483 -1.67508
 7517 1 -105.519483  25.164685 -1.67508
 7518 1 -106.742233  25.886685 -1.67508
 7519 1 -106.728338  27.306617 -1.67508
 7520 1 -105.491693  28.004549 -1.67508
 7521 1 -107.978877  25.188752 -1.67508
 7522 1 -107.951087  28.028616 -1.67508
 7523 1  108.489514  27.330683 -1.67508
 7524 1  107.266765  28.052683 -1.67508
 7525 1  107.280659  29.472615 -1.67508
 7526 1  108.517304  30.170547 -1.67508
 7527 1  106.030120  27.354750 -1.67508
 7528 1  104.807370  28.076749 -1.67508
 7529 1  104.821265  29.496681 -1.67508
 7530 1  106.057910  30.194614 -1.67508
 7531 1  103.570726  27.378817 -1.67508
 7532 1  102.347976  28.100816 -1.67508
 7533 1  102.361871  29.520748 -1.67508
 7534 1  103.598515  30.218681 -1.67508
 7535 1  101.111331  27.402883 -1.67508
 7536 1   99.888581  28.124883 -1.67508
 7537 1   99.902476  29.544815 -1.67508
 7538 1  101.139121  30.242747 -1.67508
 7539 1   98.651937  27.426950 -1.67508
 7540 1   97.429187  28.148949 -1.67508
 7541 1   97.443082  29.568881 -1.67508
 7542 1   98.679727  30.266814 -1.67508
 7543 1   96.192542  27.451017 -1.67508
 7544 1   94.969793  28.173016 -1.67508
 7545 1   94.983687  29.592948 -1.67508
 7546 1   96.220332  30.290881 -1.67508
 7547 1   93.733148  27.475083 -1.67508
 7548 1   92.510398  28.197083 -1.67508
 7549 1   92.524293  29.617015 -1.67508
 7550 1   93.760938  30.314947 -1.67508
 7551 1   91.273754  27.499150 -1.67508
 7552 1   90.051004  28.221149 -1.67508
 7553 1   90.064899  29.641081 -1.67508
 7554 1   91.301543  30.339014 -1.67508
 7555 1   88.814359  27.523217 -1.67508
 7556 1   87.591609  28.245216 -1.67508
 7557 1   87.605504  29.665148 -1.67508
 7558 1   88.842149  30.363081 -1.67508
 7559 1   86.354965  27.547283 -1.67508
 7560 1   85.132215  28.269283 -1.67508
 7561 1   85.146110  29.689215 -1.67508
 7562 1   86.382755  30.387147 -1.67508
 7563 1   83.895570  27.571350 -1.67508
 7564 1   82.672821  28.293349 -1.67508
 7565 1   82.686715  29.713281 -1.67508
 7566 1   83.923360  30.411214 -1.67508
 7567 1   81.436176  27.595417 -1.67508
 7568 1   80.213426  28.317416 -1.67508
 7569 1   80.227321  29.737348 -1.67508
 7570 1   81.463966  30.435281 -1.67508
 7571 1   78.976782  27.619483 -1.67508
 7572 1   77.754032  28.341482 -1.67508
 7573 1   77.767927  29.761415 -1.67508
 7574 1   79.004571  30.459347 -1.67508
 7575 1   76.517387  27.643550 -1.67508
 7576 1   75.294637  28.365549 -1.67508
 7577 1   75.308532  29.785481 -1.67508
 7578 1   76.545177  30.483414 -1.67508
 7579 1   74.057993  27.667616 -1.67508
 7580 1   72.835243  28.389616 -1.67508
 7581 1   72.849138  29.809548 -1.67508
 7582 1   74.085783  30.507480 -1.67508
 7583 1   71.598598  27.691683 -1.67508
 7584 1   70.375849  28.413682 -1.67508
 7585 1   70.389744  29.833614 -1.67508
 7586 1   71.626388  30.531547 -1.67508
 7587 1   69.139204  27.715750 -1.67508
 7588 1   67.916454  28.437749 -1.67508
 7589 1   67.930349  29.857681 -1.67508
 7590 1   69.166994  30.555614 -1.67508
 7591 1   66.679810  27.739816 -1.67508
 7592 1   65.457060  28.461816 -1.67508
 7593 1   65.470955  29.881748 -1.67508
 7594 1   66.707599  30.579680 -1.67508
 7595 1   64.220415  27.763883 -1.67508
 7596 1   62.997665  28.485882 -1.67508
 7597 1   63.011560  29.905814 -1.67508
 7598 1   64.248205  30.603747 -1.67508
 7599 1   61.761021  27.787950 -1.67508
 7600 1   60.538271  28.509949 -1.67508
 7601 1   60.552166  29.929881 -1.67508
 7602 1   61.788811  30.627814 -1.67508
 7603 1   59.301626  27.812016 -1.67508
 7604 1   58.078877  28.534016 -1.67508
 7605 1   58.092772  29.953948 -1.67508
 7606 1   59.329416  30.651880 -1.67508
 7607 1   56.842232  27.836083 -1.67508
 7608 1   55.619482  28.558082 -1.67508
 7609 1   55.633377  29.978014 -1.67508
 7610 1   56.870022  30.675947 -1.67508
 7611 1   54.382838  27.860150 -1.67508
 7612 1   53.160088  28.582149 -1.67508
 7613 1   53.173983  30.002081 -1.67508
 7614 1   54.410627  30.700014 -1.67508
 7615 1   51.923443  27.884216 -1.67508
 7616 1   50.700693  28.606216 -1.67508
 7617 1   50.714588  30.026148 -1.67508
 7618 1   51.951233  30.724080 -1.67508
 7619 1   49.464049  27.908283 -1.67508
 7620 1   48.241299  28.630282 -1.67508
 7621 1   48.255194  30.050214 -1.67508
 7622 1   49.491839  30.748147 -1.67508
 7623 1   47.004654  27.932350 -1.67508
 7624 1   45.781905  28.654349 -1.67508
 7625 1   45.795800  30.074281 -1.67508
 7626 1   47.032444  30.772214 -1.67508
 7627 1   44.545260  27.956416 -1.67508
 7628 1   43.322510  28.678416 -1.67508
 7629 1   43.336405  30.098348 -1.67508
 7630 1   44.573050  30.796280 -1.67508
 7631 1   42.085866  27.980483 -1.67508
 7632 1   40.863116  28.702482 -1.67508
 7633 1   40.877011  30.122414 -1.67508
 7634 1   42.113655  30.820347 -1.67508
 7635 1   39.626471  28.004549 -1.67508
 7636 1   38.403721  28.726549 -1.67508
 7637 1   38.417616  30.146481 -1.67508
 7638 1   39.654261  30.844413 -1.67508
 7639 1   37.167077  28.028616 -1.67508
 7640 1   35.944327  28.750615 -1.67508
 7641 1   35.958222  30.170547 -1.67508
 7642 1   37.194867  30.868480 -1.67508
 7643 1   34.707682  28.052683 -1.67508
 7644 1   33.484933  28.774682 -1.67508
 7645 1   33.498828  30.194614 -1.67508
 7646 1   34.735472  30.892547 -1.67508
 7647 1   32.248288  28.076749 -1.67508
 7648 1   31.025538  28.798749 -1.67508
 7649 1   31.039433  30.218681 -1.67508
 7650 1   32.276078  30.916613 -1.67508
 7651 1   29.788894  28.100816 -1.67508
 7652 1   28.566144  28.822815 -1.67508
 7653 1   28.580039  30.242747 -1.67508
 7654 1   29.816683  30.940680 -1.67508
 7655 1   27.329499  28.124883 -1.67508
 7656 1   26.106749  28.846882 -1.67508
 7657 1   26.120644  30.266814 -1.67508
 7658 1   27.357289  30.964747 -1.67508
 7659 1   24.870105  28.148949 -1.67508
 7660 1   23.647355  28.870949 -1.67508
 7661 1   23.661250  30.290881 -1.67508
 7662 1   24.897895  30.988813 -1.67508
 7663 1   22.410710  28.173016 -1.67508
 7664 1   21.187961  28.895015 -1.67508
 7665 1   21.201856  30.314947 -1.67508
 7666 1   22.438500  31.012880 -1.67508
 7667 1   19.951316  28.197083 -1.67508
 7668 1   18.728566  28.919082 -1.67508
 7669 1   18.742461  30.339014 -1.67508
 7670 1   19.979106  31.036947 -1.67508
 7671 1   17.491922  28.221149 -1.67508
 7672 1   16.269172  28.943149 -1.67508
 7673 1   16.283067  30.363081 -1.67508
 7674 1   17.519711  31.061013 -1.67508
 7675 1   15.032527  28.245216 -1.67508
 7676 1   13.809778  28.967215 -1.67508
 7677 1   13.823672  30.387147 -1.67508
 7678 1   15.060317  31.085080 -1.67508
 7679 1   12.573133  28.269283 -1.67508
 7680 1   11.350383  28.991282 -1.67508
 7681 1   11.364278  30.411214 -1.67508
 7682 1   12.600923  31.109147 -1.67508
 7683 1   10.113738  28.293349 -1.67508
 7684 1    8.890989  29.015349 -1.67508
 7685 1    8.904884  30.435281 -1.67508
 7686 1   10.141528  31.133213 -1.67508
 7687 1    7.654344  28.317416 -1.67508
 7688 1    6.431594  29.039415 -1.67508
 7689 1    6.445489  30.459347 -1.67508
 7690 1    7.682134  31.157280 -1.67508
 7691 1    5.194950  28.341482 -1.67508
 7692 1    3.972200  29.063482 -1.67508
 7693 1    3.986095  30.483414 -1.67508
 7694 1    5.222739  31.181347 -1.67508
 7695 1    2.735555  28.365549 -1.67508
 7696 1    1.512806  29.087548 -1.67508
 7697 1    1.526700  30.507480 -1.67508
 7698 1    2.763345  31.205413 -1.67508
 7699 1    0.276161  28.389616 -1.67508
 7700 1   -0.946589  29.111615 -1.67508
 7701 1   -0.932694  30.531547 -1.67508
 7702 1    0.303951  31.229480 -1.67508
 7703 1   -2.183234  28.413682 -1.67508
 7704 1   -3.405983  29.135682 -1.67508
 7705 1   -3.392088  30.555614 -1.67508
 7706 1   -2.155444  31.253546 -1.67508
 7707 1   -4.642628  28.437749 -1.67508
 7708 1   -5.865378  29.159748 -1.67508
 7709 1   -5.851483  30.579680 -1.67508
 7710 1   -4.614838  31.277613 -1.67508
 7711 1   -7.102022  28.461816 -1.67508
 7712 1   -8.324772  29.183815 -1.67508
 7713 1   -8.310877  30.603747 -1.67508
 7714 1   -7.074233  31.301680 -1.67508
 7715 1   -9.561417  28.485882 -1.67508
 7716 1  -10.784166  29.207882 -1.67508
 7717 1  -10.770272  30.627814 -1.67508
 7718 1   -9.533627  31.325746 -1.67508
 7719 1  -12.020811  28.509949 -1.67508
 7720 1  -13.243561  29.231948 -1.67508
 7721 1  -13.229666  30.651880 -1.67508
 7722 1  -11.993021  31.349813 -1.67508
 7723 1  -14.480205  28.534016 -1.67508
 7724 1  -15.702955  29.256015 -1.67508
 7725 1  -15.689060  30.675947 -1.67508
 7726 1  -14.452416  31.373880 -1.67508
 7727 1  -16.939600  28.558082 -1.67508
 7728 1  -18.162350  29.280082 -1.67508
 7729 1  -18.148455  30.700014 -1.67508
 7730 1  -16.911810  31.397946 -1.67508
 7731 1  -19.398994  28.582149 -1.67508
 7732 1  -20.621744  29.304148 -1.67508
 7733 1  -20.607849  30.724080 -1.67508
 7734 1  -19.371205  31.422013 -1.67508
 7735 1  -21.858389  28.606216 -1.67508
 7736 1  -23.081138  29.328215 -1.67508
 7737 1  -23.067244  30.748147 -1.67508
 7738 1  -21.830599  31.446080 -1.67508
 7739 1  -24.317783  28.630282 -1.67508
 7740 1  -25.540533  29.352282 -1.67508
 7741 1  -25.526638  30.772214 -1.67508
 7742 1  -24.289993  31.470146 -1.67508
 7743 1  -26.777177  28.654349 -1.67508
 7744 1  -27.999927  29.376348 -1.67508
 7745 1  -27.986032  30.796280 -1.67508
 7746 1  -26.749388  31.494213 -1.67508
 7747 1  -29.236572  28.678416 -1.67508
 7748 1  -30.459322  29.400415 -1.67508
 7749 1  -30.445427  30.820347 -1.67508
 7750 1  -29.208782  31.518280 -1.67508
 7751 1  -31.695966  28.702482 -1.67508
 7752 1  -32.918716  29.424481 -1.67508
 7753 1  -32.904821  30.844413 -1.67508
 7754 1  -31.668176  31.542346 -1.67508
 7755 1  -34.155361  28.726549 -1.67508
 7756 1  -35.378110  29.448548 -1.67508
 7757 1  -35.364216  30.868480 -1.67508
 7758 1  -34.127571  31.566413 -1.67508
 7759 1  -36.614755  28.750615 -1.67508
 7760 1  -37.837505  29.472615 -1.67508
 7761 1  -37.823610  30.892547 -1.67508
 7762 1  -36.586965  31.590479 -1.67508
 7763 1  -39.074149  28.774682 -1.67508
 7764 1  -40.296899  29.496681 -1.67508
 7765 1  -40.283004  30.916613 -1.67508
 7766 1  -39.046360  31.614546 -1.67508
 7767 1  -41.533544  28.798749 -1.67508
 7768 1  -42.756294  29.520748 -1.67508
 7769 1  -42.742399  30.940680 -1.67508
 7770 1  -41.505754  31.638613 -1.67508
 7771 1  -43.992938  28.822815 -1.67508
 7772 1  -45.215688  29.544815 -1.67508
 7773 1  -45.201793  30.964747 -1.67508
 7774 1  -43.965148  31.662679 -1.67508
 7775 1  -46.452333  28.846882 -1.67508
 7776 1  -47.675082  29.568881 -1.67508
 7777 1  -47.661188  30.988813 -1.67508
 7778 1  -46.424543  31.686746 -1.67508
 7779 1  -48.911727  28.870949 -1.67508
 7780 1  -50.134477  29.592948 -1.67508
 7781 1  -50.120582  31.012880 -1.67508
 7782 1  -48.883937  31.710813 -1.67508
 7783 1  -51.371121  28.895015 -1.67508
 7784 1  -52.593871  29.617015 -1.67508
 7785 1  -52.579976  31.036947 -1.67508
 7786 1  -51.343332  31.734879 -1.67508
 7787 1  -53.830516  28.919082 -1.67508
 7788 1  -55.053266  29.641081 -1.67508
 7789 1  -55.039371  31.061013 -1.67508
 7790 1  -53.802726  31.758946 -1.67508
 7791 1  -56.289910  28.943149 -1.67508
 7792 1  -57.512660  29.665148 -1.67508
 7793 1  -57.498765  31.085080 -1.67508
 7794 1  -56.262120  31.783013 -1.67508
 7795 1  -58.749305  28.967215 -1.67508
 7796 1  -59.972054  29.689215 -1.67508
 7797 1  -59.958159  31.109147 -1.67508
 7798 1  -58.721515  31.807079 -1.67508
 7799 1  -61.208699  28.991282 -1.67508
 7800 1  -62.431449  29.713281 -1.67508
 7801 1  -62.417554  31.133213 -1.67508
 7802 1  -61.180909  31.831146 -1.67508
 7803 1  -63.668093  29.015349 -1.67508
 7804 1  -64.890843  29.737348 -1.67508
 7805 1  -64.876948  31.157280 -1.67508
 7806 1  -63.640304  31.855213 -1.67508
 7807 1  -66.127488  29.039415 -1.67508
 7808 1  -67.350238  29.761415 -1.67508
 7809 1  -67.336343  31.181347 -1.67508
 7810 1  -66.099698  31.879279 -1.67508
 7811 1  -68.586882  29.063482 -1.67508
 7812 1  -69.809632  29.785481 -1.67508
 7813 1  -69.795737  31.205413 -1.67508
 7814 1  -68.559092  31.903346 -1.67508
 7815 1  -71.046277  29.087548 -1.67508
 7816 1  -72.269026  29.809548 -1.67508
 7817 1  -72.255131  31.229480 -1.67508
 7818 1  -71.018487  31.927412 -1.67508
 7819 1  -73.505671  29.111615 -1.67508
 7820 1  -74.728421  29.833614 -1.67508
 7821 1  -74.714526  31.253546 -1.67508
 7822 1  -73.477881  31.951479 -1.67508
 7823 1  -75.965065  29.135682 -1.67508
 7824 1  -77.187815  29.857681 -1.67508
 7825 1  -77.173920  31.277613 -1.67508
 7826 1  -75.937276  31.975546 -1.67508
 7827 1  -78.424460  29.159748 -1.67508
 7828 1  -79.647210  29.881748 -1.67508
 7829 1  -79.633315  31.301680 -1.67508
 7830 1  -78.396670  31.999612 -1.67508
 7831 1  -80.883854  29.183815 -1.67508
 7832 1  -82.106604  29.905814 -1.67508
 7833 1  -82.092709  31.325746 -1.67508
 7834 1  -80.856064  32.023679 -1.67508
 7835 1  -83.343249  29.207882 -1.67508
 7836 1  -84.565998  29.929881 -1.67508
 7837 1  -84.552103  31.349813 -1.67508
 7838 1  -83.315459  32.047746 -1.67508
 7839 1  -85.802643  29.231948 -1.67508
 7840 1  -87.025393  29.953948 -1.67508
 7841 1  -87.011498  31.373880 -1.67508
 7842 1  -85.774853  32.071812 -1.67508
 7843 1  -88.262037  29.256015 -1.67508
 7844 1  -89.484787  29.978014 -1.67508
 7845 1  -89.470892  31.397946 -1.67508
 7846 1  -88.234248  32.095879 -1.67508
 7847 1  -90.721432  29.280082 -1.67508
 7848 1  -91.944182  30.002081 -1.67508
 7849 1  -91.930287  31.422013 -1.67508
 7850 1  -90.693642  32.119946 -1.67508
 7851 1  -93.180826  29.304148 -1.67508
 7852 1  -94.403576  30.026148 -1.67508
 7853 1  -94.389681  31.446080 -1.67508
 7854 1  -93.153036  32.144012 -1.67508
 7855 1  -95.640221  29.328215 -1.67508
 7856 1  -96.862970  30.050214 -1.67508
 7857 1  -96.849075  31.470146 -1.67508
 7858 1  -95.612431  32.168079 -1.67508
 7859 1  -98.099615  29.352282 -1.67508
 7860 1  -99.322365  30.074281 -1.67508
 7861 1  -99.308470  31.494213 -1.67508
 7862 1  -98.071825  32.192146 -1.67508
 7863 1 -100.559009  29.376348 -1.67508
 7864 1 -101.781759  30.098348 -1.67508
 7865 1 -101.767864  31.518280 -1.67508
 7866 1 -100.531220  32.216212 -1.67508
 7867 1 -103.018404  29.400415 -1.67508
 7868 1 -104.241154  30.122414 -1.67508
 7869 1 -104.227259  31.542346 -1.67508
 7870 1 -102.990614  32.240279 -1.67508
 7871 1 -105.477798  29.424481 -1.67508
 7872 1 -106.700548  30.146481 -1.67508
 7873 1 -106.686653  31.566413 -1.67508
 7874 1 -105.450008  32.264346 -1.67508
 7875 1 -107.937193  29.448548 -1.67508
 7876 1 -107.909403  32.288412 -1.67508
 7877 1  108.531199  31.590479 -1.67508
 7878 1  107.308449  32.312479 -1.67508
 7879 1  107.322344  33.732411 -1.67508
 7880 1  108.558989  34.430344 -1.67508
 7881 1  106.071805  31.614546 -1.67508
 7882 1  104.849055  32.336545 -1.67508
 7883 1  104.862950  33.756477 -1.67508
 7884 1  106.099594  34.454410 -1.67508
 7885 1  103.612410  31.638613 -1.67508
 7886 1  102.389660  32.360612 -1.67508
 7887 1  102.403555  33.780544 -1.67508
 7888 1  103.640200  34.478477 -1.67508
 7889 1  101.153016  31.662679 -1.67508
 7890 1   99.930266  32.384679 -1.67508
 7891 1   99.944161  33.804611 -1.67508
 7892 1  101.180806  34.502543 -1.67508
 7893 1   98.693621  31.686746 -1.67508
 7894 1   97.470872  32.408745 -1.67508
 7895 1   97.484767  33.828677 -1.67508
 7896 1   98.721411  34.526610 -1.67508
 7897 1   96.234227  31.710813 -1.67508
 7898 1   95.011477  32.432812 -1.67508
 7899 1   95.025372  33.852744 -1.67508
 7900 1   96.262017  34.550677 -1.67508
 7901 1   93.774833  31.734879 -1.67508
 7902 1   92.552083  32.456879 -1.67508
 7903 1   92.565978  33.876811 -1.67508
 7904 1   93.802622  34.574743 -1.67508
 7905 1   91.315438  31.758946 -1.67508
 7906 1   90.092688  32.480945 -1.67508
 7907 1   90.106583  33.900877 -1.67508
 7908 1   91.343228  34.598810 -1.67508
 7909 1   88.856044  31.783013 -1.67508
 7910 1   87.633294  32.505012 -1.67508
 7911 1   87.647189  33.924944 -1.67508
 7912 1   88.883834  34.622877 -1.67508
 7913 1   86.396649  31.807079 -1.67508
 7914 1   85.173900  32.529079 -1.67508
 7915 1   85.187795  33.949011 -1.67508
 7916 1   86.424439  34.646943 -1.67508
 7917 1   83.937255  31.831146 -1.67508
 7918 1   82.714505  32.553145 -1.67508
 7919 1   82.728400  33.973077 -1.67508
 7920 1   83.965045  34.671010 -1.67508
 7921 1   81.477861  31.855213 -1.67508
 7922 1   80.255111  32.577212 -1.67508
 7923 1   80.269006  33.997144 -1.67508
 7924 1   81.505650  34.695077 -1.67508
 7925 1   79.018466  31.879279 -1.67508
 7926 1   77.795716  32.601279 -1.67508
 7927 1   77.809611  34.021211 -1.67508
 7928 1   79.046256  34.719143 -1.67508
 7929 1   76.559072  31.903346 -1.67508
 7930 1   75.336322  32.625345 -1.67508
 7931 1   75.350217  34.045277 -1.67508
 7932 1   76.586862  34.743210 -1.67508
 7933 1   74.099677  31.927412 -1.67508
 7934 1   72.876928  32.649412 -1.67508
 7935 1   72.890823  34.069344 -1.67508
 7936 1   74.127467  34.767277 -1.67508
 7937 1   71.640283  31.951479 -1.67508
 7938 1   70.417533  32.673478 -1.67508
 7939 1   70.431428  34.093410 -1.67508
 7940 1   71.668073  34.791343 -1.67508
 7941 1   69.180889  31.975546 -1.67508
 7942 1   67.958139  32.697545 -1.67508
 7943 1   67.972034  34.117477 -1.67508
 7944 1   69.208678  34.815410 -1.67508
 7945 1   66.721494  31.999612 -1.67508
 7946 1   65.498744  32.721612 -1.67508
 7947 1   65.512639  34.141544 -1.67508
 7948 1   66.749284  34.839476 -1.67508
 7949 1   64.262100  32.023679 -1.67508
 7950 1   63.039350  32.745678 -1.67508
 7951 1   63.053245  34.165610 -1.67508
 7952 1   64.289890  34.863543 -1.67508
 7953 1   61.802705  32.047746 -1.67508
 7954 1   60.579956  32.769745 -1.67508
 7955 1   60.593851  34.189677 -1.67508
 7956 1   61.830495  34.887610 -1.67508
 7957 1   59.343311  32.071812 -1.67508
 7958 1   58.120561  32.793812 -1.67508
 7959 1   58.134456  34.213744 -1.67508
 7960 1   59.371101  34.911676 -1.67508
 7961 1   56.883917  32.095879 -1.67508
 7962 1   55.661167  32.817878 -1.67508
 7963 1   55.675062  34.237810 -1.67508
 7964 1   56.911706  34.935743 -1.67508
 7965 1   54.424522  32.119946 -1.67508
 7966 1   53.201773  32.841945 -1.67508
 7967 1   53.215667  34.261877 -1.67508
 7968 1   54.452312  34.959810 -1.67508
 7969 1   51.965128  32.144012 -1.67508
 7970 1   50.742378  32.866012 -1.67508
 7971 1   50.756273  34.285944 -1.67508
 7972 1   51.992918  34.983876 -1.67508
 7973 1   49.505733  32.168079 -1.67508
 7974 1   48.282984  32.890078 -1.67508
 7975 1   48.296879  34.310010 -1.67508
 7976 1   49.533523  35.007943 -1.67508
 7977 1   47.046339  32.192146 -1.67508
 7978 1   45.823589  32.914145 -1.67508
 7979 1   45.837484  34.334077 -1.67508
 7980 1   47.074129  35.032010 -1.67508
 7981 1   44.586945  32.216212 -1.67508
 7982 1   43.364195  32.938212 -1.67508
 7983 1   43.378090  34.358144 -1.67508
 7984 1   44.614734  35.056076 -1.67508
 7985 1   42.127550  32.240279 -1.67508
 7986 1   40.904801  32.962278 -1.67508
 7987 1   40.918695  34.382210 -1.67508
 7988 1   42.155340  35.080143 -1.67508
 7989 1   39.668156  32.264346 -1.67508
 7990 1   38.445406  32.986345 -1.67508
 7991 1   38.459301  34.406277 -1.67508
 7992 1   39.695946  35.104210 -1.67508
 7993 1   37.208761  32.288412 -1.67508
 7994 1   35.986012  33.010411 -1.67508
 7995 1   35.999907  34.430344 -1.67508
 7996 1   37.236551  35.128276 -1.67508
 7997 1   34.749367  32.312479 -1.67508
 7998 1   33.526617  33.034478 -1.67508
 7999 1   33.540512  34.454410 -1.67508
 8000 1   34.777157  35.152343 -1.67508
 8001 1   32.289973  32.336545 -1.67508
 8002 1   31.067223  33.058545 -1.67508
 8003 1   31.081118  34.478477 -1.67508
 8004 1   32.317762  35.176409 -1.67508
 8005 1   29.830578  32.360612 -1.67508
 8006 1   28.607829  33.082611 -1.67508
 8007 1   28.621723  34.502543 -1.67508
 8008 1   29.858368  35.200476 -1.67508
 8009 1   27.371184  32.384679 -1.67508
 8010 1   26.148434  33.106678 -1.67508
 8011 1   26.162329  34.526610 -1.67508
 8012 1   27.398974  35.224543 -1.67508
 8013 1   24.911790  32.408745 -1.67508
 8014 1   23.689040  33.130745 -1.67508
 8015 1   23.702935  34.550677 -1.67508
 8016 1   24.939579  35.248609 -1.67508
 8017 1   22.452395  32.432812 -1.67508
 8018 1   21.229645  33.154811 -1.67508
 8019 1   21.243540  34.574743 -1.67508
 8020 1   22.480185  35.272676 -1.67508
 8021 1   19.993001  32.456879 -1.67508
 8022 1   18.770251  33.178878 -1.67508
 8023 1   18.784146  34.598810 -1.67508
 8024 1   20.020790  35.296743 -1.67508
 8025 1   17.533606  32.480945 -1.67508
 8026 1   16.310857  33.202945 -1.67508
 8027 1   16.324751  34.622877 -1.67508
 8028 1   17.561396  35.320809 -1.67508
 8029 1   15.074212  32.505012 -1.67508
 8030 1   13.851462  33.227011 -1.67508
 8031 1   13.865357  34.646943 -1.67508
 8032 1   15.102002  35.344876 -1.67508
 8033 1   12.614818  32.529079 -1.67508
 8034 1   11.392068  33.251078 -1.67508
 8035 1   11.405963  34.671010 -1.67508
 8036 1   12.642607  35.368943 -1.67508
 8037 1   10.155423  32.553145 -1.67508
 8038 1    8.932673  33.275145 -1.67508
 8039 1    8.946568  34.695077 -1.67508
 8040 1   10.183213  35.393009 -1.67508
 8041 1    7.696029  32.577212 -1.67508
 8042 1    6.473279  33.299211 -1.67508
 8043 1    6.487174  34.719143 -1.67508
 8044 1    7.723819  35.417076 -1.67508
 8045 1    5.236634  32.601279 -1.67508
 8046 1    4.013885  33.323278 -1.67508
 8047 1    4.027779  34.743210 -1.67508
 8048 1    5.264424  35.441143 -1.67508
 8049 1    2.777240  32.625345 -1.67508
 8050 1    1.554490  33.347345 -1.67508
 8051 1    1.568385  34.767277 -1.67508
 8052 1    2.805030  35.465209 -1.67508
 8053 1    0.317846  32.649412 -1.67508
 8054 1   -0.904904  33.371411 -1.67508
 8055 1   -0.891009  34.791343 -1.67508
 8056 1    0.345635  35.489276 -1.67508
 8057 1   -2.141549  32.673478 -1.67508
 8058 1   -3.364299  33.395478 -1.67508
 8059 1   -3.350404  34.815410 -1.67508
 8060 1   -2.113759  35.513343 -1.67508
 8061 1   -4.600943  32.697545 -1.67508
 8062 1   -5.823693  33.419544 -1.67508
 8063 1   -5.809798  34.839476 -1.67508
 8064 1   -4.573153  35.537409 -1.67508
 8065 1   -7.060338  32.721612 -1.67508
 8066 1   -8.283087  33.443611 -1.67508
 8067 1   -8.269193  34.863543 -1.67508
 8068 1   -7.032548  35.561476 -1.67508
 8069 1   -9.519732  32.745678 -1.67508
 8070 1  -10.742482  33.467678 -1.67508
 8071 1  -10.728587  34.887610 -1.67508
 8072 1   -9.491942  35.585542 -1.67508
 8073 1  -11.979126  32.769745 -1.67508
 8074 1  -13.201876  33.491744 -1.67508
 8075 1  -13.187981  34.911676 -1.67508
 8076 1  -11.951337  35.609609 -1.67508
 8077 1  -14.438521  32.793812 -1.67508
 8078 1  -15.661271  33.515811 -1.67508
 8079 1  -15.647376  34.935743 -1.67508
 8080 1  -14.410731  35.633676 -1.67508
 8081 1  -16.897915  32.817878 -1.67508
 8082 1  -18.120665  33.539878 -1.67508
 8083 1  -18.106770  34.959810 -1.67508
 8084 1  -16.870125  35.657742 -1.67508
 8085 1  -19.357310  32.841945 -1.67508
 8086 1  -20.580059  33.563944 -1.67508
 8087 1  -20.566164  34.983876 -1.67508
 8088 1  -19.329520  35.681809 -1.67508
 8089 1  -21.816704  32.866012 -1.67508
 8090 1  -23.039454  33.588011 -1.67508
 8091 1  -23.025559  35.007943 -1.67508
 8092 1  -21.788914  35.705876 -1.67508
 8093 1  -24.276098  32.890078 -1.67508
 8094 1  -25.498848  33.612078 -1.67508
 8095 1  -25.484953  35.032010 -1.67508
 8096 1  -24.248309  35.729942 -1.67508
 8097 1  -26.735493  32.914145 -1.67508
 8098 1  -27.958243  33.636144 -1.67508
 8099 1  -27.944348  35.056076 -1.67508
 8100 1  -26.707703  35.754009 -1.67508
 8101 1  -29.194887  32.938212 -1.67508
 8102 1  -30.417637  33.660211 -1.67508
 8103 1  -30.403742  35.080143 -1.67508
 8104 1  -29.167097  35.778076 -1.67508
 8105 1  -31.654282  32.962278 -1.67508
 8106 1  -32.877031  33.684278 -1.67508
 8107 1  -32.863136  35.104210 -1.67508
 8108 1  -31.626492  35.802142 -1.67508
 8109 1  -34.113676  32.986345 -1.67508
 8110 1  -35.336426  33.708344 -1.67508
 8111 1  -35.322531  35.128276 -1.67508
 8112 1  -34.085886  35.826209 -1.67508
 8113 1  -36.573070  33.010411 -1.67508
 8114 1  -37.795820  33.732411 -1.67508
 8115 1  -37.781925  35.152343 -1.67508
 8116 1  -36.545281  35.850276 -1.67508
 8117 1  -39.032465  33.034478 -1.67508
 8118 1  -40.255215  33.756477 -1.67508
 8119 1  -40.241320  35.176409 -1.67508
 8120 1  -39.004675  35.874342 -1.67508
 8121 1  -41.491859  33.058545 -1.67508
 8122 1  -42.714609  33.780544 -1.67508
 8123 1  -42.700714  35.200476 -1.67508
 8124 1  -41.464069  35.898409 -1.67508
 8125 1  -43.951254  33.082611 -1.67508
 8126 1  -45.174003  33.804611 -1.67508
 8127 1  -45.160108  35.224543 -1.67508
 8128 1  -43.923464  35.922475 -1.67508
 8129 1  -46.410648  33.106678 -1.67508
 8130 1  -47.633398  33.828677 -1.67508
 8131 1  -47.619503  35.248609 -1.67508
 8132 1  -46.382858  35.946542 -1.67508
 8133 1  -48.870042  33.130745 -1.67508
 8134 1  -50.092792  33.852744 -1.67508
 8135 1  -50.078897  35.272676 -1.67508
 8136 1  -48.842253  35.970609 -1.67508
 8137 1  -51.329437  33.154811 -1.67508
 8138 1  -52.552187  33.876811 -1.67508
 8139 1  -52.538292  35.296743 -1.67508
 8140 1  -51.301647  35.994675 -1.67508
 8141 1  -53.788831  33.178878 -1.67508
 8142 1  -55.011581  33.900877 -1.67508
 8143 1  -54.997686  35.320809 -1.67508
 8144 1  -53.761041  36.018742 -1.67508
 8145 1  -56.248226  33.202945 -1.67508
 8146 1  -57.470975  33.924944 -1.67508
 8147 1  -57.457080  35.344876 -1.67508
 8148 1  -56.220436  36.042809 -1.67508
 8149 1  -58.707620  33.227011 -1.67508
 8150 1  -59.930370  33.949011 -1.67508
 8151 1  -59.916475  35.368943 -1.67508
 8152 1  -58.679830  36.066875 -1.67508
 8153 1  -61.167014  33.251078 -1.67508
 8154 1  -62.389764  33.973077 -1.67508
 8155 1  -62.375869  35.393009 -1.67508
 8156 1  -61.139225  36.090942 -1.67508
 8157 1  -63.626409  33.275145 -1.67508
 8158 1  -64.849159  33.997144 -1.67508
 8159 1  -64.835264  35.417076 -1.67508
 8160 1  -63.598619  36.115009 -1.67508
 8161 1  -66.085803  33.299211 -1.67508
 8162 1  -67.308553  34.021211 -1.67508
 8163 1  -67.294658  35.441143 -1.67508
 8164 1  -66.058013  36.139075 -1.67508
 8165 1  -68.545198  33.323278 -1.67508
 8166 1  -69.767947  34.045277 -1.67508
 8167 1  -69.754052  35.465209 -1.67508
 8168 1  -68.517408  36.163142 -1.67508
 8169 1  -71.004592  33.347345 -1.67508
 8170 1  -72.227342  34.069344 -1.67508
 8171 1  -72.213447  35.489276 -1.67508
 8172 1  -70.976802  36.187209 -1.67508
 8173 1  -73.463986  33.371411 -1.67508
 8174 1  -74.686736  34.093410 -1.67508
 8175 1  -74.672841  35.513343 -1.67508
 8176 1  -73.436197  36.211275 -1.67508
 8177 1  -75.923381  33.395478 -1.67508
 8178 1  -77.146130  34.117477 -1.67508
 8179 1  -77.132236  35.537409 -1.67508
 8180 1  -75.895591  36.235342 -1.67508
 8181 1  -78.382775  33.419544 -1.67508
 8182 1  -79.605525  34.141544 -1.67508
 8183 1  -79.591630  35.561476 -1.67508
 8184 1  -78.354985  36.259408 -1.67508
 8185 1  -80.842170  33.443611 -1.67508
 8186 1  -82.064919  34.165610 -1.67508
 8187 1  -82.051024  35.585542 -1.67508
 8188 1  -80.814380  36.283475 -1.67508
 8189 1  -83.301564  33.467678 -1.67508
 8190 1  -84.524314  34.189677 -1.67508
 8191 1  -84.510419  35.609609 -1.67508
 8192 1  -83.273774  36.307542 -1.67508
 8193 1  -85.760958  33.491744 -1.67508
 8194 1  -86.983708  34.213744 -1.67508
 8195 1  -86.969813  35.633676 -1.67508
 8196 1  -85.733169  36.331608 -1.67508
 8197 1  -88.220353  33.515811 -1.67508
 8198 1  -89.443102  34.237810 -1.67508
 8199 1  -89.429208  35.657742 -1.67508
 8200 1  -88.192563  36.355675 -1.67508
 8201 1  -90.679747  33.539878 -1.67508
 8202 1  -91.902497  34.261877 -1.67508
 8203 1  -91.888602  35.681809 -1.67508
 8204 1  -90.651957  36.379742 -1.67508
 8205 1  -93.139142  33.563944 -1.67508
 8206 1  -94.361891  34.285944 -1.67508
 8207 1  -94.347996  35.705876 -1.67508
 8208 1  -93.111352  36.403808 -1.67508
 8209 1  -95.598536  33.588011 -1.67508
 8210 1  -96.821286  34.310010 -1.67508
 8211 1  -96.807391  35.729942 -1.67508
 8212 1  -95.570746  36.427875 -1.67508
 8213 1  -98.057930  33.612078 -1.67508
 8214 1  -99.280680  34.334077 -1.67508
 8215 1  -99.266785  35.754009 -1.67508
 8216 1  -98.030141  36.451942 -1.67508
 8217 1 -100.517325  33.636144 -1.67508
 8218 1 -101.740074  34.358144 -1.67508
 8219 1 -101.726180  35.778076 -1.67508
 8220 1 -100.489535  36.476008 -1.67508
 8221 1 -102.976719  33.660211 -1.67508
 8222 1 -104.199469  34.382210 -1.67508
 8223 1 -104.185574  35.802142 -1.67508
 8224 1 -102.948929  36.500075 -1.67508
 8225 1 -105.436113  33.684278 -1.67508
 8226 1 -106.658863  34.406277 -1.67508
 8227 1 -106.644968  35.826209 -1.67508
 8228 1 -105.408324  36.524142 -1.67508
 8229 1 -107.895508  33.708344 -1.67508
 8230 1 -107.867718  36.548208 -1.67508
 8231 1  108.572884  35.850276 -1.67508
 8232 1  107.350134  36.572275 -1.67508
 8233 1  107.364029  37.992207 -1.67508
 8234 1  108.600673  38.690140 -1.67508
 8235 1  106.113489  35.874342 -1.67508
 8236 1  104.890739  36.596341 -1.67508
 8237 1  104.904634  38.016274 -1.67508
 8238 1  106.141279  38.714206 -1.67508
 8239 1  103.654095  35.898409 -1.67508
 8240 1  102.431345  36.620408 -1.67508
 8241 1  102.445240  38.040340 -1.67508
 8242 1  103.681885  38.738273 -1.67508
 8243 1  101.194700  35.922475 -1.67508
 8244 1   99.971951  36.644475 -1.67508
 8245 1   99.985846  38.064407 -1.67508
 8246 1  101.222490  38.762339 -1.67508
 8247 1   98.735306  35.946542 -1.67508
 8248 1   97.512556  36.668541 -1.67508
 8249 1   97.526451  38.088473 -1.67508
 8250 1   98.763096  38.786406 -1.67508
 8251 1   96.275912  35.970609 -1.67508
 8252 1   95.053162  36.692608 -1.67508
 8253 1   95.067057  38.112540 -1.67508
 8254 1   96.303701  38.810473 -1.67508
 8255 1   93.816517  35.994675 -1.67508
 8256 1   92.593767  36.716675 -1.67508
 8257 1   92.607662  38.136607 -1.67508
 8258 1   93.844307  38.834539 -1.67508
 8259 1   91.357123  36.018742 -1.67508
 8260 1   90.134373  36.740741 -1.67508
 8261 1   90.148268  38.160673 -1.67508
 8262 1   91.384913  38.858606 -1.67508
 8263 1   88.897728  36.042809 -1.67508
 8264 1   87.674979  36.764808 -1.67508
 8265 1   87.688874  38.184740 -1.67508
 8266 1   88.925518  38.882673 -1.67508
 8267 1   86.438334  36.066875 -1.67508
 8268 1   85.215584  36.788875 -1.67508
 8269 1   85.229479  38.208807 -1.67508
 8270 1   86.466124  38.906739 -1.67508
 8271 1   83.978940  36.090942 -1.67508
 8272 1   82.756190  36.812941 -1.67508
 8273 1   82.770085  38.232873 -1.67508
 8274 1   84.006729  38.930806 -1.67508
 8275 1   81.519545  36.115009 -1.67508
 8276 1   80.296796  36.837008 -1.67508
 8277 1   80.310690  38.256940 -1.67508
 8278 1   81.547335  38.954873 -1.67508
 8279 1   79.060151  36.139075 -1.67508
 8280 1   77.837401  36.861075 -1.67508
 8281 1   77.851296  38.281007 -1.67508
 8282 1   79.087941  38.978939 -1.67508
 8283 1   76.600756  36.163142 -1.67508
 8284 1   75.378007  36.885141 -1.67508
 8285 1   75.391902  38.305073 -1.67508
 8286 1   76.628546  39.003006 -1.67508
 8287 1   74.141362  36.187209 -1.67508
 8288 1   72.918612  36.909208 -1.67508
 8289 1   72.932507  38.329140 -1.67508
 8290 1   74.169152  39.027073 -1.67508
 8291 1   71.681968  36.211275 -1.67508
 8292 1   70.459218  36.933275 -1.67508
 8293 1   70.473113  38.353207 -1.67508
 8294 1   71.709757  39.051139 -1.67508
 8295 1   69.222573  36.235342 -1.67508
 8296 1   67.999824  36.957341 -1.67508
 8297 1   68.013718  38.377273 -1.67508
 8298 1   69.250363  39.075206 -1.67508
 8299 1   66.763179  36.259408 -1.67508
 8300 1   65.540429  36.981408 -1.67508
 8301 1   65.554324  38.401340 -1.67508
 8302 1   66.790969  39.099273 -1.67508
 8303 1   64.303785  36.283475 -1.67508
 8304 1   63.081035  37.005474 -1.67508
 8305 1   63.094930  38.425406 -1.67508
 8306 1   64.331574  39.123339 -1.67508
 8307 1   61.844390  36.307542 -1.67508
 8308 1   60.621640  37.029541 -1.67508
 8309 1   60.635535  38.449473 -1.67508
 8310 1   61.872180  39.147406 -1.67508
 8311 1   59.384996  36.331608 -1.67508
 8312 1   58.162246  37.053608 -1.67508
 8313 1   58.176141  38.473540 -1.67508
 8314 1   59.412785  39.171472 -1.67508
 8315 1   56.925601  36.355675 -1.67508
 8316 1   55.702852  37.077674 -1.67508
 8317 1   55.716746  38.497606 -1.67508
 8318 1   56.953391  39.195539 -1.67508
 8319 1   54.466207  36.379742 -1.67508
 8320 1   53.243457  37.101741 -1.67508
 8321 1   53.257352  38.521673 -1.67508
 8322 1   54.493997  39.219606 -1.67508
 8323 1   52.006813  36.403808 -1.67508
 8324 1   50.784063  37.125808 -1.67508
 8325 1   50.797958  38.545740 -1.67508
 8326 1   52.034602  39.243672 -1.67508
 8327 1   49.547418  36.427875 -1.67508
 8328 1   48.324668  37.149874 -1.67508
 8329 1   48.338563  38.569806 -1.67508
 8330 1   49.575208  39.267739 -1.67508
 8331 1   47.088024  36.451942 -1.67508
 8332 1   45.865274  37.173941 -1.67508
 8333 1   45.879169  38.593873 -1.67508
 8334 1   47.115813  39.291806 -1.67508
 8335 1   44.628629  36.476008 -1.67508
 8336 1   43.405880  37.198008 -1.67508
 8337 1   43.419774  38.617940 -1.67508
 8338 1   44.656419  39.315872 -1.67508
 8339 1   42.169235  36.500075 -1.67508
 8340 1   40.946485  37.222074 -1.67508
 8341 1   40.960380  38.642006 -1.67508
 8342 1   42.197025  39.339939 -1.67508
 8343 1   39.709841  36.524142 -1.67508
 8344 1   38.487091  37.246141 -1.67508
 8345 1   38.500986  38.666073 -1.67508
 8346 1   39.737630  39.364006 -1.67508
 8347 1   37.250446  36.548208 -1.67508
 8348 1   36.027696  37.270208 -1.67508
 8349 1   36.041591  38.690140 -1.67508
 8350 1   37.278236  39.388072 -1.67508
 8351 1   34.791052  36.572275 -1.67508
 8352 1   33.568302  37.294274 -1.67508
 8353 1   33.582197  38.714206 -1.67508
 8354 1   34.818842  39.412139 -1.67508
 8355 1   32.331657  36.596341 -1.67508
 8356 1   31.108908  37.318341 -1.67508
 8357 1   31.122802  38.738273 -1.67508
 8358 1   32.359447  39.436206 -1.67508
 8359 1   29.872263  36.620408 -1.67508
 8360 1   28.649513  37.342407 -1.67508
 8361 1   28.663408  38.762339 -1.67508
 8362 1   29.900053  39.460272 -1.67508
 8363 1   27.412869  36.644475 -1.67508
 8364 1   26.190119  37.366474 -1.67508
 8365 1   26.204014  38.786406 -1.67508
 8366 1   27.440658  39.484339 -1.67508
 8367 1   24.953474  36.668541 -1.67508
 8368 1   23.730724  37.390541 -1.67508
 8369 1   23.744619  38.810473 -1.67508
 8370 1   24.981264  39.508405 -1.67508
 8371 1   22.494080  36.692608 -1.67508
 8372 1   21.271330  37.414607 -1.67508
 8373 1   21.285225  38.834539 -1.67508
 8374 1   22.521870  39.532472 -1.67508
 8375 1   20.034685  36.716675 -1.67508
 8376 1   18.811936  37.438674 -1.67508
 8377 1   18.825830  38.858606 -1.67508
 8378 1   20.062475  39.556539 -1.67508
 8379 1   17.575291  36.740741 -1.67508
 8380 1   16.352541  37.462741 -1.67508
 8381 1   16.366436  38.882673 -1.67508
 8382 1   17.603081  39.580605 -1.67508
 8383 1   15.115897  36.764808 -1.67508
 8384 1   13.893147  37.486807 -1.67508
 8385 1   13.907042  38.906739 -1.67508
 8386 1   15.143686  39.604672 -1.67508
 8387 1   12.656502  36.788875 -1.67508
 8388 1   11.433752  37.510874 -1.67508
 8389 1   11.447647  38.930806 -1.67508
 8390 1   12.684292  39.628739 -1.67508
 8391 1   10.197108  36.812941 -1.67508
 8392 1    8.974358  37.534941 -1.67508
 8393 1    8.988253  38.954873 -1.67508
 8394 1   10.224898  39.652805 -1.67508
 8395 1    7.737713  36.837008 -1.67508
 8396 1    6.514964  37.559007 -1.67508
 8397 1    6.528859  38.978939 -1.67508
 8398 1    7.765503  39.676872 -1.67508
 8399 1    5.278319  36.861075 -1.67508
 8400 1    4.055569  37.583074 -1.67508
 8401 1    4.069464  39.003006 -1.67508
 8402 1    5.306109  39.700939 -1.67508
 8403 1    2.818925  36.885141 -1.67508
 8404 1    1.596175  37.607141 -1.67508
 8405 1    1.610070  39.027073 -1.67508
 8406 1    2.846714  39.725005 -1.67508
 8407 1    0.359530  36.909208 -1.67508
 8408 1   -0.863220  37.631207 -1.67508
 8409 1   -0.849325  39.051139 -1.67508
 8410 1    0.387320  39.749072 -1.67508
 8411 1   -2.099864  36.933275 -1.67508
 8412 1   -3.322614  37.655274 -1.67508
 8413 1   -3.308719  39.075206 -1.67508
 8414 1   -2.072074  39.773139 -1.67508
 8415 1   -4.559259  36.957341 -1.67508
 8416 1   -5.782008  37.679340 -1.67508
 8417 1   -5.768113  39.099273 -1.67508
 8418 1   -4.531469  39.797205 -1.67508
 8419 1   -7.018653  36.981408 -1.67508
 8420 1   -8.241403  37.703407 -1.67508
 8421 1   -8.227508  39.123339 -1.67508
 8422 1   -6.990863  39.821272 -1.67508
 8423 1   -9.478047  37.005474 -1.67508
 8424 1  -10.700797  37.727474 -1.67508
 8425 1  -10.686902  39.147406 -1.67508
 8426 1   -9.450258  39.845338 -1.67508
 8427 1  -11.937442  37.029541 -1.67508
 8428 1  -13.160192  37.751540 -1.67508
 8429 1  -13.146297  39.171472 -1.67508
 8430 1  -11.909652  39.869405 -1.67508
 8431 1  -14.396836  37.053608 -1.67508
 8432 1  -15.619586  37.775607 -1.67508
 8433 1  -15.605691  39.195539 -1.67508
 8434 1  -14.369046  39.893472 -1.67508
 8435 1  -16.856231  37.077674 -1.67508
 8436 1  -18.078980  37.799674 -1.67508
 8437 1  -18.065085  39.219606 -1.67508
 8438 1  -16.828441  39.917538 -1.67508
 8439 1  -19.315625  37.101741 -1.67508
 8440 1  -20.538375  37.823740 -1.67508
 8441 1  -20.524480  39.243672 -1.67508
 8442 1  -19.287835  39.941605 -1.67508
 8443 1  -21.775019  37.125808 -1.67508
 8444 1  -22.997769  37.847807 -1.67508
 8445 1  -22.983874  39.267739 -1.67508
 8446 1  -21.747230  39.965672 -1.67508
 8447 1  -24.234414  37.149874 -1.67508
 8448 1  -25.457164  37.871874 -1.67508
 8449 1  -25.443269  39.291806 -1.67508
 8450 1  -24.206624  39.989738 -1.67508
 8451 1  -26.693808  37.173941 -1.67508
 8452 1  -27.916558  37.895940 -1.67508
 8453 1  -27.902663  39.315872 -1.67508
 8454 1  -26.666018  40.013805 -1.67508
 8455 1  -29.153203  37.198008 -1.67508
 8456 1  -30.375952  37.920007 -1.67508
 8457 1  -30.362057  39.339939 -1.67508
 8458 1  -29.125413  40.037872 -1.67508
 8459 1  -31.612597  37.222074 -1.67508
 8460 1  -32.835347  37.944074 -1.67508
 8461 1  -32.821452  39.364006 -1.67508
 8462 1  -31.584807  40.061938 -1.67508
 8463 1  -34.071991  37.246141 -1.67508
 8464 1  -35.294741  37.968140 -1.67508
 8465 1  -35.280846  39.388072 -1.67508
 8466 1  -34.044202  40.086005 -1.67508
 8467 1  -36.531386  37.270208 -1.67508
 8468 1  -37.754136  37.992207 -1.67508
 8469 1  -37.740241  39.412139 -1.67508
 8470 1  -36.503596  40.110072 -1.67508
 8471 1  -38.990780  37.294274 -1.67508
 8472 1  -40.213530  38.016274 -1.67508
 8473 1  -40.199635  39.436206 -1.67508
 8474 1  -38.962990  40.134138 -1.67508
 8475 1  -41.450175  37.318341 -1.67508
 8476 1  -42.672924  38.040340 -1.67508
 8477 1  -42.659029  39.460272 -1.67508
 8478 1  -41.422385  40.158205 -1.67508
 8479 1  -43.909569  37.342407 -1.67508
 8480 1  -45.132319  38.064407 -1.67508
 8481 1  -45.118424  39.484339 -1.67508
 8482 1  -43.881779  40.182272 -1.67508
 8483 1  -46.368963  37.366474 -1.67508
 8484 1  -47.591713  38.088473 -1.67508
 8485 1  -47.577818  39.508405 -1.67508
 8486 1  -46.341174  40.206338 -1.67508
 8487 1  -48.828358  37.390541 -1.67508
 8488 1  -50.051107  38.112540 -1.67508
 8489 1  -50.037213  39.532472 -1.67508
 8490 1  -48.800568  40.230405 -1.67508
 8491 1  -51.287752  37.414607 -1.67508
 8492 1  -52.510502  38.136607 -1.67508
 8493 1  -52.496607  39.556539 -1.67508
 8494 1  -51.259962  40.254471 -1.67508
 8495 1  -53.747147  37.438674 -1.67508
 8496 1  -54.969896  38.160673 -1.67508
 8497 1  -54.956001  39.580605 -1.67508
 8498 1  -53.719357  40.278538 -1.67508
 8499 1  -56.206541  37.462741 -1.67508
 8500 1  -57.429291  38.184740 -1.67508
 8501 1  -57.415396  39.604672 -1.67508
 8502 1  -56.178751  40.302605 -1.67508
 8503 1  -58.665935  37.486807 -1.67508
 8504 1  -59.888685  38.208807 -1.67508
 8505 1  -59.874790  39.628739 -1.67508
 8506 1  -58.638146  40.326671 -1.67508
 8507 1  -61.125330  37.510874 -1.67508
 8508 1  -62.348079  38.232873 -1.67508
 8509 1  -62.334185  39.652805 -1.67508
 8510 1  -61.097540  40.350738 -1.67508
 8511 1  -63.584724  37.534941 -1.67508
 8512 1  -64.807474  38.256940 -1.67508
 8513 1  -64.793579  39.676872 -1.67508
 8514 1  -63.556934  40.374805 -1.67508
 8515 1  -66.044119  37.559007 -1.67508
 8516 1  -67.266868  38.281007 -1.67508
 8517 1  -67.252973  39.700939 -1.67508
 8518 1  -66.016329  40.398871 -1.67508
 8519 1  -68.503513  37.583074 -1.67508
 8520 1  -69.726263  38.305073 -1.67508
 8521 1  -69.712368  39.725005 -1.67508
 8522 1  -68.475723  40.422938 -1.67508
 8523 1  -70.962907  37.607141 -1.67508
 8524 1  -72.185657  38.329140 -1.67508
 8525 1  -72.171762  39.749072 -1.67508
 8526 1  -70.935118  40.447005 -1.67508
 8527 1  -73.422302  37.631207 -1.67508
 8528 1  -74.645051  38.353207 -1.67508
 8529 1  -74.631157  39.773139 -1.67508
 8530 1  -73.394512  40.471071 -1.67508
 8531 1  -75.881696  37.655274 -1.67508
 8532 1  -77.104446  38.377273 -1.67508
 8533 1  -77.090551  39.797205 -1.67508
 8534 1  -75.853906  40.495138 -1.67508
 8535 1  -78.341090  37.679340 -1.67508
 8536 1  -79.563840  38.401340 -1.67508
 8537 1  -79.549945  39.821272 -1.67508
 8538 1  -78.313301  40.519205 -1.67508
 8539 1  -80.800485  37.703407 -1.67508
 8540 1  -82.023235  38.425406 -1.67508
 8541 1  -82.009340  39.845338 -1.67508
 8542 1  -80.772695  40.543271 -1.67508
 8543 1  -83.259879  37.727474 -1.67508
 8544 1  -84.482629  38.449473 -1.67508
 8545 1  -84.468734  39.869405 -1.67508
 8546 1  -83.232090  40.567338 -1.67508
 8547 1  -85.719274  37.751540 -1.67508
 8548 1  -86.942023  38.473540 -1.67508
 8549 1  -86.928129  39.893472 -1.67508
 8550 1  -85.691484  40.591404 -1.67508
 8551 1  -88.178668  37.775607 -1.67508
 8552 1  -89.401418  38.497606 -1.67508
 8553 1  -89.387523  39.917538 -1.67508
 8554 1  -88.150878  40.615471 -1.67508
 8555 1  -90.638062  37.799674 -1.67508
 8556 1  -91.860812  38.521673 -1.67508
 8557 1  -91.846917  39.941605 -1.67508
 8558 1  -90.610273  40.639538 -1.67508
 8559 1  -93.097457  37.823740 -1.67508
 8560 1  -94.320207  38.545740 -1.67508
 8561 1  -94.306312  39.965672 -1.67508
 8562 1  -93.069667  40.663604 -1.67508
 8563 1  -95.556851  37.847807 -1.67508
 8564 1  -96.779601  38.569806 -1.67508
 8565 1  -96.765706  39.989738 -1.67508
 8566 1  -95.529061  40.687671 -1.67508
 8567 1  -98.016246  37.871874 -1.67508
 8568 1  -99.238995  38.593873 -1.67508
 8569 1  -99.225101  40.013805 -1.67508
 8570 1  -97.988456  40.711738 -1.67508
 8571 1 -100.475640  37.895940 -1.67508
 8572 1 -101.698390  38.617940 -1.67508
 8573 1 -101.684495  40.037872 -1.67508
 8574 1 -100.447850  40.735804 -1.67508
 8575 1 -102.935034  37.920007 -1.67508
 8576 1 -104.157784  38.642006 -1.67508
 8577 1 -104.143889  40.061938 -1.67508
 8578 1 -102.907245  40.759871 -1.67508
 8579 1 -105.394429  37.944074 -1.67508
 8580 1 -106.617179  38.666073 -1.67508
 8581 1 -106.603284  40.086005 -1.67508
 8582 1 -105.366639  40.783938 -1.67508
 8583 1 -107.853823  37.968140 -1.67508
 8584 1 -107.826033  40.808004 -1.67508
 8585 1  108.614568  40.110072 -1.67508
 8586 1  107.391819  40.832071 -1.67508
 8587 1  107.405713  42.252003 -1.67508
 8588 1  108.642358  42.949936 -1.67508
 8589 1  106.155174  40.134138 -1.67508
 8590 1  104.932424  40.856138 -1.67508
 8591 1  104.946319  42.276070 -1.67508
 8592 1  106.182964  42.974002 -1.67508
 8593 1  103.695779  40.158205 -1.67508
 8594 1  102.473030  40.880204 -1.67508
 8595 1  102.486925  42.300136 -1.67508
 8596 1  103.723569  42.998069 -1.67508
 8597 1  101.236385  40.182272 -1.67508
 8598 1  100.013635  40.904271 -1.67508
 8599 1  100.027530  42.324203 -1.67508
 8600 1  101.264175  43.022136 -1.67508
 8601 1   98.776991  40.206338 -1.67508
 8602 1   97.554241  40.928337 -1.67508
 8603 1   97.568136  42.348269 -1.67508
 8604 1   98.804780  43.046202 -1.67508
 8605 1   96.317596  40.230405 -1.67508
 8606 1   95.094847  40.952404 -1.67508
 8607 1   95.108741  42.372336 -1.67508
 8608 1   96.345386  43.070269 -1.67508
 8609 1   93.858202  40.254471 -1.67508
 8610 1   92.635452  40.976471 -1.67508
 8611 1   92.649347  42.396403 -1.67508
 8612 1   93.885992  43.094335 -1.67508
 8613 1   91.398808  40.278538 -1.67508
 8614 1   90.176058  41.000537 -1.67508
 8615 1   90.189953  42.420469 -1.67508
 8616 1   91.426597  43.118402 -1.67508
 8617 1   88.939413  40.302605 -1.67508
 8618 1   87.716663  41.024604 -1.67508
 8619 1   87.730558  42.444536 -1.67508
 8620 1   88.967203  43.142469 -1.67508
 8621 1   86.480019  40.326671 -1.67508
 8622 1   85.257269  41.048671 -1.67508
 8623 1   85.271164  42.468603 -1.67508
 8624 1   86.507808  43.166535 -1.67508
 8625 1   84.020624  40.350738 -1.67508
 8626 1   82.797875  41.072737 -1.67508
 8627 1   82.811769  42.492669 -1.67508
 8628 1   84.048414  43.190602 -1.67508
 8629 1   81.561230  40.374805 -1.67508
 8630 1   80.338480  41.096804 -1.67508
 8631 1   80.352375  42.516736 -1.67508
 8632 1   81.589020  43.214669 -1.67508
 8633 1   79.101836  40.398871 -1.67508
 8634 1   77.879086  41.120871 -1.67508
 8635 1   77.892981  42.540803 -1.67508
 8636 1   79.129625  43.238735 -1.67508
 8637 1   76.642441  40.422938 -1.67508
 8638 1   75.419691  41.144937 -1.67508
 8639 1   75.433586  42.564869 -1.67508
 8640 1   76.670231  43.262802 -1.67508
 8641 1   74.183047  40.447005 -1.67508
 8642 1   72.960297  41.169004 -1.67508
 8643 1   72.974192  42.588936 -1.67508
 8644 1   74.210837  43.286869 -1.67508
 8645 1   71.723652  40.471071 -1.67508
 8646 1   70.500903  41.193071 -1.67508
 8647 1   70.514797  42.613003 -1.67508
 8648 1   71.751442  43.310935 -1.67508
 8649 1   69.264258  40.495138 -1.67508
 8650 1   68.041508  41.217137 -1.67508
 8651 1   68.055403  42.637069 -1.67508
 8652 1   69.292048  43.335002 -1.67508
 8653 1   66.804864  40.519205 -1.67508
 8654 1   65.582114  41.241204 -1.67508
 8655 1   65.596009  42.661136 -1.67508
 8656 1   66.832653  43.359069 -1.67508
 8657 1   64.345469  40.543271 -1.67508
 8658 1   63.122719  41.265271 -1.67508
 8659 1   63.136614  42.685203 -1.67508
 8660 1   64.373259  43.383135 -1.67508
 8661 1   61.886075  40.567338 -1.67508
 8662 1   60.663325  41.289337 -1.67508
 8663 1   60.677220  42.709269 -1.67508
 8664 1   61.913865  43.407202 -1.67508
 8665 1   59.426680  40.591404 -1.67508
 8666 1   58.203931  41.313404 -1.67508
 8667 1   58.217825  42.733336 -1.67508
 8668 1   59.454470  43.431268 -1.67508
 8669 1   56.967286  40.615471 -1.67508
 8670 1   55.744536  41.337470 -1.67508
 8671 1   55.758431  42.757402 -1.67508
 8672 1   56.995076  43.455335 -1.67508
 8673 1   54.507892  40.639538 -1.67508
 8674 1   53.285142  41.361537 -1.67508
 8675 1   53.299037  42.781469 -1.67508
 8676 1   54.535681  43.479402 -1.67508
 8677 1   52.048497  40.663604 -1.67508
 8678 1   50.825747  41.385604 -1.67508
 8679 1   50.839642  42.805536 -1.67508
 8680 1   52.076287  43.503468 -1.67508
 8681 1   49.589103  40.687671 -1.67508
 8682 1   48.366353  41.409670 -1.67508
 8683 1   48.380248  42.829602 -1.67508
 8684 1   49.616893  43.527535 -1.67508
 8685 1   47.129708  40.711738 -1.67508
 8686 1   45.906959  41.433737 -1.67508
 8687 1   45.920854  42.853669 -1.67508
 8688 1   47.157498  43.551602 -1.67508
 8689 1   44.670314  40.735804 -1.67508
 8690 1   43.447564  41.457804 -1.67508
 8691 1   43.461459  42.877736 -1.67508
 8692 1   44.698104  43.575668 -1.67508
 8693 1   42.210920  40.759871 -1.67508
 8694 1   40.988170  41.481870 -1.67508
 8695 1   41.002065  42.901802 -1.67508
 8696 1   42.238709  43.599735 -1.67508
 8697 1   39.751525  40.783938 -1.67508
 8698 1   38.528775  41.505937 -1.67508
 8699 1   38.542670  42.925869 -1.67508
 8700 1   39.779315  43.623802 -1.67508
 8701 1   37.292131  40.808004 -1.67508
 8702 1   36.069381  41.530004 -1.67508
 8703 1   36.083276  42.949936 -1.67508
 8704 1   37.319921  43.647868 -1.67508
 8705 1   34.832736  40.832071 -1.67508
 8706 1   33.609987  41.554070 -1.67508
 8707 1   33.623882  42.974002 -1.67508
 8708 1   34.860526  43.671935 -1.67508
 8709 1   32.373342  40.856138 -1.67508
 8710 1   31.150592  41.578137 -1.67508
 8711 1   31.164487  42.998069 -1.67508
 8712 1   32.401132  43.696002 -1.67508
 8713 1   29.913948  40.880204 -1.67508
 8714 1   28.691198  41.602204 -1.67508
 8715 1   28.705093  43.022136 -1.67508
 8716 1   29.941737  43.720068 -1.67508
 8717 1   27.454553  40.904271 -1.67508
 8718 1   26.231803  41.626270 -1.67508
 8719 1   26.245698  43.046202 -1.67508
 8720 1   27.482343  43.744135 -1.67508
 8721 1   24.995159  40.928337 -1.67508
 8722 1   23.772409  41.650337 -1.67508
 8723 1   23.786304  43.070269 -1.67508
 8724 1   25.022949  43.768202 -1.67508
 8725 1   22.535764  40.952404 -1.67508
 8726 1   21.313015  41.674403 -1.67508
 8727 1   21.326910  43.094335 -1.67508
 8728 1   22.563554  43.792268 -1.67508
 8729 1   20.076370  40.976471 -1.67508
 8730 1   18.853620  41.698470 -1.67508
 8731 1   18.867515  43.118402 -1.67508
 8732 1   20.104160  43.816335 -1.67508
 8733 1   17.616976  41.000537 -1.67508
 8734 1   16.394226  41.722537 -1.67508
 8735 1   16.408121  43.142469 -1.67508
 8736 1   17.644765  43.840401 -1.67508
 8737 1   15.157581  41.024604 -1.67508
 8738 1   13.934831  41.746603 -1.67508
 8739 1   13.948726  43.166535 -1.67508
 8740 1   15.185371  43.864468 -1.67508
 8741 1   12.698187  41.048671 -1.67508
 8742 1   11.475437  41.770670 -1.67508
 8743 1   11.489332  43.190602 -1.67508
 8744 1   12.725977  43.888535 -1.67508
 8745 1   10.238792  41.072737 -1.67508
 8746 1    9.016043  41.794737 -1.67508
 8747 1    9.029938  43.214669 -1.67508
 8748 1   10.266582  43.912601 -1.67508
 8749 1    7.779398  41.096804 -1.67508
 8750 1    6.556648  41.818803 -1.67508
 8751 1    6.570543  43.238735 -1.67508
 8752 1    7.807188  43.936668 -1.67508
 8753 1    5.320004  41.120871 -1.67508
 8754 1    4.097254  41.842870 -1.67508
 8755 1    4.111149  43.262802 -1.67508
 8756 1    5.347793  43.960735 -1.67508
 8757 1    2.860609  41.144937 -1.67508
 8758 1    1.637859  41.866937 -1.67508
 8759 1    1.651754  43.286869 -1.67508
 8760 1    2.888399  43.984801 -1.67508
 8761 1    0.401215  41.169004 -1.67508
 8762 1   -0.821535  41.891003 -1.67508
 8763 1   -0.807640  43.310935 -1.67508
 8764 1    0.429005  44.008868 -1.67508
 8765 1   -2.058180  41.193071 -1.67508
 8766 1   -3.280929  41.915070 -1.67508
 8767 1   -3.267034  43.335002 -1.67508
 8768 1   -2.030390  44.032935 -1.67508
 8769 1   -4.517574  41.217137 -1.67508
 8770 1   -5.740324  41.939137 -1.67508
 8771 1   -5.726429  43.359069 -1.67508
 8772 1   -4.489784  44.057001 -1.67508
 8773 1   -6.976968  41.241204 -1.67508
 8774 1   -8.199718  41.963203 -1.67508
 8775 1   -8.185823  43.383135 -1.67508
 8776 1   -6.949179  44.081068 -1.67508
 8777 1   -9.436363  41.265271 -1.67508
 8778 1  -10.659112  41.987270 -1.67508
 8779 1  -10.645218  43.407202 -1.67508
 8780 1   -9.408573  44.105135 -1.67508
 8781 1  -11.895757  41.289337 -1.67508
 8782 1  -13.118507  42.011336 -1.67508
 8783 1  -13.104612  43.431268 -1.67508
 8784 1  -11.867967  44.129201 -1.67508
 8785 1  -14.355152  41.313404 -1.67508
 8786 1  -15.577901  42.035403 -1.67508
 8787 1  -15.564006  43.455335 -1.67508
 8788 1  -14.327362  44.153268 -1.67508
 8789 1  -16.814546  41.337470 -1.67508
 8790 1  -18.037296  42.059470 -1.67508
 8791 1  -18.023401  43.479402 -1.67508
 8792 1  -16.786756  44.177334 -1.67508
 8793 1  -19.273940  41.361537 -1.67508
 8794 1  -20.496690  42.083536 -1.67508
 8795 1  -20.482795  43.503468 -1.67508
 8796 1  -19.246151  44.201401 -1.67508
 8797 1  -21.733335  41.385604 -1.67508
 8798 1  -22.956084  42.107603 -1.67508
 8799 1  -22.942190  43.527535 -1.67508
 8800 1  -21.705545  44.225468 -1.67508
 8801 1  -24.192729  41.409670 -1.67508
 8802 1  -25.415479  42.131670 -1.67508
 8803 1  -25.401584  43.551602 -1.67508
 8804 1  -24.164939  44.249534 -1.67508
 8805 1  -26.652124  41.433737 -1.67508
 8806 1  -27.874873  42.155736 -1.67508
 8807 1  -27.860978  43.575668 -1.67508
 8808 1  -26.624334  44.273601 -1.67508
 8809 1  -29.111518  41.457804 -1.67508
 8810 1  -30.334268  42.179803 -1.67508
 8811 1  -30.320373  43.599735 -1.67508
 8812 1  -29.083728  44.297668 -1.67508
 8813 1  -31.570912  41.481870 -1.67508
 8814 1  -32.793662  42.203870 -1.67508
 8815 1  -32.779767  43.623802 -1.67508
 8816 1  -31.543123  44.321734 -1.67508
 8817 1  -34.030307  41.505937 -1.67508
 8818 1  -35.253056  42.227936 -1.67508
 8819 1  -35.239162  43.647868 -1.67508
 8820 1  -34.002517  44.345801 -1.67508
 8821 1  -36.489701  41.530004 -1.67508
 8822 1  -37.712451  42.252003 -1.67508
 8823 1  -37.698556  43.671935 -1.67508
 8824 1  -36.461911  44.369868 -1.67508
 8825 1  -38.949095  41.554070 -1.67508
 8826 1  -40.171845  42.276070 -1.67508
 8827 1  -40.157950  43.696002 -1.67508
 8828 1  -38.921306  44.393934 -1.67508
 8829 1  -41.408490  41.578137 -1.67508
 8830 1  -42.631240  42.300136 -1.67508
 8831 1  -42.617345  43.720068 -1.67508
 8832 1  -41.380700  44.418001 -1.67508
 8833 1  -43.867884  41.602204 -1.67508
 8834 1  -45.090634  42.324203 -1.67508
 8835 1  -45.076739  43.744135 -1.67508
 8836 1  -43.840095  44.442068 -1.67508
 8837 1  -46.327279  41.626270 -1.67508
 8838 1  -47.550028  42.348269 -1.67508
 8839 1  -47.536134  43.768202 -1.67508
 8840 1  -46.299489  44.466134 -1.67508
 8841 1  -48.786673  41.650337 -1.67508
 8842 1  -50.009423  42.372336 -1.67508
 8843 1  -49.995528  43.792268 -1.67508
 8844 1  -48.758883  44.490201 -1.67508
 8845 1  -51.246067  41.674403 -1.67508
 8846 1  -52.468817  42.396403 -1.67508
 8847 1  -52.454922  43.816335 -1.67508
 8848 1  -51.218278  44.514267 -1.67508
 8849 1  -53.705462  41.698470 -1.67508
 8850 1  -54.928212  42.420469 -1.67508
 8851 1  -54.914317  43.840401 -1.67508
 8852 1  -53.677672  44.538334 -1.67508
 8853 1  -56.164856  41.722537 -1.67508
 8854 1  -57.387606  42.444536 -1.67508
 8855 1  -57.373711  43.864468 -1.67508
 8856 1  -56.137067  44.562401 -1.67508
 8857 1  -58.624251  41.746603 -1.67508
 8858 1  -59.847000  42.468603 -1.67508
 8859 1  -59.833106  43.888535 -1.67508
 8860 1  -58.596461  44.586467 -1.67508
 8861 1  -61.083645  41.770670 -1.67508
 8862 1  -62.306395  42.492669 -1.67508
 8863 1  -62.292500  43.912601 -1.67508
 8864 1  -61.055855  44.610534 -1.67508
 8865 1  -63.543039  41.794737 -1.67508
 8866 1  -64.765789  42.516736 -1.67508
 8867 1  -64.751894  43.936668 -1.67508
 8868 1  -63.515250  44.634601 -1.67508
 8869 1  -66.002434  41.818803 -1.67508
 8870 1  -67.225184  42.540803 -1.67508
 8871 1  -67.211289  43.960735 -1.67508
 8872 1  -65.974644  44.658667 -1.67508
 8873 1  -68.461828  41.842870 -1.67508
 8874 1  -69.684578  42.564869 -1.67508
 8875 1  -69.670683  43.984801 -1.67508
 8876 1  -68.434038  44.682734 -1.67508
 8877 1  -70.921223  41.866937 -1.67508
 8878 1  -72.143972  42.588936 -1.67508
 8879 1  -72.130078  44.008868 -1.67508
 8880 1  -70.893433  44.706801 -1.67508
 8881 1  -73.380617  41.891003 -1.67508
 8882 1  -74.603367  42.613003 -1.67508
 8883 1  -74.589472  44.032935 -1.67508
 8884 1  -73.352827  44.730867 -1.67508
 8885 1  -75.840011  41.915070 -1.67508
 8886 1  -77.062761  42.637069 -1.67508
 8887 1  -77.048866  44.057001 -1.67508
 8888 1  -75.812222  44.754934 -1.67508
 8889 1  -78.299406  41.939137 -1.67508
 8890 1  -79.522156  42.661136 -1.67508
 8891 1  -79.508261  44.081068 -1.67508
 8892 1  -78.271616  44.779001 -1.67508
 8893 1  -80.758800  41.963203 -1.67508
 8894 1  -81.981550  42.685203 -1.67508
 8895 1  -81.967655  44.105135 -1.67508
 8896 1  -80.731010  44.803067 -1.67508
 8897 1  -83.218195  41.987270 -1.67508
 8898 1  -84.440944  42.709269 -1.67508
 8899 1  -84.427050  44.129201 -1.67508
 8900 1  -83.190405  44.827134 -1.67508
 8901 1  -85.677589  42.011336 -1.67508
 8902 1  -86.900339  42.733336 -1.67508
 8903 1  -86.886444  44.153268 -1.67508
 8904 1  -85.649799  44.851201 -1.67508
 8905 1  -88.136983  42.035403 -1.67508
 8906 1  -89.359733  42.757402 -1.67508
 8907 1  -89.345838  44.177334 -1.67508
 8908 1  -88.109194  44.875267 -1.67508
 8909 1  -90.596378  42.059470 -1.67508
 8910 1  -91.819128  42.781469 -1.67508
 8911 1  -91.805233  44.201401 -1.67508
 8912 1  -90.568588  44.899334 -1.67508
 8913 1  -93.055772  42.083536 -1.67508
 8914 1  -94.278522  42.805536 -1.67508
 8915 1  -94.264627  44.225468 -1.67508
 8916 1  -93.027982  44.923400 -1.67508
 8917 1  -95.515167  42.107603 -1.67508
 8918 1  -96.737916  42.829602 -1.67508
 8919 1  -96.724021  44.249534 -1.67508
 8920 1  -95.487377  44.947467 -1.67508
 8921 1  -97.974561  42.131670 -1.67508
 8922 1  -99.197311  42.853669 -1.67508
 8923 1  -99.183416  44.273601 -1.67508
 8924 1  -97.946771  44.971534 -1.67508
 8925 1 -100.433955  42.155736 -1.67508
 8926 1 -101.656705  42.877736 -1.67508
 8927 1 -101.642810  44.297668 -1.67508
 8928 1 -100.406166  44.995600 -1.67508
 8929 1 -102.893350  42.179803 -1.67508
 8930 1 -104.116100  42.901802 -1.67508
 8931 1 -104.102205  44.321734 -1.67508
 8932 1 -102.865560  45.019667 -1.67508
 8933 1 -105.352744  42.203870 -1.67508
 8934 1 -106.575494  42.925869 -1.67508
 8935 1 -106.561599  44.345801 -1.67508
 8936 1 -105.324954  45.043734 -1.67508
 8937 1 -107.812139  42.227936 -1.67508
 8938 1 -107.784349  45.067800 -1.67508
 8939 1  108.656253  44.369868 -1.67508
 8940 1  107.433503  45.091867 -1.67508
 8941 1  107.447398  46.511799 -1.67508
 8942 1  108.684043  47.209732 -1.67508
 8943 1  106.196859  44.393934 -1.67508
 8944 1  104.974109  45.115934 -1.67508
 8945 1  104.988004  46.535866 -1.67508
 8946 1  106.224648  47.233798 -1.67508
 8947 1  103.737464  44.418001 -1.67508
 8948 1  102.514714  45.140000 -1.67508
 8949 1  102.528609  46.559932 -1.67508
 8950 1  103.765254  47.257865 -1.67508
 8951 1  101.278070  44.442068 -1.67508
 8952 1  100.055320  45.164067 -1.67508
 8953 1  100.069215  46.583999 -1.67508
 8954 1  101.305860  47.281932 -1.67508
 8955 1   98.818675  44.466134 -1.67508
 8956 1   97.595926  45.188134 -1.67508
 8957 1   97.609820  46.608066 -1.67508
 8958 1   98.846465  47.305998 -1.67508
 8959 1   96.359281  44.490201 -1.67508
 8960 1   95.136531  45.212200 -1.67508
 8961 1   95.150426  46.632132 -1.67508
 8962 1   96.387071  47.330065 -1.67508
 8963 1   93.899887  44.514267 -1.67508
 8964 1   92.677137  45.236267 -1.67508
 8965 1   92.691032  46.656199 -1.67508
 8966 1   93.927676  47.354132 -1.67508
 8967 1   91.440492  44.538334 -1.67508
 8968 1   90.217742  45.260333 -1.67508
 8969 1   90.231637  46.680265 -1.67508
 8970 1   91.468282  47.378198 -1.67508
 8971 1   88.981098  44.562401 -1.67508
 8972 1   87.758348  45.284400 -1.67508
 8973 1   87.772243  46.704332 -1.67508
 8974 1   89.008888  47.402265 -1.67508
 8975 1   86.521703  44.586467 -1.67508
 8976 1   85.298954  45.308467 -1.67508
 8977 1   85.312848  46.728399 -1.67508
 8978 1   86.549493  47.426331 -1.67508
 8979 1   84.062309  44.610534 -1.67508
 8980 1   82.839559  45.332533 -1.67508
 8981 1   82.853454  46.752465 -1.67508
 8982 1   84.090099  47.450398 -1.67508
 8983 1   81.602915  44.634601 -1.67508
 8984 1   80.380165  45.356600 -1.67508
 8985 1   80.394060  46.776532 -1.67508
 8986 1   81.630704  47.474465 -1.67508
 8987 1   79.143520  44.658667 -1.67508
 8988 1   77.920770  45.380667 -1.67508
 8989 1   77.934665  46.800599 -1.67508
 8990 1   79.171310  47.498531 -1.67508
 8991 1   76.684126  44.682734 -1.67508
 8992 1   75.461376  45.404733 -1.67508
 8993 1   75.475271  46.824665 -1.67508
 8994 1   76.711916  47.522598 -1.67508
 8995 1   74.224731  44.706801 -1.67508
 8996 1   73.001982  45.428800 -1.67508
 8997 1   73.015877  46.848732 -1.67508
 8998 1   74.252521  47.546665 -1.67508
 8999 1   71.765337  44.730867 -1.67508
 9000 1   70.542587  45.452867 -1.67508
 9001 1   70.556482  46.872799 -1.67508
 9002 1   71.793127  47.570731 -1.67508
 9003 1   69.305943  44.754934 -1.67508
 9004 1   68.083193  45.476933 -1.67508
 9005 1   68.097088  46.896865 -1.67508
 9006 1   69.333732  47.594798 -1.67508
 9007 1   66.846548  44.779001 -1.67508
 9008 1   65.623798  45.501000 -1.67508
 9009 1   65.637693  46.920932 -1.67508
 9010 1   66.874338  47.618865 -1.67508
 9011 1   64.387154  44.803067 -1.67508
 9012 1   63.164404  45.525067 -1.67508
 9013 1   63.178299  46.944999 -1.67508
 9014 1   64.414944  47.642931 -1.67508
 9015 1   61.927759  44.827134 -1.67508
 9016 1   60.705010  45.549133 -1.67508
 9017 1   60.718905  46.969065 -1.67508
 9018 1   61.955549  47.666998 -1.67508
 9019 1   59.468365  44.851201 -1.67508
 9020 1   58.245615  45.573200 -1.67508
 9021 1   58.259510  46.993132 -1.67508
 9022 1   59.496155  47.691065 -1.67508
 9023 1   57.008971  44.875267 -1.67508
 9024 1   55.786221  45.597266 -1.67508
 9025 1   55.800116  47.017199 -1.67508
 9026 1   57.036760  47.715131 -1.67508
 9027 1   54.549576  44.899334 -1.67508
 9028 1   53.326826  45.621333 -1.67508
 9029 1   53.340721  47.041265 -1.67508
 9030 1   54.577366  47.739198 -1.67508
 9031 1   52.090182  44.923400 -1.67508
 9032 1   50.867432  45.645400 -1.67508
 9033 1   50.881327  47.065332 -1.67508
 9034 1   52.117972  47.763264 -1.67508
 9035 1   49.630787  44.947467 -1.67508
 9036 1   48.408038  45.669466 -1.67508
 9037 1   48.421933  47.089398 -1.67508
 9038 1   49.658577  47.787331 -1.67508
 9039 1   47.171393  44.971534 -1.67508
 9040 1   45.948643  45.693533 -1.67508
 9041 1   45.962538  47.113465 -1.67508
 9042 1   47.199183  47.811398 -1.67508
 9043 1   44.711999  44.995600 -1.67508
 9044 1   43.489249  45.717600 -1.67508
 9045 1   43.503144  47.137532 -1.67508
 9046 1   44.739788  47.835464 -1.67508
 9047 1   42.252604  45.019667 -1.67508
 9048 1   41.029854  45.741666 -1.67508
 9049 1   41.043749  47.161598 -1.67508
 9050 1   42.280394  47.859531 -1.67508
 9051 1   39.793210  45.043734 -1.67508
 9052 1   38.570460  45.765733 -1.67508
 9053 1   38.584355  47.185665 -1.67508
 9054 1   39.821000  47.883598 -1.67508
 9055 1   37.333815  45.067800 -1.67508
 9056 1   36.111066  45.789800 -1.67508
 9057 1   36.124961  47.209732 -1.67508
 9058 1   37.361605  47.907664 -1.67508
 9059 1   34.874421  45.091867 -1.67508
 9060 1   33.651671  45.813866 -1.67508
 9061 1   33.665566  47.233798 -1.67508
 9062 1   34.902211  47.931731 -1.67508
 9063 1   32.415027  45.115934 -1.67508
 9064 1   31.192277  45.837933 -1.67508
 9065 1   31.206172  47.257865 -1.67508
 9066 1   32.442816  47.955798 -1.67508
 9067 1   29.955632  45.140000 -1.67508
 9068 1   28.732882  45.862000 -1.67508
 9069 1   28.746777  47.281932 -1.67508
 9070 1   29.983422  47.979864 -1.67508
 9071 1   27.496238  45.164067 -1.67508
 9072 1   26.273488  45.886066 -1.67508
 9073 1   26.287383  47.305998 -1.67508
 9074 1   27.524028  48.003931 -1.67508
 9075 1   25.036843  45.188134 -1.67508
 9076 1   23.814094  45.910133 -1.67508
 9077 1   23.827989  47.330065 -1.67508
 9078 1   25.064633  48.027998 -1.67508
 9079 1   22.577449  45.212200 -1.67508
 9080 1   21.354699  45.934200 -1.67508
 9081 1   21.368594  47.354132 -1.67508
 9082 1   22.605239  48.052064 -1.67508
 9083 1   20.118055  45.236267 -1.67508
 9084 1   18.895305  45.958266 -1.67508
 9085 1   18.909200  47.378198 -1.67508
 9086 1   20.145844  48.076131 -1.67508
 9087 1   17.658660  45.260333 -1.67508
 9088 1   16.435911  45.982333 -1.67508
 9089 1   16.449805  47.402265 -1.67508
 9090 1   17.686450  48.100197 -1.67508
 9091 1   15.199266  45.284400 -1.67508
 9092 1   13.976516  46.006399 -1.67508
 9093 1   13.990411  47.426331 -1.67508
 9094 1   15.227056  48.124264 -1.67508
 9095 1   12.739871  45.308467 -1.67508
 9096 1   11.517122  46.030466 -1.67508
 9097 1   11.531017  47.450398 -1.67508
 9098 1   12.767661  48.148331 -1.67508
 9099 1   10.280477  45.332533 -1.67508
 9100 1    9.057727  46.054533 -1.67508
 9101 1    9.071622  47.474465 -1.67508
 9102 1   10.308267  48.172397 -1.67508
 9103 1    7.821083  45.356600 -1.67508
 9104 1    6.598333  46.078599 -1.67508
 9105 1    6.612228  47.498531 -1.67508
 9106 1    7.848872  48.196464 -1.67508
 9107 1    5.361688  45.380667 -1.67508
 9108 1    4.138939  46.102666 -1.67508
 9109 1    4.152833  47.522598 -1.67508
 9110 1    5.389478  48.220531 -1.67508
 9111 1    2.902294  45.404733 -1.67508
 9112 1    1.679544  46.126733 -1.67508
 9113 1    1.693439  47.546665 -1.67508
 9114 1    2.930084  48.244597 -1.67508
 9115 1    0.442899  45.428800 -1.67508
 9116 1   -0.779850  46.150799 -1.67508
 9117 1   -0.765955  47.570731 -1.67508
 9118 1    0.470689  48.268664 -1.67508
 9119 1   -2.016495  45.452867 -1.67508
 9120 1   -3.239245  46.174866 -1.67508
 9121 1   -3.225350  47.594798 -1.67508
 9122 1   -1.988705  48.292731 -1.67508
 9123 1   -4.475889  45.476933 -1.67508
 9124 1   -5.698639  46.198933 -1.67508
 9125 1   -5.684744  47.618865 -1.67508
 9126 1   -4.448100  48.316797 -1.67508
 9127 1   -6.935284  45.501000 -1.67508
 9128 1   -8.158033  46.222999 -1.67508
 9129 1   -8.144139  47.642931 -1.67508
 9130 1   -6.907494  48.340864 -1.67508
 9131 1   -9.394678  45.525067 -1.67508
 9132 1  -10.617428  46.247066 -1.67508
 9133 1  -10.603533  47.666998 -1.67508
 9134 1   -9.366888  48.364931 -1.67508
 9135 1  -11.854072  45.549133 -1.67508
 9136 1  -13.076822  46.271133 -1.67508
 9137 1  -13.062927  47.691065 -1.67508
 9138 1  -11.826283  48.388997 -1.67508
 9139 1  -14.313467  45.573200 -1.67508
 9140 1  -15.536217  46.295199 -1.67508
 9141 1  -15.522322  47.715131 -1.67508
 9142 1  -14.285677  48.413064 -1.67508
 9143 1  -16.772861  45.597266 -1.67508
 9144 1  -17.995611  46.319266 -1.67508
 9145 1  -17.981716  47.739198 -1.67508
 9146 1  -16.745072  48.437131 -1.67508
 9147 1  -19.232256  45.621333 -1.67508
 9148 1  -20.455005  46.343332 -1.67508
 9149 1  -20.441111  47.763264 -1.67508
 9150 1  -19.204466  48.461197 -1.67508
 9151 1  -21.691650  45.645400 -1.67508
 9152 1  -22.914400  46.367399 -1.67508
 9153 1  -22.900505  47.787331 -1.67508
 9154 1  -21.663860  48.485264 -1.67508
 9155 1  -24.151044  45.669466 -1.67508
 9156 1  -25.373794  46.391466 -1.67508
 9157 1  -25.359899  47.811398 -1.67508
 9158 1  -24.123255  48.509330 -1.67508
 9159 1  -26.610439  45.693533 -1.67508
 9160 1  -27.833189  46.415532 -1.67508
 9161 1  -27.819294  47.835464 -1.67508
 9162 1  -26.582649  48.533397 -1.67508
 9163 1  -29.069833  45.717600 -1.67508
 9164 1  -30.292583  46.439599 -1.67508
 9165 1  -30.278688  47.859531 -1.67508
 9166 1  -29.042043  48.557464 -1.67508
 9167 1  -31.529228  45.741666 -1.67508
 9168 1  -32.751977  46.463666 -1.67508
 9169 1  -32.738083  47.883598 -1.67508
 9170 1  -31.501438  48.581530 -1.67508
 9171 1  -33.988622  45.765733 -1.67508
 9172 1  -35.211372  46.487732 -1.67508
 9173 1  -35.197477  47.907664 -1.67508
 9174 1  -33.960832  48.605597 -1.67508
 9175 1  -36.448016  45.789800 -1.67508
 9176 1  -37.670766  46.511799 -1.67508
 9177 1  -37.656871  47.931731 -1.67508
 9178 1  -36.420227  48.629664 -1.67508
 9179 1  -38.907411  45.813866 -1.67508
 9180 1  -40.130161  46.535866 -1.67508
 9181 1  -40.116266  47.955798 -1.67508
 9182 1  -38.879621  48.653730 -1.67508
 9183 1  -41.366805  45.837933 -1.67508
 9184 1  -42.589555  46.559932 -1.67508
 9185 1  -42.575660  47.979864 -1.67508
 9186 1  -41.339015  48.677797 -1.67508
 9187 1  -43.826200  45.862000 -1.67508
 9188 1  -45.048949  46.583999 -1.67508
 9189 1  -45.035055  48.003931 -1.67508
 9190 1  -43.798410  48.701864 -1.67508
 9191 1  -46.285594  45.886066 -1.67508
 9192 1  -47.508344  46.608066 -1.67508
 9193 1  -47.494449  48.027998 -1.67508
 9194 1  -46.257804  48.725930 -1.67508
 9195 1  -48.744988  45.910133 -1.67508
 9196 1  -49.967738  46.632132 -1.67508
 9197 1  -49.953843  48.052064 -1.67508
 9198 1  -48.717199  48.749997 -1.67508
 9199 1  -51.204383  45.934200 -1.67508
 9200 1  -52.427133  46.656199 -1.67508
 9201 1  -52.413238  48.076131 -1.67508
 9202 1  -51.176593  48.774064 -1.67508
 9203 1  -53.663777  45.958266 -1.67508
 9204 1  -54.886527  46.680265 -1.67508
 9205 1  -54.872632  48.100197 -1.67508
 9206 1  -53.635987  48.798130 -1.67508
 9207 1  -56.123172  45.982333 -1.67508
 9208 1  -57.345921  46.704332 -1.67508
 9209 1  -57.332026  48.124264 -1.67508
 9210 1  -56.095382  48.822197 -1.67508
 9211 1  -58.582566  46.006399 -1.67508
 9212 1  -59.805316  46.728399 -1.67508
 9213 1  -59.791421  48.148331 -1.67508
 9214 1  -58.554776  48.846263 -1.67508
 9215 1  -61.041960  46.030466 -1.67508
 9216 1  -62.264710  46.752465 -1.67508
 9217 1  -62.250815  48.172397 -1.67508
 9218 1  -61.014171  48.870330 -1.67508
 9219 1  -63.501355  46.054533 -1.67508
 9220 1  -64.724105  46.776532 -1.67508
 9221 1  -64.710210  48.196464 -1.67508
 9222 1  -63.473565  48.894397 -1.67508
 9223 1  -65.960749  46.078599 -1.67508
 9224 1  -67.183499  46.800599 -1.67508
 9225 1  -67.169604  48.220531 -1.67508
 9226 1  -65.932959  48.918463 -1.67508
 9227 1  -68.420144  46.102666 -1.67508
 9228 1  -69.642893  46.824665 -1.67508
 9229 1  -69.628998  48.244597 -1.67508
 9230 1  -68.392354  48.942530 -1.67508
 9231 1  -70.879538  46.126733 -1.67508
 9232 1  -72.102288  46.848732 -1.67508
 9233 1  -72.088393  48.268664 -1.67508
 9234 1  -70.851748  48.966597 -1.67508
 9235 1  -73.338932  46.150799 -1.67508
 9236 1  -74.561682  46.872799 -1.67508
 9237 1  -74.547787  48.292731 -1.67508
 9238 1  -73.311143  48.990663 -1.67508
 9239 1  -75.798327  46.174866 -1.67508
 9240 1  -77.021077  46.896865 -1.67508
 9241 1  -77.007182  48.316797 -1.67508
 9242 1  -75.770537  49.014730 -1.67508
 9243 1  -78.257721  46.198933 -1.67508
 9244 1  -79.480471  46.920932 -1.67508
 9245 1  -79.466576  48.340864 -1.67508
 9246 1  -78.229931  49.038797 -1.67508
 9247 1  -80.717116  46.222999 -1.67508
 9248 1  -81.939865  46.944999 -1.67508
 9249 1  -81.925970  48.364931 -1.67508
 9250 1  -80.689326  49.062863 -1.67508
 9251 1  -83.176510  46.247066 -1.67508
 9252 1  -84.399260  46.969065 -1.67508
 9253 1  -84.385365  48.388997 -1.67508
 9254 1  -83.148720  49.086930 -1.67508
 9255 1  -85.635904  46.271133 -1.67508
 9256 1  -86.858654  46.993132 -1.67508
 9257 1  -86.844759  48.413064 -1.67508
 9258 1  -85.608115  49.110997 -1.67508
 9259 1  -88.095299  46.295199 -1.67508
 9260 1  -89.318049  47.017199 -1.67508
 9261 1  -89.304154  48.437131 -1.67508
 9262 1  -88.067509  49.135063 -1.67508
 9263 1  -90.554693  46.319266 -1.67508
 9264 1  -91.777443  47.041265 -1.67508
 9265 1  -91.763548  48.461197 -1.67508
 9266 1  -90.526903  49.159130 -1.67508
 9267 1  -93.014088  46.343332 -1.67508
 9268 1  -94.236837  47.065332 -1.67508
 9269 1  -94.222942  48.485264 -1.67508
 9270 1  -92.986298  49.183196 -1.67508
 9271 1  -95.473482  46.367399 -1.67508
 9272 1  -96.696232  47.089398 -1.67508
 9273 1  -96.682337  48.509330 -1.67508
 9274 1  -95.445692  49.207263 -1.67508
 9275 1  -97.932876  46.391466 -1.67508
 9276 1  -99.155626  47.113465 -1.67508
 9277 1  -99.141731  48.533397 -1.67508
 9278 1  -97.905087  49.231330 -1.67508
 9279 1 -100.392271  46.415532 -1.67508
 9280 1 -101.615021  47.137532 -1.67508
 9281 1 -101.601126  48.557464 -1.67508
 9282 1 -100.364481  49.255396 -1.67508
 9283 1 -102.851665  46.439599 -1.67508
 9284 1 -104.074415  47.161598 -1.67508
 9285 1 -104.060520  48.581530 -1.67508
 9286 1 -102.823875  49.279463 -1.67508
 9287 1 -105.311060  46.463666 -1.67508
 9288 1 -106.533809  47.185665 -1.67508
 9289 1 -106.519914  48.605597 -1.67508
 9290 1 -105.283270  49.303530 -1.67508
 9291 1 -107.770454  46.487732 -1.67508
 9292 1 -107.742664  49.327596 -1.67508
 9293 1  108.697938  48.629664 -1.67508
 9294 1  107.475188  49.351663 -1.67508
 9295 1  107.489083  50.771595 -1.67508
 9296 1  108.725727  51.469528 -1.67508
 9297 1  106.238543  48.653730 -1.67508
 9298 1  105.015793  49.375730 -1.67508
 9299 1  105.029688  50.795662 -1.67508
 9300 1  106.266333  51.493594 -1.67508
 9301 1  103.779149  48.677797 -1.67508
 9302 1  102.556399  49.399796 -1.67508
 9303 1  102.570294  50.819728 -1.67508
 9304 1  103.806939  51.517661 -1.67508
 9305 1  101.319754  48.701864 -1.67508
 9306 1  100.097005  49.423863 -1.67508
 9307 1  100.110900  50.843795 -1.67508
 9308 1  101.347544  51.541728 -1.67508
 9309 1   98.860360  48.725930 -1.67508
 9310 1   97.637610  49.447930 -1.67508
 9311 1   97.651505  50.867862 -1.67508
 9312 1   98.888150  51.565794 -1.67508
 9313 1   96.400966  48.749997 -1.67508
 9314 1   95.178216  49.471996 -1.67508
 9315 1   95.192111  50.891928 -1.67508
 9316 1   96.428755  51.589861 -1.67508
 9317 1   93.941571  48.774064 -1.67508
 9318 1   92.718821  49.496063 -1.67508
 9319 1   92.732716  50.915995 -1.67508
 9320 1   93.969361  51.613928 -1.67508
 9321 1   91.482177  48.798130 -1.67508
 9322 1   90.259427  49.520130 -1.67508
 9323 1   90.273322  50.940062 -1.67508
 9324 1   91.509967  51.637994 -1.67508
 9325 1   89.022782  48.822197 -1.67508
 9326 1   87.800033  49.544196 -1.67508
 9327 1   87.813928  50.964128 -1.67508
 9328 1   89.050572  51.662061 -1.67508
 9329 1   86.563388  48.846263 -1.67508
 9330 1   85.340638  49.568263 -1.67508
 9331 1   85.354533  50.988195 -1.67508
 9332 1   86.591178  51.686128 -1.67508
 9333 1   84.103994  48.870330 -1.67508
 9334 1   82.881244  49.592329 -1.67508
 9335 1   82.895139  51.012261 -1.67508
 9336 1   84.131783  51.710194 -1.67508
 9337 1   81.644599  48.894397 -1.67508
 9338 1   80.421849  49.616396 -1.67508
 9339 1   80.435744  51.036328 -1.67508
 9340 1   81.672389  51.734261 -1.67508
 9341 1   79.185205  48.918463 -1.67508
 9342 1   77.962455  49.640463 -1.67508
 9343 1   77.976350  51.060395 -1.67508
 9344 1   79.212995  51.758327 -1.67508
 9345 1   76.725810  48.942530 -1.67508
 9346 1   75.503061  49.664529 -1.67508
 9347 1   75.516956  51.084461 -1.67508
 9348 1   76.753600  51.782394 -1.67508
 9349 1   74.266416  48.966597 -1.67508
 9350 1   73.043666  49.688596 -1.67508
 9351 1   73.057561  51.108528 -1.67508
 9352 1   74.294206  51.806461 -1.67508
 9353 1   71.807022  48.990663 -1.67508
 9354 1   70.584272  49.712663 -1.67508
 9355 1   70.598167  51.132595 -1.67508
 9356 1   71.834811  51.830527 -1.67508
 9357 1   69.347627  49.014730 -1.67508
 9358 1   68.124877  49.736729 -1.67508
 9359 1   68.138772  51.156661 -1.67508
 9360 1   69.375417  51.854594 -1.67508
 9361 1   66.888233  49.038797 -1.67508
 9362 1   65.665483  49.760796 -1.67508
 9363 1   65.679378  51.180728 -1.67508
 9364 1   66.916023  51.878661 -1.67508
 9365 1   64.428838  49.062863 -1.67508
 9366 1   63.206089  49.784863 -1.67508
 9367 1   63.219984  51.204795 -1.67508
 9368 1   64.456628  51.902727 -1.67508
 9369 1   61.969444  49.086930 -1.67508
 9370 1   60.746694  49.808929 -1.67508
 9371 1   60.760589  51.228861 -1.67508
 9372 1   61.997234  51.926794 -1.67508
 9373 1   59.510050  49.110997 -1.67508
 9374 1   58.287300  49.832996 -1.67508
 9375 1   58.301195  51.252928 -1.67508
 9376 1   59.537839  51.950861 -1.67508
 9377 1   57.050655  49.135063 -1.67508
 9378 1   55.827906  49.857063 -1.67508
 9379 1   55.841800  51.276995 -1.67508
 9380 1   57.078445  51.974927 -1.67508
 9381 1   54.591261  49.159130 -1.67508
 9382 1   53.368511  49.881129 -1.67508
 9383 1   53.382406  51.301061 -1.67508
 9384 1   54.619051  51.998994 -1.67508
 9385 1   52.131866  49.183196 -1.67508
 9386 1   50.909117  49.905196 -1.67508
 9387 1   50.923012  51.325128 -1.67508
 9388 1   52.159656  52.023061 -1.67508
 9389 1   49.672472  49.207263 -1.67508
 9390 1   48.449722  49.929262 -1.67508
 9391 1   48.463617  51.349194 -1.67508
 9392 1   49.700262  52.047127 -1.67508
 9393 1   47.213078  49.231330 -1.67508
 9394 1   45.990328  49.953329 -1.67508
 9395 1   46.004223  51.373261 -1.67508
 9396 1   47.240867  52.071194 -1.67508
 9397 1   44.753683  49.255396 -1.67508
 9398 1   43.530934  49.977396 -1.67508
 9399 1   43.544828  51.397328 -1.67508
 9400 1   44.781473  52.095260 -1.67508
 9401 1   42.294289  49.279463 -1.67508
 9402 1   41.071539  50.001462 -1.67508
 9403 1   41.085434  51.421394 -1.67508
 9404 1   42.322079  52.119327 -1.67508
 9405 1   39.834894  49.303530 -1.67508
 9406 1   38.612145  50.025529 -1.67508
 9407 1   38.626040  51.445461 -1.67508
 9408 1   39.862684  52.143394 -1.67508
 9409 1   37.375500  49.327596 -1.67508
 9410 1   36.152750  50.049596 -1.67508
 9411 1   36.166645  51.469528 -1.67508
 9412 1   37.403290  52.167460 -1.67508
 9413 1   34.916106  49.351663 -1.67508
 9414 1   33.693356  50.073662 -1.67508
 9415 1   33.707251  51.493594 -1.67508
 9416 1   34.943895  52.191527 -1.67508
 9417 1   32.456711  49.375730 -1.67508
 9418 1   31.233962  50.097729 -1.67508
 9419 1   31.247856  51.517661 -1.67508
 9420 1   32.484501  52.215594 -1.67508
 9421 1   29.997317  49.399796 -1.67508
 9422 1   28.774567  50.121796 -1.67508
 9423 1   28.788462  51.541728 -1.67508
 9424 1   30.025107  52.239660 -1.67508
 9425 1   27.537923  49.423863 -1.67508
 9426 1   26.315173  50.145862 -1.67508
 9427 1   26.329068  51.565794 -1.67508
 9428 1   27.565712  52.263727 -1.67508
 9429 1   25.078528  49.447930 -1.67508
 9430 1   23.855778  50.169929 -1.67508
 9431 1   23.869673  51.589861 -1.67508
 9432 1   25.106318  52.287794 -1.67508
 9433 1   22.619134  49.471996 -1.67508
 9434 1   21.396384  50.193996 -1.67508
 9435 1   21.410279  51.613928 -1.67508
 9436 1   22.646923  52.311860 -1.67508
 9437 1   20.159739  49.496063 -1.67508
 9438 1   18.936990  50.218062 -1.67508
 9439 1   18.950884  51.637994 -1.67508
 9440 1   20.187529  52.335927 -1.67508
 9441 1   17.700345  49.520130 -1.67508
 9442 1   16.477595  50.242129 -1.67508
 9443 1   16.491490  51.662061 -1.67508
 9444 1   17.728135  52.359994 -1.67508
 9445 1   15.240951  49.544196 -1.67508
 9446 1   14.018201  50.266195 -1.67508
 9447 1   14.032096  51.686128 -1.67508
 9448 1   15.268740  52.384060 -1.67508
 9449 1   12.781556  49.568263 -1.67508
 9450 1   11.558806  50.290262 -1.67508
 9451 1   11.572701  51.710194 -1.67508
 9452 1   12.809346  52.408127 -1.67508
 9453 1   10.322162  49.592329 -1.67508
 9454 1    9.099412  50.314329 -1.67508
 9455 1    9.113307  51.734261 -1.67508
 9456 1   10.349952  52.432193 -1.67508
 9457 1    7.862767  49.616396 -1.67508
 9458 1    6.640018  50.338395 -1.67508
 9459 1    6.653912  51.758327 -1.67508
 9460 1    7.890557  52.456260 -1.67508
 9461 1    5.403373  49.640463 -1.67508
 9462 1    4.180623  50.362462 -1.67508
 9463 1    4.194518  51.782394 -1.67508
 9464 1    5.431163  52.480327 -1.67508
 9465 1    2.943979  49.664529 -1.67508
 9466 1    1.721229  50.386529 -1.67508
 9467 1    1.735124  51.806461 -1.67508
 9468 1    2.971768  52.504393 -1.67508
 9469 1    0.484584  49.688596 -1.67508
 9470 1   -0.738166  50.410595 -1.67508
 9471 1   -0.724271  51.830527 -1.67508
 9472 1    0.512374  52.528460 -1.67508
 9473 1   -1.974810  49.712663 -1.67508
 9474 1   -3.197560  50.434662 -1.67508
 9475 1   -3.183665  51.854594 -1.67508
 9476 1   -1.947020  52.552527 -1.67508
 9477 1   -4.434205  49.736729 -1.67508
 9478 1   -5.656954  50.458729 -1.67508
 9479 1   -5.643060  51.878661 -1.67508
 9480 1   -4.406415  52.576593 -1.67508
 9481 1   -6.893599  49.760796 -1.67508
 9482 1   -8.116349  50.482795 -1.67508
 9483 1   -8.102454  51.902727 -1.67508
 9484 1   -6.865809  52.600660 -1.67508
 9485 1   -9.352993  49.784863 -1.67508
 9486 1  -10.575743  50.506862 -1.67508
 9487 1  -10.561848  51.926794 -1.67508
 9488 1   -9.325204  52.624727 -1.67508
 9489 1  -11.812388  49.808929 -1.67508
 9490 1  -13.035138  50.530929 -1.67508
 9491 1  -13.021243  51.950861 -1.67508
 9492 1  -11.784598  52.648793 -1.67508
 9493 1  -14.271782  49.832996 -1.67508
 9494 1  -15.494532  50.554995 -1.67508
 9495 1  -15.480637  51.974927 -1.67508
 9496 1  -14.243992  52.672860 -1.67508
 9497 1  -16.731177  49.857063 -1.67508
 9498 1  -17.953926  50.579062 -1.67508
 9499 1  -17.940031  51.998994 -1.67508
 9500 1  -16.703387  52.696927 -1.67508
 9501 1  -19.190571  49.881129 -1.67508
 9502 1  -20.413321  50.603129 -1.67508
 9503 1  -20.399426  52.023061 -1.67508
 9504 1  -19.162781  52.720993 -1.67508
 9505 1  -21.649965  49.905196 -1.67508
 9506 1  -22.872715  50.627195 -1.67508
 9507 1  -22.858820  52.047127 -1.67508
 9508 1  -21.622176  52.745060 -1.67508
 9509 1  -24.109360  49.929262 -1.67508
 9510 1  -25.332110  50.651262 -1.67508
 9511 1  -25.318215  52.071194 -1.67508
 9512 1  -24.081570  52.769127 -1.67508
 9513 1  -26.568754  49.953329 -1.67508
 9514 1  -27.791504  50.675328 -1.67508
 9515 1  -27.777609  52.095260 -1.67508
 9516 1  -26.540964  52.793193 -1.67508
 9517 1  -29.028149  49.977396 -1.67508
 9518 1  -30.250898  50.699395 -1.67508
 9519 1  -30.237003  52.119327 -1.67508
 9520 1  -29.000359  52.817260 -1.67508
 9521 1  -31.487543  50.001462 -1.67508
 9522 1  -32.710293  50.723462 -1.67508
 9523 1  -32.696398  52.143394 -1.67508
 9524 1  -31.459753  52.841326 -1.67508
 9525 1  -33.946937  50.025529 -1.67508
 9526 1  -35.169687  50.747528 -1.67508
 9527 1  -35.155792  52.167460 -1.67508
 9528 1  -33.919148  52.865393 -1.67508
 9529 1  -36.406332  50.049596 -1.67508
 9530 1  -37.629082  50.771595 -1.67508
 9531 1  -37.615187  52.191527 -1.67508
 9532 1  -36.378542  52.889460 -1.67508
 9533 1  -38.865726  50.073662 -1.67508
 9534 1  -40.088476  50.795662 -1.67508
 9535 1  -40.074581  52.215594 -1.67508
 9536 1  -38.837936  52.913526 -1.67508
 9537 1  -41.325121  50.097729 -1.67508
 9538 1  -42.547870  50.819728 -1.67508
 9539 1  -42.533975  52.239660 -1.67508
 9540 1  -41.297331  52.937593 -1.67508
 9541 1  -43.784515  50.121796 -1.67508
 9542 1  -45.007265  50.843795 -1.67508
 9543 1  -44.993370  52.263727 -1.67508
 9544 1  -43.756725  52.961660 -1.67508
 9545 1  -46.243909  50.145862 -1.67508
 9546 1  -47.466659  50.867862 -1.67508
 9547 1  -47.452764  52.287794 -1.67508
 9548 1  -46.216120  52.985726 -1.67508
 9549 1  -48.703304  50.169929 -1.67508
 9550 1  -49.926054  50.891928 -1.67508
 9551 1  -49.912159  52.311860 -1.67508
 9552 1  -48.675514  53.009793 -1.67508
 9553 1  -51.162698  50.193996 -1.67508
 9554 1  -52.385448  50.915995 -1.67508
 9555 1  -52.371553  52.335927 -1.67508
 9556 1  -51.134908  53.033860 -1.67508
 9557 1  -53.622093  50.218062 -1.67508
 9558 1  -54.844842  50.940062 -1.67508
 9559 1  -54.830947  52.359994 -1.67508
 9560 1  -53.594303  53.057926 -1.67508
 9561 1  -56.081487  50.242129 -1.67508
 9562 1  -57.304237  50.964128 -1.67508
 9563 1  -57.290342  52.384060 -1.67508
 9564 1  -56.053697  53.081993 -1.67508
 9565 1  -58.540881  50.266195 -1.67508
 9566 1  -59.763631  50.988195 -1.67508
 9567 1  -59.749736  52.408127 -1.67508
 9568 1  -58.513092  53.106060 -1.67508
 9569 1  -61.000276  50.290262 -1.67508
 9570 1  -62.223026  51.012261 -1.67508
 9571 1  -62.209131  52.432193 -1.67508
 9572 1  -60.972486  53.130126 -1.67508
 9573 1  -63.459670  50.314329 -1.67508
 9574 1  -64.682420  51.036328 -1.67508
 9575 1  -64.668525  52.456260 -1.67508
 9576 1  -63.431880  53.154193 -1.67508
 9577 1  -65.919065  50.338395 -1.67508
 9578 1  -67.141814  51.060395 -1.67508
 9579 1  -67.127919  52.480327 -1.67508
 9580 1  -65.891275  53.178259 -1.67508
 9581 1  -68.378459  50.362462 -1.67508
 9582 1  -69.601209  51.084461 -1.67508
 9583 1  -69.587314  52.504393 -1.67508
 9584 1  -68.350669  53.202326 -1.67508
 9585 1  -70.837853  50.386529 -1.67508
 9586 1  -72.060603  51.108528 -1.67508
 9587 1  -72.046708  52.528460 -1.67508
 9588 1  -70.810064  53.226393 -1.67508
 9589 1  -73.297248  50.410595 -1.67508
 9590 1  -74.519997  51.132595 -1.67508
 9591 1  -74.506103  52.552527 -1.67508
 9592 1  -73.269458  53.250459 -1.67508
 9593 1  -75.756642  50.434662 -1.67508
 9594 1  -76.979392  51.156661 -1.67508
 9595 1  -76.965497  52.576593 -1.67508
 9596 1  -75.728852  53.274526 -1.67508
 9597 1  -78.216037  50.458729 -1.67508
 9598 1  -79.438786  51.180728 -1.67508
 9599 1  -79.424891  52.600660 -1.67508
 9600 1  -78.188247  53.298593 -1.67508
 9601 1  -80.675431  50.482795 -1.67508
 9602 1  -81.898181  51.204795 -1.67508
 9603 1  -81.884286  52.624727 -1.67508
 9604 1  -80.647641  53.322659 -1.67508
 9605 1  -83.134825  50.506862 -1.67508
 9606 1  -84.357575  51.228861 -1.67508
 9607 1  -84.343680  52.648793 -1.67508
 9608 1  -83.107036  53.346726 -1.67508
 9609 1  -85.594220  50.530929 -1.67508
 9610 1  -86.816969  51.252928 -1.67508
 9611 1  -86.803075  52.672860 -1.67508
 9612 1  -85.566430  53.370793 -1.67508
 9613 1  -88.053614  50.554995 -1.67508
 9614 1  -89.276364  51.276995 -1.67508
 9615 1  -89.262469  52.696927 -1.67508
 9616 1  -88.025824  53.394859 -1.67508
 9617 1  -90.513009  50.579062 -1.67508
 9618 1  -91.735758  51.301061 -1.67508
 9619 1  -91.721863  52.720993 -1.67508
 9620 1  -90.485219  53.418926 -1.67508
 9621 1  -92.972403  50.603129 -1.67508
 9622 1  -94.195153  51.325128 -1.67508
 9623 1  -94.181258  52.745060 -1.67508
 9624 1  -92.944613  53.442993 -1.67508
 9625 1  -95.431797  50.627195 -1.67508
 9626 1  -96.654547  51.349194 -1.67508
 9627 1  -96.640652  52.769127 -1.67508
 9628 1  -95.404008  53.467059 -1.67508
 9629 1  -97.891192  50.651262 -1.67508
 9630 1  -99.113941  51.373261 -1.67508
 9631 1  -99.100047  52.793193 -1.67508
 9632 1  -97.863402  53.491126 -1.67508
 9633 1 -100.350586  50.675328 -1.67508
 9634 1 -101.573336  51.397328 -1.67508
 9635 1 -101.559441  52.817260 -1.67508
 9636 1 -100.322796  53.515192 -1.67508
 9637 1 -102.809980  50.699395 -1.67508
 9638 1 -104.032730  51.421394 -1.67508
 9639 1 -104.018835  52.841326 -1.67508
 9640 1 -102.782191  53.539259 -1.67508
 9641 1 -105.269375  50.723462 -1.67508
 9642 1 -106.492125  51.445461 -1.67508
 9643 1 -106.478230  52.865393 -1.67508
 9644 1 -105.241585  53.563326 -1.67508
 9645 1 -107.728769  50.747528 -1.67508
 9646 1 -107.700980  53.587392 -1.67508
 9647 1  108.739622  52.889460 -1.67508
 9648 1  107.516872  53.611459 -1.67508
 9649 1  107.530767  55.031391 -1.67508
 9650 1  108.767412  55.729324 -1.67508
 9651 1  106.280228  52.913526 -1.67508
 9652 1  105.057478  53.635526 -1.67508
 9653 1  105.071373  55.055458 -1.67508
 9654 1  106.308018  55.753390 -1.67508
 9655 1  103.820833  52.937593 -1.67508
 9656 1  102.598084  53.659592 -1.67508
 9657 1  102.611979  55.079524 -1.67508
 9658 1  103.848623  55.777457 -1.67508
 9659 1  101.361439  52.961660 -1.67508
 9660 1  100.138689  53.683659 -1.67508
 9661 1  100.152584  55.103591 -1.67508
 9662 1  101.389229  55.801524 -1.67508
 9663 1   98.902045  52.985726 -1.67508
 9664 1   97.679295  53.707726 -1.67508
 9665 1   97.693190  55.127658 -1.67508
 9666 1   98.929834  55.825590 -1.67508
 9667 1   96.442650  53.009793 -1.67508
 9668 1   95.219900  53.731792 -1.67508
 9669 1   95.233795  55.151724 -1.67508
 9670 1   96.470440  55.849657 -1.67508
 9671 1   93.983256  53.033860 -1.67508
 9672 1   92.760506  53.755859 -1.67508
 9673 1   92.774401  55.175791 -1.67508
 9674 1   94.011046  55.873724 -1.67508
 9675 1   91.523861  53.057926 -1.67508
 9676 1   90.301112  53.779926 -1.67508
 9677 1   90.315007  55.199858 -1.67508
 9678 1   91.551651  55.897790 -1.67508
 9679 1   89.064467  53.081993 -1.67508
 9680 1   87.841717  53.803992 -1.67508
 9681 1   87.855612  55.223924 -1.67508
 9682 1   89.092257  55.921857 -1.67508
 9683 1   86.605073  53.106060 -1.67508
 9684 1   85.382323  53.828059 -1.67508
 9685 1   85.396218  55.247991 -1.67508
 9686 1   86.632862  55.945924 -1.67508
 9687 1   84.145678  53.130126 -1.67508
 9688 1   82.922929  53.852125 -1.67508
 9689 1   82.936823  55.272058 -1.67508
 9690 1   84.173468  55.969990 -1.67508
 9691 1   81.686284  53.154193 -1.67508
 9692 1   80.463534  53.876192 -1.67508
 9693 1   80.477429  55.296124 -1.67508
 9694 1   81.714074  55.994057 -1.67508
 9695 1   79.226889  53.178259 -1.67508
 9696 1   78.004140  53.900259 -1.67508
 9697 1   78.018035  55.320191 -1.67508
 9698 1   79.254679  56.018123 -1.67508
 9699 1   76.767495  53.202326 -1.67508
 9700 1   75.544745  53.924325 -1.67508
 9701 1   75.558640  55.344257 -1.67508
 9702 1   76.795285  56.042190 -1.67508
 9703 1   74.308101  53.226393 -1.67508
 9704 1   73.085351  53.948392 -1.67508
 9705 1   73.099246  55.368324 -1.67508
 9706 1   74.335890  56.066257 -1.67508
 9707 1   71.848706  53.250459 -1.67508
 9708 1   70.625957  53.972459 -1.67508
 9709 1   70.639851  55.392391 -1.67508
 9710 1   71.876496  56.090323 -1.67508
 9711 1   69.389312  53.274526 -1.67508
 9712 1   68.166562  53.996525 -1.67508
 9713 1   68.180457  55.416457 -1.67508
 9714 1   69.417102  56.114390 -1.67508
 9715 1   66.929917  53.298593 -1.67508
 9716 1   65.707168  54.020592 -1.67508
 9717 1   65.721063  55.440524 -1.67508
 9718 1   66.957707  56.138457 -1.67508
 9719 1   64.470523  53.322659 -1.67508
 9720 1   63.247773  54.044659 -1.67508
 9721 1   63.261668  55.464591 -1.67508
 9722 1   64.498313  56.162523 -1.67508
 9723 1   62.011129  53.346726 -1.67508
 9724 1   60.788379  54.068725 -1.67508
 9725 1   60.802274  55.488657 -1.67508
 9726 1   62.038918  56.186590 -1.67508
 9727 1   59.551734  53.370793 -1.67508
 9728 1   58.328985  54.092792 -1.67508
 9729 1   58.342879  55.512724 -1.67508
 9730 1   59.579524  56.210657 -1.67508
 9731 1   57.092340  53.394859 -1.67508
 9732 1   55.869590  54.116859 -1.67508
 9733 1   55.883485  55.536791 -1.67508
 9734 1   57.120130  56.234723 -1.67508
 9735 1   54.632946  53.418926 -1.67508
 9736 1   53.410196  54.140925 -1.67508
 9737 1   53.424091  55.560857 -1.67508
 9738 1   54.660735  56.258790 -1.67508
 9739 1   52.173551  53.442993 -1.67508
 9740 1   50.950801  54.164992 -1.67508
 9741 1   50.964696  55.584924 -1.67508
 9742 1   52.201341  56.282857 -1.67508
 9743 1   49.714157  53.467059 -1.67508
 9744 1   48.491407  54.189059 -1.67508
 9745 1   48.505302  55.608991 -1.67508
 9746 1   49.741946  56.306923 -1.67508
 9747 1   47.254762  53.491126 -1.67508
 9748 1   46.032013  54.213125 -1.67508
 9749 1   46.045907  55.633057 -1.67508
 9750 1   47.282552  56.330990 -1.67508
 9751 1   44.795368  53.515192 -1.67508
 9752 1   43.572618  54.237192 -1.67508
 9753 1   43.586513  55.657124 -1.67508
 9754 1   44.823158  56.355057 -1.67508
 9755 1   42.335974  53.539259 -1.67508
 9756 1   41.113224  54.261258 -1.67508
 9757 1   41.127119  55.681190 -1.67508
 9758 1   42.363763  56.379123 -1.67508
 9759 1   39.876579  53.563326 -1.67508
 9760 1   38.653829  54.285325 -1.67508
 9761 1   38.667724  55.705257 -1.67508
 9762 1   39.904369  56.403190 -1.67508
 9763 1   37.417185  53.587392 -1.67508
 9764 1   36.194435  54.309392 -1.67508
 9765 1   36.208330  55.729324 -1.67508
 9766 1   37.444975  56.427256 -1.67508
 9767 1   34.957790  53.611459 -1.67508
 9768 1   33.735041  54.333458 -1.67508
 9769 1   33.748935  55.753390 -1.67508
 9770 1   34.985580  56.451323 -1.67508
 9771 1   32.498396  53.635526 -1.67508
 9772 1   31.275646  54.357525 -1.67508
 9773 1   31.289541  55.777457 -1.67508
 9774 1   32.526186  56.475390 -1.67508
 9775 1   30.039002  53.659592 -1.67508
 9776 1   28.816252  54.381592 -1.67508
 9777 1   28.830147  55.801524 -1.67508
 9778 1   30.066791  56.499456 -1.67508
 9779 1   27.579607  53.683659 -1.67508
 9780 1   26.356857  54.405658 -1.67508
 9781 1   26.370752  55.825590 -1.67508
 9782 1   27.607397  56.523523 -1.67508
 9783 1   25.120213  53.707726 -1.67508
 9784 1   23.897463  54.429725 -1.67508
 9785 1   23.911358  55.849657 -1.67508
 9786 1   25.148003  56.547590 -1.67508
 9787 1   22.660818  53.731792 -1.67508
 9788 1   21.438069  54.453792 -1.67508
 9789 1   21.451963  55.873724 -1.67508
 9790 1   22.688608  56.571656 -1.67508
 9791 1   20.201424  53.755859 -1.67508
 9792 1   18.978674  54.477858 -1.67508
 9793 1   18.992569  55.897790 -1.67508
 9794 1   20.229214  56.595723 -1.67508
 9795 1   17.742030  53.779926 -1.67508
 9796 1   16.519280  54.501925 -1.67508
 9797 1   16.533175  55.921857 -1.67508
 9798 1   17.769819  56.619790 -1.67508
 9799 1   15.282635  53.803992 -1.67508
 9800 1   14.059885  54.525992 -1.67508
 9801 1   14.073780  55.945924 -1.67508
 9802 1   15.310425  56.643856 -1.67508
 9803 1   12.823241  53.828059 -1.67508
 9804 1   11.600491  54.550058 -1.67508
 9805 1   11.614386  55.969990 -1.67508
 9806 1   12.851031  56.667923 -1.67508
 9807 1   10.363846  53.852125 -1.67508
 9808 1    9.141097  54.574125 -1.67508
 9809 1    9.154992  55.994057 -1.67508
 9810 1   10.391636  56.691990 -1.67508
 9811 1    7.904452  53.876192 -1.67508
 9812 1    6.681702  54.598191 -1.67508
 9813 1    6.695597  56.018123 -1.67508
 9814 1    7.932242  56.716056 -1.67508
 9815 1    5.445058  53.900259 -1.67508
 9816 1    4.222308  54.622258 -1.67508
 9817 1    4.236203  56.042190 -1.67508
 9818 1    5.472847  56.740123 -1.67508
 9819 1    2.985663  53.924325 -1.67508
 9820 1    1.762913  54.646325 -1.67508
 9821 1    1.776808  56.066257 -1.67508
 9822 1    3.013453  56.764189 -1.67508
 9823 1    0.526269  53.948392 -1.67508
 9824 1   -0.696481  54.670391 -1.67508
 9825 1   -0.682586  56.090323 -1.67508
 9826 1    0.554059  56.788256 -1.67508
 9827 1   -1.933126  53.972459 -1.67508
 9828 1   -3.155875  54.694458 -1.67508
 9829 1   -3.141980  56.114390 -1.67508
 9830 1   -1.905336  56.812323 -1.67508
 9831 1   -4.392520  53.996525 -1.67508
 9832 1   -5.615270  54.718525 -1.67508
 9833 1   -5.601375  56.138457 -1.67508
 9834 1   -4.364730  56.836389 -1.67508
 9835 1   -6.851914  54.020592 -1.67508
 9836 1   -8.074664  54.742591 -1.67508
 9837 1   -8.060769  56.162523 -1.67508
 9838 1   -6.824125  56.860456 -1.67508
 9839 1   -9.311309  54.044659 -1.67508
 9840 1  -10.534059  54.766658 -1.67508
 9841 1  -10.520164  56.186590 -1.67508
 9842 1   -9.283519  56.884523 -1.67508
 9843 1  -11.770703  54.068725 -1.67508
 9844 1  -12.993453  54.790725 -1.67508
 9845 1  -12.979558  56.210657 -1.67508
 9846 1  -11.742913  56.908589 -1.67508
 9847 1  -14.230098  54.092792 -1.67508
 9848 1  -15.452847  54.814791 -1.67508
 9849 1  -15.438952  56.234723 -1.67508
 9850 1  -14.202308  56.932656 -1.67508
 9851 1  -16.689492  54.116859 -1.67508
 9852 1  -17.912242  54.838858 -1.67508
 9853 1  -17.898347  56.258790 -1.67508
 9854 1  -16.661702  56.956723 -1.67508
 9855 1  -19.148886  54.140925 -1.67508
 9856 1  -20.371636  54.862925 -1.67508
 9857 1  -20.357741  56.282857 -1.67508
 9858 1  -19.121097  56.980789 -1.67508
 9859 1  -21.608281  54.164992 -1.67508
 9860 1  -22.831031  54.886991 -1.67508
 9861 1  -22.817136  56.306923 -1.67508
 9862 1  -21.580491  57.004856 -1.67508
 9863 1  -24.067675  54.189059 -1.67508
 9864 1  -25.290425  54.911058 -1.67508
 9865 1  -25.276530  56.330990 -1.67508
 9866 1  -24.039885  57.028923 -1.67508
 9867 1  -26.527070  54.213125 -1.67508
 9868 1  -27.749819  54.935124 -1.67508
 9869 1  -27.735924  56.355057 -1.67508
 9870 1  -26.499280  57.052989 -1.67508
 9871 1  -28.986464  54.237192 -1.67508
 9872 1  -30.209214  54.959191 -1.67508
 9873 1  -30.195319  56.379123 -1.67508
 9874 1  -28.958674  57.077056 -1.67508
 9875 1  -31.445858  54.261258 -1.67508
 9876 1  -32.668608  54.983258 -1.67508
 9877 1  -32.654713  56.403190 -1.67508
 9878 1  -31.418069  57.101122 -1.67508
 9879 1  -33.905253  54.285325 -1.67508
 9880 1  -35.128003  55.007324 -1.67508
 9881 1  -35.114108  56.427256 -1.67508
 9882 1  -33.877463  57.125189 -1.67508
 9883 1  -36.364647  54.309392 -1.67508
 9884 1  -37.587397  55.031391 -1.67508
 9885 1  -37.573502  56.451323 -1.67508
 9886 1  -36.336857  57.149256 -1.67508
 9887 1  -38.824042  54.333458 -1.67508
 9888 1  -40.046791  55.055458 -1.67508
 9889 1  -40.032896  56.475390 -1.67508
 9890 1  -38.796252  57.173322 -1.67508
 9891 1  -41.283436  54.357525 -1.67508
 9892 1  -42.506186  55.079524 -1.67508
 9893 1  -42.492291  56.499456 -1.67508
 9894 1  -41.255646  57.197389 -1.67508
 9895 1  -43.742830  54.381592 -1.67508
 9896 1  -44.965580  55.103591 -1.67508
 9897 1  -44.951685  56.523523 -1.67508
 9898 1  -43.715041  57.221456 -1.67508
 9899 1  -46.202225  54.405658 -1.67508
 9900 1  -47.424974  55.127658 -1.67508
 9901 1  -47.411080  56.547590 -1.67508
 9902 1  -46.174435  57.245522 -1.67508
 9903 1  -48.661619  54.429725 -1.67508
 9904 1  -49.884369  55.151724 -1.67508
 9905 1  -49.870474  56.571656 -1.67508
 9906 1  -48.633829  57.269589 -1.67508
 9907 1  -51.121014  54.453792 -1.67508
 9908 1  -52.343763  55.175791 -1.67508
 9909 1  -52.329868  56.595723 -1.67508
 9910 1  -51.093224  57.293656 -1.67508
 9911 1  -53.580408  54.477858 -1.67508
 9912 1  -54.803158  55.199858 -1.67508
 9913 1  -54.789263  56.619790 -1.67508
 9914 1  -53.552618  57.317722 -1.67508
 9915 1  -56.039802  54.501925 -1.67508
 9916 1  -57.262552  55.223924 -1.67508
 9917 1  -57.248657  56.643856 -1.67508
 9918 1  -56.012013  57.341789 -1.67508
 9919 1  -58.499197  54.525992 -1.67508
 9920 1  -59.721946  55.247991 -1.67508
 9921 1  -59.708052  56.667923 -1.67508
 9922 1  -58.471407  57.365856 -1.67508
 9923 1  -60.958591  54.550058 -1.67508
 9924 1  -62.181341  55.272058 -1.67508
 9925 1  -62.167446  56.691990 -1.67508
 9926 1  -60.930801  57.389922 -1.67508
 9927 1  -63.417986  54.574125 -1.67508
 9928 1  -64.640735  55.296124 -1.67508
 9929 1  -64.626840  56.716056 -1.67508
 9930 1  -63.390196  57.413989 -1.67508
 9931 1  -65.877380  54.598191 -1.67508
 9932 1  -67.100130  55.320191 -1.67508
 9933 1  -67.086235  56.740123 -1.67508
 9934 1  -65.849590  57.438056 -1.67508
 9935 1  -68.336774  54.622258 -1.67508
 9936 1  -69.559524  55.344257 -1.67508
 9937 1  -69.545629  56.764189 -1.67508
 9938 1  -68.308985  57.462122 -1.67508
 9939 1  -70.796169  54.646325 -1.67508
 9940 1  -72.018918  55.368324 -1.67508
 9941 1  -72.005024  56.788256 -1.67508
 9942 1  -70.768379  57.486189 -1.67508
 9943 1  -73.255563  54.670391 -1.67508
 9944 1  -74.478313  55.392391 -1.67508
 9945 1  -74.464418  56.812323 -1.67508
 9946 1  -73.227773  57.510255 -1.67508
 9947 1  -75.714957  54.694458 -1.67508
 9948 1  -76.937707  55.416457 -1.67508
 9949 1  -76.923812  56.836389 -1.67508
 9950 1  -75.687168  57.534322 -1.67508
 9951 1  -78.174352  54.718525 -1.67508
 9952 1  -79.397102  55.440524 -1.67508
 9953 1  -79.383207  56.860456 -1.67508
 9954 1  -78.146562  57.558389 -1.67508
 9955 1  -80.633746  54.742591 -1.67508
 9956 1  -81.856496  55.464591 -1.67508
 9957 1  -81.842601  56.884523 -1.67508
 9958 1  -80.605957  57.582455 -1.67508
 9959 1  -83.093141  54.766658 -1.67508
 9960 1  -84.315890  55.488657 -1.67508
 9961 1  -84.301996  56.908589 -1.67508
 9962 1  -83.065351  57.606522 -1.67508
 9963 1  -85.552535  54.790725 -1.67508
 9964 1  -86.775285  55.512724 -1.67508
 9965 1  -86.761390  56.932656 -1.67508
 9966 1  -85.524745  57.630589 -1.67508
 9967 1  -88.011929  54.814791 -1.67508
 9968 1  -89.234679  55.536791 -1.67508
 9969 1  -89.220784  56.956723 -1.67508
 9970 1  -87.984140  57.654655 -1.67508
 9971 1  -90.471324  54.838858 -1.67508
 9972 1  -91.694074  55.560857 -1.67508
 9973 1  -91.680179  56.980789 -1.67508
 9974 1  -90.443534  57.678722 -1.67508
 9975 1  -92.930718  54.862925 -1.67508
 9976 1  -94.153468  55.584924 -1.67508
 9977 1  -94.139573  57.004856 -1.67508
 9978 1  -92.902928  57.702789 -1.67508
 9979 1  -95.390113  54.886991 -1.67508
 9980 1  -96.612862  55.608991 -1.67508
 9981 1  -96.598968  57.028923 -1.67508
 9982 1  -95.362323  57.726855 -1.67508
 9983 1  -97.849507  54.911058 -1.67508
 9984 1  -99.072257  55.633057 -1.67508
 9985 1  -99.058362  57.052989 -1.67508
 9986 1  -97.821717  57.750922 -1.67508
 9987 1 -100.308901  54.935124 -1.67508
 9988 1 -101.531651  55.657124 -1.67508
 9989 1 -101.517756  57.077056 -1.67508
 9990 1 -100.281112  57.774989 -1.67508
 9991 1 -102.768296  54.959191 -1.67508
 9992 1 -103.991046  55.681190 -1.67508
 9993 1 -103.977151  57.101122 -1.67508
 9994 1 -102.740506  57.799055 -1.67508
 9995 1 -105.227690  54.983258 -1.67508
 9996 1 -106.450440  55.705257 -1.67508
 9997 1 -106.436545  57.125189 -1.67508
 9998 1 -105.199900  57.823122 -1.67508
 9999 1 -107.687085  55.007324 -1.67508
10000 1 -107.659295  57.847188 -1.67508
10001 1  108.781307  57.149256 -1.67508
10002 1  107.558557  57.871255 -1.67508
10003 1  107.572452  59.291187 -1.67508
10004 1  108.809097  59.989120 -1.67508
10005 1  106.321912  57.173322 -1.67508
10006 1  105.099163  57.895322 -1.67508
10007 1  105.113058  59.315254 -1.67508
10008 1  106.349702  60.013186 -1.67508
10009 1  103.862518  57.197389 -1.67508
10010 1  102.639768  57.919388 -1.67508
10011 1  102.653663  59.339320 -1.67508
10012 1  103.890308  60.037253 -1.67508
10013 1  101.403124  57.221456 -1.67508
10014 1  100.180374  57.943455 -1.67508
10015 1  100.194269  59.363387 -1.67508
10016 1  101.430913  60.061320 -1.67508
10017 1   98.943729  57.245522 -1.67508
10018 1   97.720980  57.967522 -1.67508
10019 1   97.734874  59.387454 -1.67508
10020 1   98.971519  60.085386 -1.67508
10021 1   96.484335  57.269589 -1.67508
10022 1   95.261585  57.991588 -1.67508
10023 1   95.275480  59.411520 -1.67508
10024 1   96.512125  60.109453 -1.67508
10025 1   94.024941  57.293656 -1.67508
10026 1   92.802191  58.015655 -1.67508
10027 1   92.816086  59.435587 -1.67508
10028 1   94.052730  60.133520 -1.67508
10029 1   91.565546  57.317722 -1.67508
10030 1   90.342796  58.039722 -1.67508
10031 1   90.356691  59.459654 -1.67508
10032 1   91.593336  60.157586 -1.67508
10033 1   89.106152  57.341789 -1.67508
10034 1   87.883402  58.063788 -1.67508
10035 1   87.897297  59.483720 -1.67508
10036 1   89.133941  60.181653 -1.67508
10037 1   86.646757  57.365856 -1.67508
10038 1   85.424008  58.087855 -1.67508
10039 1   85.437902  59.507787 -1.67508
10040 1   86.674547  60.205720 -1.67508
10041 1   84.187363  57.389922 -1.67508
10042 1   82.964613  58.111922 -1.67508
10043 1   82.978508  59.531854 -1.67508
10044 1   84.215153  60.229786 -1.67508
10045 1   81.727969  57.413989 -1.67508
10046 1   80.505219  58.135988 -1.67508
10047 1   80.519114  59.555920 -1.67508
10048 1   81.755758  60.253853 -1.67508
10049 1   79.268574  57.438056 -1.67508
10050 1   78.045824  58.160055 -1.67508
10051 1   78.059719  59.579987 -1.67508
10052 1   79.296364  60.277920 -1.67508
10053 1   76.809180  57.462122 -1.67508
10054 1   75.586430  58.184121 -1.67508
10055 1   75.600325  59.604053 -1.67508
10056 1   76.836970  60.301986 -1.67508
10057 1   74.349785  57.486189 -1.67508
10058 1   73.127036  58.208188 -1.67508
10059 1   73.140930  59.628120 -1.67508
10060 1   74.377575  60.326053 -1.67508
10061 1   71.890391  57.510255 -1.67508
10062 1   70.667641  58.232255 -1.67508
10063 1   70.681536  59.652187 -1.67508
10064 1   71.918181  60.350119 -1.67508
10065 1   69.430997  57.534322 -1.67508
10066 1   68.208247  58.256321 -1.67508
10067 1   68.222142  59.676253 -1.67508
10068 1   69.458786  60.374186 -1.67508
10069 1   66.971602  57.558389 -1.67508
10070 1   65.748852  58.280388 -1.67508
10071 1   65.762747  59.700320 -1.67508
10072 1   66.999392  60.398253 -1.67508
10073 1   64.512208  57.582455 -1.67508
10074 1   63.289458  58.304455 -1.67508
10075 1   63.303353  59.724387 -1.67508
10076 1   64.539998  60.422319 -1.67508
10077 1   62.052813  57.606522 -1.67508
10078 1   60.830064  58.328521 -1.67508
10079 1   60.843958  59.748453 -1.67508
10080 1   62.080603  60.446386 -1.67508
10081 1   59.593419  57.630589 -1.67508
10082 1   58.370669  58.352588 -1.67508
10083 1   58.384564  59.772520 -1.67508
10084 1   59.621209  60.470453 -1.67508
10085 1   57.134025  57.654655 -1.67508
10086 1   55.911275  58.376655 -1.67508
10087 1   55.925170  59.796587 -1.67508
10088 1   57.161814  60.494519 -1.67508
10089 1   54.674630  57.678722 -1.67508
10090 1   53.451880  58.400721 -1.67508
10091 1   53.465775  59.820653 -1.67508
10092 1   54.702420  60.518586 -1.67508
10093 1   52.215236  57.702789 -1.67508
10094 1   50.992486  58.424788 -1.67508
10095 1   51.006381  59.844720 -1.67508
10096 1   52.243026  60.542653 -1.67508
10097 1   49.755841  57.726855 -1.67508
10098 1   48.533092  58.448855 -1.67508
10099 1   48.546987  59.868787 -1.67508
10100 1   49.783631  60.566719 -1.67508
10101 1   47.296447  57.750922 -1.67508
10102 1   46.073697  58.472921 -1.67508
10103 1   46.087592  59.892853 -1.67508
10104 1   47.324237  60.590786 -1.67508
10105 1   44.837053  57.774989 -1.67508
10106 1   43.614303  58.496988 -1.67508
10107 1   43.628198  59.916920 -1.67508
10108 1   44.864842  60.614853 -1.67508
10109 1   42.377658  57.799055 -1.67508
10110 1   41.154908  58.521055 -1.67508
10111 1   41.168803  59.940987 -1.67508
10112 1   42.405448  60.638919 -1.67508
10113 1   39.918264  57.823122 -1.67508
10114 1   38.695514  58.545121 -1.67508
10115 1   38.709409  59.965053 -1.67508
10116 1   39.946054  60.662986 -1.67508
10117 1   37.458869  57.847188 -1.67508
10118 1   36.236120  58.569188 -1.67508
10119 1   36.250015  59.989120 -1.67508
10120 1   37.486659  60.687052 -1.67508
10121 1   34.999475  57.871255 -1.67508
10122 1   33.776725  58.593254 -1.67508
10123 1   33.790620  60.013186 -1.67508
10124 1   35.027265  60.711119 -1.67508
10125 1   32.540081  57.895322 -1.67508
10126 1   31.317331  58.617321 -1.67508
10127 1   31.331226  60.037253 -1.67508
10128 1   32.567870  60.735186 -1.67508
10129 1   30.080686  57.919388 -1.67508
10130 1   28.857936  58.641388 -1.67508
10131 1   28.871831  60.061320 -1.67508
10132 1   30.108476  60.759252 -1.67508
10133 1   27.621292  57.943455 -1.67508
10134 1   26.398542  58.665454 -1.67508
10135 1   26.412437  60.085386 -1.67508
10136 1   27.649082  60.783319 -1.67508
10137 1   25.161897  57.967522 -1.67508
10138 1   23.939148  58.689521 -1.67508
10139 1   23.953043  60.109453 -1.67508
10140 1   25.189687  60.807386 -1.67508
10141 1   22.702503  57.991588 -1.67508
10142 1   21.479753  58.713588 -1.67508
10143 1   21.493648  60.133520 -1.67508
10144 1   22.730293  60.831452 -1.67508
10145 1   20.243109  58.015655 -1.67508
10146 1   19.020359  58.737654 -1.67508
10147 1   19.034254  60.157586 -1.67508
10148 1   20.270898  60.855519 -1.67508
10149 1   17.783714  58.039722 -1.67508
10150 1   16.560964  58.761721 -1.67508
10151 1   16.574859  60.181653 -1.67508
10152 1   17.811504  60.879586 -1.67508
10153 1   15.324320  58.063788 -1.67508
10154 1   14.101570  58.785788 -1.67508
10155 1   14.115465  60.205720 -1.67508
10156 1   15.352110  60.903652 -1.67508
10157 1   12.864925  58.087855 -1.67508
10158 1   11.642176  58.809854 -1.67508
10159 1   11.656071  60.229786 -1.67508
10160 1   12.892715  60.927719 -1.67508
10161 1   10.405531  58.111922 -1.67508
10162 1    9.182781  58.833921 -1.67508
10163 1    9.196676  60.253853 -1.67508
10164 1   10.433321  60.951786 -1.67508
10165 1    7.946137  58.135988 -1.67508
10166 1    6.723387  58.857988 -1.67508
10167 1    6.737282  60.277920 -1.67508
10168 1    7.973926  60.975852 -1.67508
10169 1    5.486742  58.160055 -1.67508
10170 1    4.263992  58.882054 -1.67508
10171 1    4.277887  60.301986 -1.67508
10172 1    5.514532  60.999919 -1.67508
10173 1    3.027348  58.184121 -1.67508
10174 1    1.804598  58.906121 -1.67508
10175 1    1.818493  60.326053 -1.67508
10176 1    3.055138  61.023986 -1.67508
10177 1    0.567953  58.208188 -1.67508
10178 1   -0.654796  58.930187 -1.67508
10179 1   -0.640901  60.350119 -1.67508
10180 1    0.595743  61.048052 -1.67508
10181 1   -1.891441  58.232255 -1.67508
10182 1   -3.114191  58.954254 -1.67508
10183 1   -3.100296  60.374186 -1.67508
10184 1   -1.863651  61.072119 -1.67508
10185 1   -4.350835  58.256321 -1.67508
10186 1   -5.573585  58.978321 -1.67508
10187 1   -5.559690  60.398253 -1.67508
10188 1   -4.323046  61.096185 -1.67508
10189 1   -6.810230  58.280388 -1.67508
10190 1   -8.032979  59.002387 -1.67508
10191 1   -8.019085  60.422319 -1.67508
10192 1   -6.782440  61.120252 -1.67508
10193 1   -9.269624  58.304455 -1.67508
10194 1  -10.492374  59.026454 -1.67508
10195 1  -10.478479  60.446386 -1.67508
10196 1   -9.241834  61.144319 -1.67508
10197 1  -11.729019  58.328521 -1.67508
10198 1  -12.951768  59.050521 -1.67508
10199 1  -12.937873  60.470453 -1.67508
10200 1  -11.701229  61.168385 -1.67508
10201 1  -14.188413  58.352588 -1.67508
10202 1  -15.411163  59.074587 -1.67508
10203 1  -15.397268  60.494519 -1.67508
10204 1  -14.160623  61.192452 -1.67508
10205 1  -16.647807  58.376655 -1.67508
10206 1  -17.870557  59.098654 -1.67508
10207 1  -17.856662  60.518586 -1.67508
10208 1  -16.620018  61.216519 -1.67508
10209 1  -19.107202  58.400721 -1.67508
10210 1  -20.329951  59.122721 -1.67508
10211 1  -20.316057  60.542653 -1.67508
10212 1  -19.079412  61.240585 -1.67508
10213 1  -21.566596  58.424788 -1.67508
10214 1  -22.789346  59.146787 -1.67508
10215 1  -22.775451  60.566719 -1.67508
10216 1  -21.538806  61.264652 -1.67508
10217 1  -24.025991  58.448855 -1.67508
10218 1  -25.248740  59.170854 -1.67508
10219 1  -25.234845  60.590786 -1.67508
10220 1  -23.998201  61.288719 -1.67508
10221 1  -26.485385  58.472921 -1.67508
10222 1  -27.708135  59.194921 -1.67508
10223 1  -27.694240  60.614853 -1.67508
10224 1  -26.457595  61.312785 -1.67508
10225 1  -28.944779  58.496988 -1.67508
10226 1  -30.167529  59.218987 -1.67508
10227 1  -30.153634  60.638919 -1.67508
10228 1  -28.916990  61.336852 -1.67508
10229 1  -31.404174  58.521055 -1.67508
10230 1  -32.626923  59.243054 -1.67508
10231 1  -32.613029  60.662986 -1.67508
10232 1  -31.376384  61.360919 -1.67508
10233 1  -33.863568  58.545121 -1.67508
10234 1  -35.086318  59.267120 -1.67508
10235 1  -35.072423  60.687052 -1.67508
10236 1  -33.835778  61.384985 -1.67508
10237 1  -36.322962  58.569188 -1.67508
10238 1  -37.545712  59.291187 -1.67508
10239 1  -37.531817  60.711119 -1.67508
10240 1  -36.295173  61.409052 -1.67508
10241 1  -38.782357  58.593254 -1.67508
10242 1  -40.005107  59.315254 -1.67508
10243 1  -39.991212  60.735186 -1.67508
10244 1  -38.754567  61.433118 -1.67508
10245 1  -41.241751  58.617321 -1.67508
10246 1  -42.464501  59.339320 -1.67508
10247 1  -42.450606  60.759252 -1.67508
10248 1  -41.213962  61.457185 -1.67508
10249 1  -43.701146  58.641388 -1.67508
10250 1  -44.923895  59.363387 -1.67508
10251 1  -44.910001  60.783319 -1.67508
10252 1  -43.673356  61.481252 -1.67508
10253 1  -46.160540  58.665454 -1.67508
10254 1  -47.383290  59.387454 -1.67508
10255 1  -47.369395  60.807386 -1.67508
10256 1  -46.132750  61.505318 -1.67508
10257 1  -48.619934  58.689521 -1.67508
10258 1  -49.842684  59.411520 -1.67508
10259 1  -49.828789  60.831452 -1.67508
10260 1  -48.592145  61.529385 -1.67508
10261 1  -51.079329  58.713588 -1.67508
10262 1  -52.302079  59.435587 -1.67508
10263 1  -52.288184  60.855519 -1.67508
10264 1  -51.051539  61.553452 -1.67508
10265 1  -53.538723  58.737654 -1.67508
10266 1  -54.761473  59.459654 -1.67508
10267 1  -54.747578  60.879586 -1.67508
10268 1  -53.510934  61.577518 -1.67508
10269 1  -55.998118  58.761721 -1.67508
10270 1  -57.220867  59.483720 -1.67508
10271 1  -57.206973  60.903652 -1.67508
10272 1  -55.970328  61.601585 -1.67508
10273 1  -58.457512  58.785788 -1.67508
10274 1  -59.680262  59.507787 -1.67508
10275 1  -59.666367  60.927719 -1.67508
10276 1  -58.429722  61.625652 -1.67508
10277 1  -60.916906  58.809854 -1.67508
10278 1  -62.139656  59.531854 -1.67508
10279 1  -62.125761  60.951786 -1.67508
10280 1  -60.889117  61.649718 -1.67508
10281 1  -63.376301  58.833921 -1.67508
10282 1  -64.599051  59.555920 -1.67508
10283 1  -64.585156  60.975852 -1.67508
10284 1  -63.348511  61.673785 -1.67508
10285 1  -65.835695  58.857988 -1.67508
10286 1  -67.058445  59.579987 -1.67508
10287 1  -67.044550  60.999919 -1.67508
10288 1  -65.807905  61.697852 -1.67508
10289 1  -68.295090  58.882054 -1.67508
10290 1  -69.517839  59.604053 -1.67508
10291 1  -69.503945  61.023986 -1.67508
10292 1  -68.267300  61.721918 -1.67508
10293 1  -70.754484  58.906121 -1.67508
10294 1  -71.977234  59.628120 -1.67508
10295 1  -71.963339  61.048052 -1.67508
10296 1  -70.726694  61.745985 -1.67508
10297 1  -73.213878  58.930187 -1.67508
10298 1  -74.436628  59.652187 -1.67508
10299 1  -74.422733  61.072119 -1.67508
10300 1  -73.186089  61.770051 -1.67508
10301 1  -75.673273  58.954254 -1.67508
10302 1  -76.896023  59.676253 -1.67508
10303 1  -76.882128  61.096185 -1.67508
10304 1  -75.645483  61.794118 -1.67508
10305 1  -78.132667  58.978321 -1.67508
10306 1  -79.355417  59.700320 -1.67508
10307 1  -79.341522  61.120252 -1.67508
10308 1  -78.104877  61.818185 -1.67508
10309 1  -80.592062  59.002387 -1.67508
10310 1  -81.814811  59.724387 -1.67508
10311 1  -81.800917  61.144319 -1.67508
10312 1  -80.564272  61.842251 -1.67508
10313 1  -83.051456  59.026454 -1.67508
10314 1  -84.274206  59.748453 -1.67508
10315 1  -84.260311  61.168385 -1.67508
10316 1  -83.023666  61.866318 -1.67508
10317 1  -85.510850  59.050521 -1.67508
10318 1  -86.733600  59.772520 -1.67508
10319 1  -86.719705  61.192452 -1.67508
10320 1  -85.483061  61.890385 -1.67508
10321 1  -87.970245  59.074587 -1.67508
10322 1  -89.192995  59.796587 -1.67508
10323 1  -89.179100  61.216519 -1.67508
10324 1  -87.942455  61.914451 -1.67508
10325 1  -90.429639  59.098654 -1.67508
10326 1  -91.652389  59.820653 -1.67508
10327 1  -91.638494  61.240585 -1.67508
10328 1  -90.401849  61.938518 -1.67508
10329 1  -92.889034  59.122721 -1.67508
10330 1  -94.111783  59.844720 -1.67508
10331 1  -94.097888  61.264652 -1.67508
10332 1  -92.861244  61.962585 -1.67508
10333 1  -95.348428  59.146787 -1.67508
10334 1  -96.571178  59.868787 -1.67508
10335 1  -96.557283  61.288719 -1.67508
10336 1  -95.320638  61.986651 -1.67508
10337 1  -97.807822  59.170854 -1.67508
10338 1  -99.030572  59.892853 -1.67508
10339 1  -99.016677  61.312785 -1.67508
10340 1  -97.780033  62.010718 -1.67508
10341 1 -100.267217  59.194921 -1.67508
10342 1 -101.489967  59.916920 -1.67508
10343 1 -101.476072  61.336852 -1.67508
10344 1 -100.239427  62.034785 -1.67508
10345 1 -102.726611  59.218987 -1.67508
10346 1 -103.949361  59.940987 -1.67508
10347 1 -103.935466  61.360919 -1.67508
10348 1 -102.698821  62.058851 -1.67508
10349 1 -105.186006  59.243054 -1.67508
10350 1 -106.408755  59.965053 -1.67508
10351 1 -106.394860  61.384985 -1.67508
10352 1 -105.158216  62.082918 -1.67508
10353 1 -107.645400  59.267120 -1.67508
10354 1 -107.617610  62.106985 -1.67508
10355 1  108.822992  61.409052 -1.67508
10356 1  107.600242  62.131051 -1.67508
10357 1  106.363597  61.433118 -1.67508
10358 1  105.140847  62.155118 -1.67508
10359 1  103.904203  61.457185 -1.67508
10360 1  102.681453  62.179184 -1.67508
10361 1  101.444808  61.481252 -1.67508
10362 1  100.222059  62.203251 -1.67508
10363 1   98.985414  61.505318 -1.67508
10364 1   97.762664  62.227318 -1.67508
10365 1   96.526020  61.529385 -1.67508
10366 1   95.303270  62.251384 -1.67508
10367 1   94.066625  61.553452 -1.67508
10368 1   92.843875  62.275451 -1.67508
10369 1   91.607231  61.577518 -1.67508
10370 1   90.384481  62.299518 -1.67508
10371 1   89.147836  61.601585 -1.67508
10372 1   87.925087  62.323584 -1.67508
10373 1   86.688442  61.625652 -1.67508
10374 1   85.465692  62.347651 -1.67508
10375 1   84.229048  61.649718 -1.67508
10376 1   83.006298  62.371718 -1.67508
10377 1   81.769653  61.673785 -1.67508
10378 1   80.546903  62.395784 -1.67508
10379 1   79.310259  61.697852 -1.67508
10380 1   78.087509  62.419851 -1.67508
10381 1   76.850864  61.721918 -1.67508
10382 1   75.628115  62.443918 -1.67508
10383 1   74.391470  61.745985 -1.67508
10384 1   73.168720  62.467984 -1.67508
10385 1   71.932076  61.770051 -1.67508
10386 1   70.709326  62.492051 -1.67508
10387 1   69.472681  61.794118 -1.67508
10388 1   68.249931  62.516117 -1.67508
10389 1   67.013287  61.818185 -1.67508
10390 1   65.790537  62.540184 -1.67508
10391 1   64.553892  61.842251 -1.67508
10392 1   63.331143  62.564251 -1.67508
10393 1   62.094498  61.866318 -1.67508
10394 1   60.871748  62.588317 -1.67508
10395 1   59.635104  61.890385 -1.67508
10396 1   58.412354  62.612384 -1.67508
10397 1   57.175709  61.914451 -1.67508
10398 1   55.952959  62.636451 -1.67508
10399 1   54.716315  61.938518 -1.67508
10400 1   53.493565  62.660517 -1.67508
10401 1   52.256920  61.962585 -1.67508
10402 1   51.034171  62.684584 -1.67508
10403 1   49.797526  61.986651 -1.67508
10404 1   48.574776  62.708651 -1.67508
10405 1   47.338132  62.010718 -1.67508
10406 1   46.115382  62.732717 -1.67508
10407 1   44.878737  62.034785 -1.67508
10408 1   43.655987  62.756784 -1.67508
10409 1   42.419343  62.058851 -1.67508
10410 1   41.196593  62.780851 -1.67508
10411 1   39.959948  62.082918 -1.67508
10412 1   38.737199  62.804917 -1.67508
10413 1   37.500554  62.106985 -1.67508
10414 1   36.277804  62.828984 -1.67508
10415 1   35.041160  62.131051 -1.67508
10416 1   32.581765  62.155118 -1.67508
10417 1   30.122371  62.179184 -1.67508
10418 1   27.662976  62.203251 -1.67508
10419 1   25.203582  62.227318 -1.67508
10420 1   22.744188  62.251384 -1.67508
10421 1   20.284793  62.275451 -1.67508
10422 1   17.825399  62.299518 -1.67508
10423 1   15.366004  62.323584 -1.67508
10424 1   12.906610  62.347651 -1.67508
10425 1   10.447216  62.371718 -1.67508
10426 1    7.987821  62.395784 -1.67508
10427 1    5.528427  62.419851 -1.67508
10428 1    3.069032  62.443918 -1.67508
10429 1    0.609638  62.467984 -1.67508
10430 1   -1.849756  62.492051 -1.67508
10431 1   -4.309151  62.516117 -1.67508
10432 1   -6.768545  62.540184 -1.67508
10433 1   -9.227939  62.564251 -1.67508
10434 1  -11.687334  62.588317 -1.67508
10435 1  -14.146728  62.612384 -1.67508
10436 1  -16.606123  62.636451 -1.67508
10437 1  -19.065517  62.660517 -1.67508
10438 1  -21.524911  62.684584 -1.67508
10439 1  -23.984306  62.708651 -1.67508
10440 1  -26.443700  62.732717 -1.67508
10441 1  -28.903095  62.756784 -1.67508
10442 1  -31.362489  62.780851 -1.67508
10443 1  -33.821883  62.804917 -1.67508
10444 1  -36.281278  62.828984 -1.67508
10445 1  107.600242 -62.149100  1.67492
10446 1  108.822992 -61.427101  1.67492
10447 1  105.140847 -62.173167  1.67492
10448 1  106.363597 -61.451168  1.67492
10449 1  102.681453 -62.197234  1.67492
10450 1  103.904203 -61.475234  1.67492
10451 1  100.222059 -62.221300  1.67492
10452 1  101.444808 -61.499301  1.67492
10453 1   97.762664 -62.245367  1.67492
10454 1   98.985414 -61.523368  1.67492
10455 1   95.303270 -62.269433  1.67492
10456 1   96.526020 -61.547434  1.67492
10457 1   92.843875 -62.293500  1.67492
10458 1   94.066625 -61.571501  1.67492
10459 1   90.384481 -62.317567  1.67492
10460 1   91.607231 -61.595567  1.67492
10461 1   87.925087 -62.341633  1.67492
10462 1   89.147836 -61.619634  1.67492
10463 1   85.465692 -62.365700  1.67492
10464 1   86.688442 -61.643701  1.67492
10465 1   83.006298 -62.389767  1.67492
10466 1   84.229048 -61.667767  1.67492
10467 1   80.546903 -62.413833  1.67492
10468 1   81.769653 -61.691834  1.67492
10469 1   78.087509 -62.437900  1.67492
10470 1   79.310259 -61.715901  1.67492
10471 1   75.628115 -62.461967  1.67492
10472 1   76.850864 -61.739967  1.67492
10473 1   73.168720 -62.486033  1.67492
10474 1   74.391470 -61.764034  1.67492
10475 1   70.709326 -62.510100  1.67492
10476 1   71.932076 -61.788101  1.67492
10477 1   68.249931 -62.534167  1.67492
10478 1   69.472681 -61.812167  1.67492
10479 1   65.790537 -62.558233  1.67492
10480 1   67.013287 -61.836234  1.67492
10481 1   63.331143 -62.582300  1.67492
10482 1   64.553892 -61.860301  1.67492
10483 1   60.871748 -62.606367  1.67492
10484 1   62.094498 -61.884367  1.67492
10485 1   58.412354 -62.630433  1.67492
10486 1   59.635104 -61.908434  1.67492
10487 1   55.952959 -62.654500  1.67492
10488 1   57.175709 -61.932500  1.67492
10489 1   53.493565 -62.678566  1.67492
10490 1   54.716315 -61.956567  1.67492
10491 1   51.034171 -62.702633  1.67492
10492 1   52.256920 -61.980634  1.67492
10493 1   48.574776 -62.726700  1.67492
10494 1   49.797526 -62.004700  1.67492
10495 1   46.115382 -62.750766  1.67492
10496 1   47.338132 -62.028767  1.67492
10497 1   43.655987 -62.774833  1.67492
10498 1   44.878737 -62.052834  1.67492
10499 1   41.196593 -62.798900  1.67492
10500 1   42.419343 -62.076900  1.67492
10501 1   38.737199 -62.822966  1.67492
10502 1   39.959948 -62.100967  1.67492
10503 1   36.277804 -62.847033  1.67492
10504 1   37.500554 -62.125034  1.67492
10505 1   35.041160 -62.149100  1.67492
10506 1   32.581765 -62.173167  1.67492
10507 1   30.122371 -62.197234  1.67492
10508 1   27.662976 -62.221300  1.67492
10509 1   25.203582 -62.245367  1.67492
10510 1   22.744188 -62.269433  1.67492
10511 1   20.284793 -62.293500  1.67492
10512 1   17.825399 -62.317567  1.67492
10513 1   15.366004 -62.341633  1.67492
10514 1   12.906610 -62.365700  1.67492
10515 1   10.447216 -62.389767  1.67492
10516 1    7.987821 -62.413833  1.67492
10517 1    5.528427 -62.437900  1.67492
10518 1    3.069032 -62.461967  1.67492
10519 1    0.609638 -62.486033  1.67492
10520 1   -1.849756 -62.510100  1.67492
10521 1   -4.309151 -62.534167  1.67492
10522 1   -6.768545 -62.558233  1.67492
10523 1   -9.227939 -62.582300  1.67492
10524 1  -11.687334 -62.606367  1.67492
10525 1  -14.146728 -62.630433  1.67492
10526 1  -16.606123 -62.654500  1.67492
10527 1  -19.065517 -62.678566  1.67492
10528 1  -21.524911 -62.702633  1.67492
10529 1  -23.984306 -62.726700  1.67492
10530 1  -26.443700 -62.750766  1.67492
10531 1  -28.903095 -62.774833  1.67492
10532 1  -31.362489 -62.798900  1.67492
10533 1  -33.821883 -62.822966  1.67492
10534 1  108.809097 -60.007169  1.67492
10535 1  107.572452 -59.309236  1.67492
10536 1  107.558557 -57.889304  1.67492
10537 1  108.781307 -57.167305  1.67492
10538 1  106.349702 -60.031236  1.67492
10539 1  105.113058 -59.333303  1.67492
10540 1  105.099163 -57.913371  1.67492
10541 1  106.321912 -57.191372  1.67492
10542 1  103.890308 -60.055302  1.67492
10543 1  102.653663 -59.357370  1.67492
10544 1  102.639768 -57.937438  1.67492
10545 1  103.862518 -57.215438  1.67492
10546 1  101.430913 -60.079369  1.67492
10547 1  100.194269 -59.381436  1.67492
10548 1  100.180374 -57.961504  1.67492
10549 1  101.403124 -57.239505  1.67492
10550 1   98.971519 -60.103436  1.67492
10551 1   97.734874 -59.405503  1.67492
10552 1   97.720980 -57.985571  1.67492
10553 1   98.943729 -57.263571  1.67492
10554 1   96.512125 -60.127502  1.67492
10555 1   95.275480 -59.429569  1.67492
10556 1   95.261585 -58.009637  1.67492
10557 1   96.484335 -57.287638  1.67492
10558 1   94.052730 -60.151569  1.67492
10559 1   92.816086 -59.453636  1.67492
10560 1   92.802191 -58.033704  1.67492
10561 1   94.024941 -57.311705  1.67492
10562 1   91.593336 -60.175635  1.67492
10563 1   90.356691 -59.477703  1.67492
10564 1   90.342796 -58.057771  1.67492
10565 1   91.565546 -57.335771  1.67492
10566 1   89.133941 -60.199702  1.67492
10567 1   87.897297 -59.501769  1.67492
10568 1   87.883402 -58.081837  1.67492
10569 1   89.106152 -57.359838  1.67492
10570 1   86.674547 -60.223769  1.67492
10571 1   85.437902 -59.525836  1.67492
10572 1   85.424008 -58.105904  1.67492
10573 1   86.646757 -57.383905  1.67492
10574 1   84.215153 -60.247835  1.67492
10575 1   82.978508 -59.549903  1.67492
10576 1   82.964613 -58.129971  1.67492
10577 1   84.187363 -57.407971  1.67492
10578 1   81.755758 -60.271902  1.67492
10579 1   80.519114 -59.573969  1.67492
10580 1   80.505219 -58.154037  1.67492
10581 1   81.727969 -57.432038  1.67492
10582 1   79.296364 -60.295969  1.67492
10583 1   78.059719 -59.598036  1.67492
10584 1   78.045824 -58.178104  1.67492
10585 1   79.268574 -57.456105  1.67492
10586 1   76.836970 -60.320035  1.67492
10587 1   75.600325 -59.622103  1.67492
10588 1   75.586430 -58.202171  1.67492
10589 1   76.809180 -57.480171  1.67492
10590 1   74.377575 -60.344102  1.67492
10591 1   73.140930 -59.646169  1.67492
10592 1   73.127036 -58.226237  1.67492
10593 1   74.349785 -57.504238  1.67492
10594 1   71.918181 -60.368169  1.67492
10595 1   70.681536 -59.670236  1.67492
10596 1   70.667641 -58.250304  1.67492
10597 1   71.890391 -57.528305  1.67492
10598 1   69.458786 -60.392235  1.67492
10599 1   68.222142 -59.694303  1.67492
10600 1   68.208247 -58.274371  1.67492
10601 1   69.430997 -57.552371  1.67492
10602 1   66.999392 -60.416302  1.67492
10603 1   65.762747 -59.718369  1.67492
10604 1   65.748852 -58.298437  1.67492
10605 1   66.971602 -57.576438  1.67492
10606 1   64.539998 -60.440369  1.67492
10607 1   63.303353 -59.742436  1.67492
10608 1   63.289458 -58.322504  1.67492
10609 1   64.512208 -57.600504  1.67492
10610 1   62.080603 -60.464435  1.67492
10611 1   60.843958 -59.766502  1.67492
10612 1   60.830064 -58.346570  1.67492
10613 1   62.052813 -57.624571  1.67492
10614 1   59.621209 -60.488502  1.67492
10615 1   58.384564 -59.790569  1.67492
10616 1   58.370669 -58.370637  1.67492
10617 1   59.593419 -57.648638  1.67492
10618 1   57.161814 -60.512568  1.67492
10619 1   55.925170 -59.814636  1.67492
10620 1   55.911275 -58.394704  1.67492
10621 1   57.134025 -57.672704  1.67492
10622 1   54.702420 -60.536635  1.67492
10623 1   53.465775 -59.838702  1.67492
10624 1   53.451880 -58.418770  1.67492
10625 1   54.674630 -57.696771  1.67492
10626 1   52.243026 -60.560702  1.67492
10627 1   51.006381 -59.862769  1.67492
10628 1   50.992486 -58.442837  1.67492
10629 1   52.215236 -57.720838  1.67492
10630 1   49.783631 -60.584768  1.67492
10631 1   48.546987 -59.886836  1.67492
10632 1   48.533092 -58.466904  1.67492
10633 1   49.755841 -57.744904  1.67492
10634 1   47.324237 -60.608835  1.67492
10635 1   46.087592 -59.910902  1.67492
10636 1   46.073697 -58.490970  1.67492
10637 1   47.296447 -57.768971  1.67492
10638 1   44.864842 -60.632902  1.67492
10639 1   43.628198 -59.934969  1.67492
10640 1   43.614303 -58.515037  1.67492
10641 1   44.837053 -57.793038  1.67492
10642 1   42.405448 -60.656968  1.67492
10643 1   41.168803 -59.959036  1.67492
10644 1   41.154908 -58.539104  1.67492
10645 1   42.377658 -57.817104  1.67492
10646 1   39.946054 -60.681035  1.67492
10647 1   38.709409 -59.983102  1.67492
10648 1   38.695514 -58.563170  1.67492
10649 1   39.918264 -57.841171  1.67492
10650 1   37.486659 -60.705102  1.67492
10651 1   36.250015 -60.007169  1.67492
10652 1   36.236120 -58.587237  1.67492
10653 1   37.458869 -57.865238  1.67492
10654 1   35.027265 -60.729168  1.67492
10655 1   33.790620 -60.031236  1.67492
10656 1   33.776725 -58.611304  1.67492
10657 1   34.999475 -57.889304  1.67492
10658 1   32.567870 -60.753235  1.67492
10659 1   31.331226 -60.055302  1.67492
10660 1   31.317331 -58.635370  1.67492
10661 1   32.540081 -57.913371  1.67492
10662 1   30.108476 -60.777302  1.67492
10663 1   28.871831 -60.079369  1.67492
10664 1   28.857936 -58.659437  1.67492
10665 1   30.080686 -57.937438  1.67492
10666 1   27.649082 -60.801368  1.67492
10667 1   26.412437 -60.103436  1.67492
10668 1   26.398542 -58.683503  1.67492
10669 1   27.621292 -57.961504  1.67492
10670 1   25.189687 -60.825435  1.67492
10671 1   23.953043 -60.127502  1.67492
10672 1   23.939148 -58.707570  1.67492
10673 1   25.161897 -57.985571  1.67492
10674 1   22.730293 -60.849501  1.67492
10675 1   21.493648 -60.151569  1.67492
10676 1   21.479753 -58.731637  1.67492
10677 1   22.702503 -58.009637  1.67492
10678 1   20.270898 -60.873568  1.67492
10679 1   19.034254 -60.175635  1.67492
10680 1   19.020359 -58.755703  1.67492
10681 1   20.243109 -58.033704  1.67492
10682 1   17.811504 -60.897635  1.67492
10683 1   16.574859 -60.199702  1.67492
10684 1   16.560964 -58.779770  1.67492
10685 1   17.783714 -58.057771  1.67492
10686 1   15.352110 -60.921701  1.67492
10687 1   14.115465 -60.223769  1.67492
10688 1   14.101570 -58.803837  1.67492
10689 1   15.324320 -58.081837  1.67492
10690 1   12.892715 -60.945768  1.67492
10691 1   11.656071 -60.247835  1.67492
10692 1   11.642176 -58.827903  1.67492
10693 1   12.864925 -58.105904  1.67492
10694 1   10.433321 -60.969835  1.67492
10695 1    9.196676 -60.271902  1.67492
10696 1    9.182781 -58.851970  1.67492
10697 1   10.405531 -58.129971  1.67492
10698 1    7.973926 -60.993901  1.67492
10699 1    6.737282 -60.295969  1.67492
10700 1    6.723387 -58.876037  1.67492
10701 1    7.946137 -58.154037  1.67492
10702 1    5.514532 -61.017968  1.67492
10703 1    4.277887 -60.320035  1.67492
10704 1    4.263992 -58.900103  1.67492
10705 1    5.486742 -58.178104  1.67492
10706 1    3.055138 -61.042035  1.67492
10707 1    1.818493 -60.344102  1.67492
10708 1    1.804598 -58.924170  1.67492
10709 1    3.027348 -58.202171  1.67492
10710 1    0.595743 -61.066101  1.67492
10711 1   -0.640901 -60.368169  1.67492
10712 1   -0.654796 -58.948237  1.67492
10713 1    0.567953 -58.226237  1.67492
10714 1   -1.863651 -61.090168  1.67492
10715 1   -3.100296 -60.392235  1.67492
10716 1   -3.114191 -58.972303  1.67492
10717 1   -1.891441 -58.250304  1.67492
10718 1   -4.323046 -61.114235  1.67492
10719 1   -5.559690 -60.416302  1.67492
10720 1   -5.573585 -58.996370  1.67492
10721 1   -4.350835 -58.274371  1.67492
10722 1   -6.782440 -61.138301  1.67492
10723 1   -8.019085 -60.440369  1.67492
10724 1   -8.032979 -59.020437  1.67492
10725 1   -6.810230 -58.298437  1.67492
10726 1   -9.241834 -61.162368  1.67492
10727 1  -10.478479 -60.464435  1.67492
10728 1  -10.492374 -59.044503  1.67492
10729 1   -9.269624 -58.322504  1.67492
10730 1  -11.701229 -61.186435  1.67492
10731 1  -12.937873 -60.488502  1.67492
10732 1  -12.951768 -59.068570  1.67492
10733 1  -11.729019 -58.346570  1.67492
10734 1  -14.160623 -61.210501  1.67492
10735 1  -15.397268 -60.512568  1.67492
10736 1  -15.411163 -59.092636  1.67492
10737 1  -14.188413 -58.370637  1.67492
10738 1  -16.620018 -61.234568  1.67492
10739 1  -17.856662 -60.536635  1.67492
10740 1  -17.870557 -59.116703  1.67492
10741 1  -16.647807 -58.394704  1.67492
10742 1  -19.079412 -61.258634  1.67492
10743 1  -20.316057 -60.560702  1.67492
10744 1  -20.329951 -59.140770  1.67492
10745 1  -19.107202 -58.418770  1.67492
10746 1  -21.538806 -61.282701  1.67492
10747 1  -22.775451 -60.584768  1.67492
10748 1  -22.789346 -59.164836  1.67492
10749 1  -21.566596 -58.442837  1.67492
10750 1  -23.998201 -61.306768  1.67492
10751 1  -25.234845 -60.608835  1.67492
10752 1  -25.248740 -59.188903  1.67492
10753 1  -24.025991 -58.466904  1.67492
10754 1  -26.457595 -61.330834  1.67492
10755 1  -27.694240 -60.632902  1.67492
10756 1  -27.708135 -59.212970  1.67492
10757 1  -26.485385 -58.490970  1.67492
10758 1  -28.916990 -61.354901  1.67492
10759 1  -30.153634 -60.656968  1.67492
10760 1  -30.167529 -59.237036  1.67492
10761 1  -28.944779 -58.515037  1.67492
10762 1  -31.376384 -61.378968  1.67492
10763 1  -32.613029 -60.681035  1.67492
10764 1  -32.626923 -59.261103  1.67492
10765 1  -31.404174 -58.539104  1.67492
10766 1  -33.835778 -61.403034  1.67492
10767 1  -35.072423 -60.705102  1.67492
10768 1  -35.086318 -59.285170  1.67492
10769 1  -33.863568 -58.563170  1.67492
10770 1  -36.295173 -61.427101  1.67492
10771 1  -37.531817 -60.729168  1.67492
10772 1  -37.545712 -59.309236  1.67492
10773 1  -36.322962 -58.587237  1.67492
10774 1  -38.754567 -61.451168  1.67492
10775 1  -39.991212 -60.753235  1.67492
10776 1  -40.005107 -59.333303  1.67492
10777 1  -38.782357 -58.611304  1.67492
10778 1  -41.213962 -61.475234  1.67492
10779 1  -42.450606 -60.777302  1.67492
10780 1  -42.464501 -59.357370  1.67492
10781 1  -41.241751 -58.635370  1.67492
10782 1  -43.673356 -61.499301  1.67492
10783 1  -44.910001 -60.801368  1.67492
10784 1  -44.923895 -59.381436  1.67492
10785 1  -43.701146 -58.659437  1.67492
10786 1  -46.132750 -61.523368  1.67492
10787 1  -47.369395 -60.825435  1.67492
10788 1  -47.383290 -59.405503  1.67492
10789 1  -46.160540 -58.683503  1.67492
10790 1  -48.592145 -61.547434  1.67492
10791 1  -49.828789 -60.849501  1.67492
10792 1  -49.842684 -59.429569  1.67492
10793 1  -48.619934 -58.707570  1.67492
10794 1  -51.051539 -61.571501  1.67492
10795 1  -52.288184 -60.873568  1.67492
10796 1  -52.302079 -59.453636  1.67492
10797 1  -51.079329 -58.731637  1.67492
10798 1  -53.510934 -61.595567  1.67492
10799 1  -54.747578 -60.897635  1.67492
10800 1  -54.761473 -59.477703  1.67492
10801 1  -53.538723 -58.755703  1.67492
10802 1  -55.970328 -61.619634  1.67492
10803 1  -57.206973 -60.921701  1.67492
10804 1  -57.220867 -59.501769  1.67492
10805 1  -55.998118 -58.779770  1.67492
10806 1  -58.429722 -61.643701  1.67492
10807 1  -59.666367 -60.945768  1.67492
10808 1  -59.680262 -59.525836  1.67492
10809 1  -58.457512 -58.803837  1.67492
10810 1  -60.889117 -61.667767  1.67492
10811 1  -62.125761 -60.969835  1.67492
10812 1  -62.139656 -59.549903  1.67492
10813 1  -60.916906 -58.827903  1.67492
10814 1  -63.348511 -61.691834  1.67492
10815 1  -64.585156 -60.993901  1.67492
10816 1  -64.599051 -59.573969  1.67492
10817 1  -63.376301 -58.851970  1.67492
10818 1  -65.807905 -61.715901  1.67492
10819 1  -67.044550 -61.017968  1.67492
10820 1  -67.058445 -59.598036  1.67492
10821 1  -65.835695 -58.876037  1.67492
10822 1  -68.267300 -61.739967  1.67492
10823 1  -69.503945 -61.042035  1.67492
10824 1  -69.517839 -59.622103  1.67492
10825 1  -68.295090 -58.900103  1.67492
10826 1  -70.726694 -61.764034  1.67492
10827 1  -71.963339 -61.066101  1.67492
10828 1  -71.977234 -59.646169  1.67492
10829 1  -70.754484 -58.924170  1.67492
10830 1  -73.186089 -61.788101  1.67492
10831 1  -74.422733 -61.090168  1.67492
10832 1  -74.436628 -59.670236  1.67492
10833 1  -73.213878 -58.948237  1.67492
10834 1  -75.645483 -61.812167  1.67492
10835 1  -76.882128 -61.114235  1.67492
10836 1  -76.896023 -59.694303  1.67492
10837 1  -75.673273 -58.972303  1.67492
10838 1  -78.104877 -61.836234  1.67492
10839 1  -79.341522 -61.138301  1.67492
10840 1  -79.355417 -59.718369  1.67492
10841 1  -78.132667 -58.996370  1.67492
10842 1  -80.564272 -61.860301  1.67492
10843 1  -81.800917 -61.162368  1.67492
10844 1  -81.814811 -59.742436  1.67492
10845 1  -80.592062 -59.020437  1.67492
10846 1  -83.023666 -61.884367  1.67492
10847 1  -84.260311 -61.186435  1.67492
10848 1  -84.274206 -59.766502  1.67492
10849 1  -83.051456 -59.044503  1.67492
10850 1  -85.483061 -61.908434  1.67492
10851 1  -86.719705 -61.210501  1.67492
10852 1  -86.733600 -59.790569  1.67492
10853 1  -85.510850 -59.068570  1.67492
10854 1  -87.942455 -61.932500  1.67492
10855 1  -89.179100 -61.234568  1.67492
10856 1  -89.192995 -59.814636  1.67492
10857 1  -87.970245 -59.092636  1.67492
10858 1  -90.401849 -61.956567  1.67492
10859 1  -91.638494 -61.258634  1.67492
10860 1  -91.652389 -59.838702  1.67492
10861 1  -90.429639 -59.116703  1.67492
10862 1  -92.861244 -61.980634  1.67492
10863 1  -94.097888 -61.282701  1.67492
10864 1  -94.111783 -59.862769  1.67492
10865 1  -92.889034 -59.140770  1.67492
10866 1  -95.320638 -62.004700  1.67492
10867 1  -96.557283 -61.306768  1.67492
10868 1  -96.571178 -59.886836  1.67492
10869 1  -95.348428 -59.164836  1.67492
10870 1  -97.780033 -62.028767  1.67492
10871 1  -99.016677 -61.330834  1.67492
10872 1  -99.030572 -59.910902  1.67492
10873 1  -97.807822 -59.188903  1.67492
10874 1 -100.239427 -62.052834  1.67492
10875 1 -101.476072 -61.354901  1.67492
10876 1 -101.489967 -59.934969  1.67492
10877 1 -100.267217 -59.212970  1.67492
10878 1 -102.698821 -62.076900  1.67492
10879 1 -103.935466 -61.378968  1.67492
10880 1 -103.949361 -59.959036  1.67492
10881 1 -102.726611 -59.237036  1.67492
10882 1 -105.158216 -62.100967  1.67492
10883 1 -106.394860 -61.403034  1.67492
10884 1 -106.408755 -59.983102  1.67492
10885 1 -105.186006 -59.261103  1.67492
10886 1 -107.617610 -62.125034  1.67492
10887 1 -107.645400 -59.285170  1.67492
10888 1  108.767412 -55.747373  1.67492
10889 1  107.530767 -55.049440  1.67492
10890 1  107.516872 -53.629508  1.67492
10891 1  108.739622 -52.907509  1.67492
10892 1  106.308018 -55.771440  1.67492
10893 1  105.071373 -55.073507  1.67492
10894 1  105.057478 -53.653575  1.67492
10895 1  106.280228 -52.931575  1.67492
10896 1  103.848623 -55.795506  1.67492
10897 1  102.611979 -55.097573  1.67492
10898 1  102.598084 -53.677641  1.67492
10899 1  103.820833 -52.955642  1.67492
10900 1  101.389229 -55.819573  1.67492
10901 1  100.152584 -55.121640  1.67492
10902 1  100.138689 -53.701708  1.67492
10903 1  101.361439 -52.979709  1.67492
10904 1   98.929834 -55.843639  1.67492
10905 1   97.693190 -55.145707  1.67492
10906 1   97.679295 -53.725775  1.67492
10907 1   98.902045 -53.003775  1.67492
10908 1   96.470440 -55.867706  1.67492
10909 1   95.233795 -55.169773  1.67492
10910 1   95.219900 -53.749841  1.67492
10911 1   96.442650 -53.027842  1.67492
10912 1   94.011046 -55.891773  1.67492
10913 1   92.774401 -55.193840  1.67492
10914 1   92.760506 -53.773908  1.67492
10915 1   93.983256 -53.051909  1.67492
10916 1   91.551651 -55.915839  1.67492
10917 1   90.315007 -55.217907  1.67492
10918 1   90.301112 -53.797975  1.67492
10919 1   91.523861 -53.075975  1.67492
10920 1   89.092257 -55.939906  1.67492
10921 1   87.855612 -55.241973  1.67492
10922 1   87.841717 -53.822041  1.67492
10923 1   89.064467 -53.100042  1.67492
10924 1   86.632862 -55.963973  1.67492
10925 1   85.396218 -55.266040  1.67492
10926 1   85.382323 -53.846108  1.67492
10927 1   86.605073 -53.124109  1.67492
10928 1   84.173468 -55.988039  1.67492
10929 1   82.936823 -55.290107  1.67492
10930 1   82.922929 -53.870175  1.67492
10931 1   84.145678 -53.148175  1.67492
10932 1   81.714074 -56.012106  1.67492
10933 1   80.477429 -55.314173  1.67492
10934 1   80.463534 -53.894241  1.67492
10935 1   81.686284 -53.172242  1.67492
10936 1   79.254679 -56.036173  1.67492
10937 1   78.018035 -55.338240  1.67492
10938 1   78.004140 -53.918308  1.67492
10939 1   79.226889 -53.196309  1.67492
10940 1   76.795285 -56.060239  1.67492
10941 1   75.558640 -55.362307  1.67492
10942 1   75.544745 -53.942375  1.67492
10943 1   76.767495 -53.220375  1.67492
10944 1   74.335890 -56.084306  1.67492
10945 1   73.099246 -55.386373  1.67492
10946 1   73.085351 -53.966441  1.67492
10947 1   74.308101 -53.244442  1.67492
10948 1   71.876496 -56.108373  1.67492
10949 1   70.639851 -55.410440  1.67492
10950 1   70.625957 -53.990508  1.67492
10951 1   71.848706 -53.268509  1.67492
10952 1   69.417102 -56.132439  1.67492
10953 1   68.180457 -55.434507  1.67492
10954 1   68.166562 -54.014574  1.67492
10955 1   69.389312 -53.292575  1.67492
10956 1   66.957707 -56.156506  1.67492
10957 1   65.721063 -55.458573  1.67492
10958 1   65.707168 -54.038641  1.67492
10959 1   66.929917 -53.316642  1.67492
10960 1   64.498313 -56.180572  1.67492
10961 1   63.261668 -55.482640  1.67492
10962 1   63.247773 -54.062708  1.67492
10963 1   64.470523 -53.340708  1.67492
10964 1   62.038918 -56.204639  1.67492
10965 1   60.802274 -55.506706  1.67492
10966 1   60.788379 -54.086774  1.67492
10967 1   62.011129 -53.364775  1.67492
10968 1   59.579524 -56.228706  1.67492
10969 1   58.342879 -55.530773  1.67492
10970 1   58.328985 -54.110841  1.67492
10971 1   59.551734 -53.388842  1.67492
10972 1   57.120130 -56.252772  1.67492
10973 1   55.883485 -55.554840  1.67492
10974 1   55.869590 -54.134908  1.67492
10975 1   57.092340 -53.412908  1.67492
10976 1   54.660735 -56.276839  1.67492
10977 1   53.424091 -55.578906  1.67492
10978 1   53.410196 -54.158974  1.67492
10979 1   54.632946 -53.436975  1.67492
10980 1   52.201341 -56.300906  1.67492
10981 1   50.964696 -55.602973  1.67492
10982 1   50.950801 -54.183041  1.67492
10983 1   52.173551 -53.461042  1.67492
10984 1   49.741946 -56.324972  1.67492
10985 1   48.505302 -55.627040  1.67492
10986 1   48.491407 -54.207108  1.67492
10987 1   49.714157 -53.485108  1.67492
10988 1   47.282552 -56.349039  1.67492
10989 1   46.045907 -55.651106  1.67492
10990 1   46.032013 -54.231174  1.67492
10991 1   47.254762 -53.509175  1.67492
10992 1   44.823158 -56.373106  1.67492
10993 1   43.586513 -55.675173  1.67492
10994 1   43.572618 -54.255241  1.67492
10995 1   44.795368 -53.533242  1.67492
10996 1   42.363763 -56.397172  1.67492
10997 1   41.127119 -55.699240  1.67492
10998 1   41.113224 -54.279308  1.67492
10999 1   42.335974 -53.557308  1.67492
11000 1   39.904369 -56.421239  1.67492
11001 1   38.667724 -55.723306  1.67492
11002 1   38.653829 -54.303374  1.67492
11003 1   39.876579 -53.581375  1.67492
11004 1   37.444975 -56.445306  1.67492
11005 1   36.208330 -55.747373  1.67492
11006 1   36.194435 -54.327441  1.67492
11007 1   37.417185 -53.605442  1.67492
11008 1   34.985580 -56.469372  1.67492
11009 1   33.748935 -55.771440  1.67492
11010 1   33.735041 -54.351508  1.67492
11011 1   34.957790 -53.629508  1.67492
11012 1   32.526186 -56.493439  1.67492
11013 1   31.289541 -55.795506  1.67492
11014 1   31.275646 -54.375574  1.67492
11015 1   32.498396 -53.653575  1.67492
11016 1   30.066791 -56.517505  1.67492
11017 1   28.830147 -55.819573  1.67492
11018 1   28.816252 -54.399641  1.67492
11019 1   30.039002 -53.677641  1.67492
11020 1   27.607397 -56.541572  1.67492
11021 1   26.370752 -55.843639  1.67492
11022 1   26.356857 -54.423707  1.67492
11023 1   27.579607 -53.701708  1.67492
11024 1   25.148003 -56.565639  1.67492
11025 1   23.911358 -55.867706  1.67492
11026 1   23.897463 -54.447774  1.67492
11027 1   25.120213 -53.725775  1.67492
11028 1   22.688608 -56.589705  1.67492
11029 1   21.451963 -55.891773  1.67492
11030 1   21.438069 -54.471841  1.67492
11031 1   22.660818 -53.749841  1.67492
11032 1   20.229214 -56.613772  1.67492
11033 1   18.992569 -55.915839  1.67492
11034 1   18.978674 -54.495907  1.67492
11035 1   20.201424 -53.773908  1.67492
11036 1   17.769819 -56.637839  1.67492
11037 1   16.533175 -55.939906  1.67492
11038 1   16.519280 -54.519974  1.67492
11039 1   17.742030 -53.797975  1.67492
11040 1   15.310425 -56.661905  1.67492
11041 1   14.073780 -55.963973  1.67492
11042 1   14.059885 -54.544041  1.67492
11043 1   15.282635 -53.822041  1.67492
11044 1   12.851031 -56.685972  1.67492
11045 1   11.614386 -55.988039  1.67492
11046 1   11.600491 -54.568107  1.67492
11047 1   12.823241 -53.846108  1.67492
11048 1   10.391636 -56.710039  1.67492
11049 1    9.154992 -56.012106  1.67492
11050 1    9.141097 -54.592174  1.67492
11051 1   10.363846 -53.870175  1.67492
11052 1    7.932242 -56.734105  1.67492
11053 1    6.695597 -56.036173  1.67492
11054 1    6.681702 -54.616241  1.67492
11055 1    7.904452 -53.894241  1.67492
11056 1    5.472847 -56.758172  1.67492
11057 1    4.236203 -56.060239  1.67492
11058 1    4.222308 -54.640307  1.67492
11059 1    5.445058 -53.918308  1.67492
11060 1    3.013453 -56.782239  1.67492
11061 1    1.776808 -56.084306  1.67492
11062 1    1.762913 -54.664374  1.67492
11063 1    2.985663 -53.942375  1.67492
11064 1    0.554059 -56.806305  1.67492
11065 1   -0.682586 -56.108373  1.67492
11066 1   -0.696481 -54.688441  1.67492
11067 1    0.526269 -53.966441  1.67492
11068 1   -1.905336 -56.830372  1.67492
11069 1   -3.141980 -56.132439  1.67492
11070 1   -3.155875 -54.712507  1.67492
11071 1   -1.933126 -53.990508  1.67492
11072 1   -4.364730 -56.854439  1.67492
11073 1   -5.601375 -56.156506  1.67492
11074 1   -5.615270 -54.736574  1.67492
11075 1   -4.392520 -54.014574  1.67492
11076 1   -6.824125 -56.878505  1.67492
11077 1   -8.060769 -56.180572  1.67492
11078 1   -8.074664 -54.760640  1.67492
11079 1   -6.851914 -54.038641  1.67492
11080 1   -9.283519 -56.902572  1.67492
11081 1  -10.520164 -56.204639  1.67492
11082 1  -10.534059 -54.784707  1.67492
11083 1   -9.311309 -54.062708  1.67492
11084 1  -11.742913 -56.926638  1.67492
11085 1  -12.979558 -56.228706  1.67492
11086 1  -12.993453 -54.808774  1.67492
11087 1  -11.770703 -54.086774  1.67492
11088 1  -14.202308 -56.950705  1.67492
11089 1  -15.438952 -56.252772  1.67492
11090 1  -15.452847 -54.832840  1.67492
11091 1  -14.230098 -54.110841  1.67492
11092 1  -16.661702 -56.974772  1.67492
11093 1  -17.898347 -56.276839  1.67492
11094 1  -17.912242 -54.856907  1.67492
11095 1  -16.689492 -54.134908  1.67492
11096 1  -19.121097 -56.998838  1.67492
11097 1  -20.357741 -56.300906  1.67492
11098 1  -20.371636 -54.880974  1.67492
11099 1  -19.148886 -54.158974  1.67492
11100 1  -21.580491 -57.022905  1.67492
11101 1  -22.817136 -56.324972  1.67492
11102 1  -22.831031 -54.905040  1.67492
11103 1  -21.608281 -54.183041  1.67492
11104 1  -24.039885 -57.046972  1.67492
11105 1  -25.276530 -56.349039  1.67492
11106 1  -25.290425 -54.929107  1.67492
11107 1  -24.067675 -54.207108  1.67492
11108 1  -26.499280 -57.071038  1.67492
11109 1  -27.735924 -56.373106  1.67492
11110 1  -27.749819 -54.953174  1.67492
11111 1  -26.527070 -54.231174  1.67492
11112 1  -28.958674 -57.095105  1.67492
11113 1  -30.195319 -56.397172  1.67492
11114 1  -30.209214 -54.977240  1.67492
11115 1  -28.986464 -54.255241  1.67492
11116 1  -31.418069 -57.119172  1.67492
11117 1  -32.654713 -56.421239  1.67492
11118 1  -32.668608 -55.001307  1.67492
11119 1  -31.445858 -54.279308  1.67492
11120 1  -33.877463 -57.143238  1.67492
11121 1  -35.114108 -56.445306  1.67492
11122 1  -35.128003 -55.025374  1.67492
11123 1  -33.905253 -54.303374  1.67492
11124 1  -36.336857 -57.167305  1.67492
11125 1  -37.573502 -56.469372  1.67492
11126 1  -37.587397 -55.049440  1.67492
11127 1  -36.364647 -54.327441  1.67492
11128 1  -38.796252 -57.191372  1.67492
11129 1  -40.032896 -56.493439  1.67492
11130 1  -40.046791 -55.073507  1.67492
11131 1  -38.824042 -54.351508  1.67492
11132 1  -41.255646 -57.215438  1.67492
11133 1  -42.492291 -56.517505  1.67492
11134 1  -42.506186 -55.097573  1.67492
11135 1  -41.283436 -54.375574  1.67492
11136 1  -43.715041 -57.239505  1.67492
11137 1  -44.951685 -56.541572  1.67492
11138 1  -44.965580 -55.121640  1.67492
11139 1  -43.742830 -54.399641  1.67492
11140 1  -46.174435 -57.263571  1.67492
11141 1  -47.411080 -56.565639  1.67492
11142 1  -47.424974 -55.145707  1.67492
11143 1  -46.202225 -54.423707  1.67492
11144 1  -48.633829 -57.287638  1.67492
11145 1  -49.870474 -56.589705  1.67492
11146 1  -49.884369 -55.169773  1.67492
11147 1  -48.661619 -54.447774  1.67492
11148 1  -51.093224 -57.311705  1.67492
11149 1  -52.329868 -56.613772  1.67492
11150 1  -52.343763 -55.193840  1.67492
11151 1  -51.121014 -54.471841  1.67492
11152 1  -53.552618 -57.335771  1.67492
11153 1  -54.789263 -56.637839  1.67492
11154 1  -54.803158 -55.217907  1.67492
11155 1  -53.580408 -54.495907  1.67492
11156 1  -56.012013 -57.359838  1.67492
11157 1  -57.248657 -56.661905  1.67492
11158 1  -57.262552 -55.241973  1.67492
11159 1  -56.039802 -54.519974  1.67492
11160 1  -58.471407 -57.383905  1.67492
11161 1  -59.708052 -56.685972  1.67492
11162 1  -59.721946 -55.266040  1.67492
11163 1  -58.499197 -54.544041  1.67492
11164 1  -60.930801 -57.407971  1.67492
11165 1  -62.167446 -56.710039  1.67492
11166 1  -62.181341 -55.290107  1.67492
11167 1  -60.958591 -54.568107  1.67492
11168 1  -63.390196 -57.432038  1.67492
11169 1  -64.626840 -56.734105  1.67492
11170 1  -64.640735 -55.314173  1.67492
11171 1  -63.417986 -54.592174  1.67492
11172 1  -65.849590 -57.456105  1.67492
11173 1  -67.086235 -56.758172  1.67492
11174 1  -67.100130 -55.338240  1.67492
11175 1  -65.877380 -54.616241  1.67492
11176 1  -68.308985 -57.480171  1.67492
11177 1  -69.545629 -56.782239  1.67492
11178 1  -69.559524 -55.362307  1.67492
11179 1  -68.336774 -54.640307  1.67492
11180 1  -70.768379 -57.504238  1.67492
11181 1  -72.005024 -56.806305  1.67492
11182 1  -72.018918 -55.386373  1.67492
11183 1  -70.796169 -54.664374  1.67492
11184 1  -73.227773 -57.528305  1.67492
11185 1  -74.464418 -56.830372  1.67492
11186 1  -74.478313 -55.410440  1.67492
11187 1  -73.255563 -54.688441  1.67492
11188 1  -75.687168 -57.552371  1.67492
11189 1  -76.923812 -56.854439  1.67492
11190 1  -76.937707 -55.434507  1.67492
11191 1  -75.714957 -54.712507  1.67492
11192 1  -78.146562 -57.576438  1.67492
11193 1  -79.383207 -56.878505  1.67492
11194 1  -79.397102 -55.458573  1.67492
11195 1  -78.174352 -54.736574  1.67492
11196 1  -80.605957 -57.600504  1.67492
11197 1  -81.842601 -56.902572  1.67492
11198 1  -81.856496 -55.482640  1.67492
11199 1  -80.633746 -54.760640  1.67492
11200 1  -83.065351 -57.624571  1.67492
11201 1  -84.301996 -56.926638  1.67492
11202 1  -84.315890 -55.506706  1.67492
11203 1  -83.093141 -54.784707  1.67492
11204 1  -85.524745 -57.648638  1.67492
11205 1  -86.761390 -56.950705  1.67492
11206 1  -86.775285 -55.530773  1.67492
11207 1  -85.552535 -54.808774  1.67492
11208 1  -87.984140 -57.672704  1.67492
11209 1  -89.220784 -56.974772  1.67492
11210 1  -89.234679 -55.554840  1.67492
11211 1  -88.011929 -54.832840  1.67492
11212 1  -90.443534 -57.696771  1.67492
11213 1  -91.680179 -56.998838  1.67492
11214 1  -91.694074 -55.578906  1.67492
11215 1  -90.471324 -54.856907  1.67492
11216 1  -92.902928 -57.720838  1.67492
11217 1  -94.139573 -57.022905  1.67492
11218 1  -94.153468 -55.602973  1.67492
11219 1  -92.930718 -54.880974  1.67492
11220 1  -95.362323 -57.744904  1.67492
11221 1  -96.598968 -57.046972  1.67492
11222 1  -96.612862 -55.627040  1.67492
11223 1  -95.390113 -54.905040  1.67492
11224 1  -97.821717 -57.768971  1.67492
11225 1  -99.058362 -57.071038  1.67492
11226 1  -99.072257 -55.651106  1.67492
11227 1  -97.849507 -54.929107  1.67492
11228 1 -100.281112 -57.793038  1.67492
11229 1 -101.517756 -57.095105  1.67492
11230 1 -101.531651 -55.675173  1.67492
11231 1 -100.308901 -54.953174  1.67492
11232 1 -102.740506 -57.817104  1.67492
11233 1 -103.977151 -57.119172  1.67492
11234 1 -103.991046 -55.699240  1.67492
11235 1 -102.768296 -54.977240  1.67492
11236 1 -105.199900 -57.841171  1.67492
11237 1 -106.436545 -57.143238  1.67492
11238 1 -106.450440 -55.723306  1.67492
11239 1 -105.227690 -55.001307  1.67492
11240 1 -107.659295 -57.865238  1.67492
11241 1 -107.687085 -55.025374  1.67492
11242 1  108.725727 -51.487577  1.67492
11243 1  107.489083 -50.789644  1.67492
11244 1  107.475188 -49.369712  1.67492
11245 1  108.697938 -48.647713  1.67492
11246 1  106.266333 -51.511643  1.67492
11247 1  105.029688 -50.813711  1.67492
11248 1  105.015793 -49.393779  1.67492
11249 1  106.238543 -48.671779  1.67492
11250 1  103.806939 -51.535710  1.67492
11251 1  102.570294 -50.837777  1.67492
11252 1  102.556399 -49.417845  1.67492
11253 1  103.779149 -48.695846  1.67492
11254 1  101.347544 -51.559777  1.67492
11255 1  100.110900 -50.861844  1.67492
11256 1  100.097005 -49.441912  1.67492
11257 1  101.319754 -48.719913  1.67492
11258 1   98.888150 -51.583843  1.67492
11259 1   97.651505 -50.885911  1.67492
11260 1   97.637610 -49.465979  1.67492
11261 1   98.860360 -48.743979  1.67492
11262 1   96.428755 -51.607910  1.67492
11263 1   95.192111 -50.909977  1.67492
11264 1   95.178216 -49.490045  1.67492
11265 1   96.400966 -48.768046  1.67492
11266 1   93.969361 -51.631977  1.67492
11267 1   92.732716 -50.934044  1.67492
11268 1   92.718821 -49.514112  1.67492
11269 1   93.941571 -48.792113  1.67492
11270 1   91.509967 -51.656043  1.67492
11271 1   90.273322 -50.958111  1.67492
11272 1   90.259427 -49.538179  1.67492
11273 1   91.482177 -48.816179  1.67492
11274 1   89.050572 -51.680110  1.67492
11275 1   87.813928 -50.982177  1.67492
11276 1   87.800033 -49.562245  1.67492
11277 1   89.022782 -48.840246  1.67492
11278 1   86.591178 -51.704177  1.67492
11279 1   85.354533 -51.006244  1.67492
11280 1   85.340638 -49.586312  1.67492
11281 1   86.563388 -48.864313  1.67492
11282 1   84.131783 -51.728243  1.67492
11283 1   82.895139 -51.030311  1.67492
11284 1   82.881244 -49.610379  1.67492
11285 1   84.103994 -48.888379  1.67492
11286 1   81.672389 -51.752310  1.67492
11287 1   80.435744 -51.054377  1.67492
11288 1   80.421849 -49.634445  1.67492
11289 1   81.644599 -48.912446  1.67492
11290 1   79.212995 -51.776377  1.67492
11291 1   77.976350 -51.078444  1.67492
11292 1   77.962455 -49.658512  1.67492
11293 1   79.185205 -48.936513  1.67492
11294 1   76.753600 -51.800443  1.67492
11295 1   75.516956 -51.102511  1.67492
11296 1   75.503061 -49.682579  1.67492
11297 1   76.725810 -48.960579  1.67492
11298 1   74.294206 -51.824510  1.67492
11299 1   73.057561 -51.126577  1.67492
11300 1   73.043666 -49.706645  1.67492
11301 1   74.266416 -48.984646  1.67492
11302 1   71.834811 -51.848576  1.67492
11303 1   70.598167 -51.150644  1.67492
11304 1   70.584272 -49.730712  1.67492
11305 1   71.807022 -49.008712  1.67492
11306 1   69.375417 -51.872643  1.67492
11307 1   68.138772 -51.174710  1.67492
11308 1   68.124877 -49.754778  1.67492
11309 1   69.347627 -49.032779  1.67492
11310 1   66.916023 -51.896710  1.67492
11311 1   65.679378 -51.198777  1.67492
11312 1   65.665483 -49.778845  1.67492
11313 1   66.888233 -49.056846  1.67492
11314 1   64.456628 -51.920776  1.67492
11315 1   63.219984 -51.222844  1.67492
11316 1   63.206089 -49.802912  1.67492
11317 1   64.428838 -49.080912  1.67492
11318 1   61.997234 -51.944843  1.67492
11319 1   60.760589 -51.246910  1.67492
11320 1   60.746694 -49.826978  1.67492
11321 1   61.969444 -49.104979  1.67492
11322 1   59.537839 -51.968910  1.67492
11323 1   58.301195 -51.270977  1.67492
11324 1   58.287300 -49.851045  1.67492
11325 1   59.510050 -49.129046  1.67492
11326 1   57.078445 -51.992976  1.67492
11327 1   55.841800 -51.295044  1.67492
11328 1   55.827906 -49.875112  1.67492
11329 1   57.050655 -49.153112  1.67492
11330 1   54.619051 -52.017043  1.67492
11331 1   53.382406 -51.319110  1.67492
11332 1   53.368511 -49.899178  1.67492
11333 1   54.591261 -49.177179  1.67492
11334 1   52.159656 -52.041110  1.67492
11335 1   50.923012 -51.343177  1.67492
11336 1   50.909117 -49.923245  1.67492
11337 1   52.131866 -49.201246  1.67492
11338 1   49.700262 -52.065176  1.67492
11339 1   48.463617 -51.367244  1.67492
11340 1   48.449722 -49.947312  1.67492
11341 1   49.672472 -49.225312  1.67492
11342 1   47.240867 -52.089243  1.67492
11343 1   46.004223 -51.391310  1.67492
11344 1   45.990328 -49.971378  1.67492
11345 1   47.213078 -49.249379  1.67492
11346 1   44.781473 -52.113310  1.67492
11347 1   43.544828 -51.415377  1.67492
11348 1   43.530934 -49.995445  1.67492
11349 1   44.753683 -49.273446  1.67492
11350 1   42.322079 -52.137376  1.67492
11351 1   41.085434 -51.439444  1.67492
11352 1   41.071539 -50.019512  1.67492
11353 1   42.294289 -49.297512  1.67492
11354 1   39.862684 -52.161443  1.67492
11355 1   38.626040 -51.463510  1.67492
11356 1   38.612145 -50.043578  1.67492
11357 1   39.834894 -49.321579  1.67492
11358 1   37.403290 -52.185510  1.67492
11359 1   36.166645 -51.487577  1.67492
11360 1   36.152750 -50.067645  1.67492
11361 1   37.375500 -49.345645  1.67492
11362 1   34.943895 -52.209576  1.67492
11363 1   33.707251 -51.511643  1.67492
11364 1   33.693356 -50.091711  1.67492
11365 1   34.916106 -49.369712  1.67492
11366 1   32.484501 -52.233643  1.67492
11367 1   31.247856 -51.535710  1.67492
11368 1   31.233962 -50.115778  1.67492
11369 1   32.456711 -49.393779  1.67492
11370 1   30.025107 -52.257709  1.67492
11371 1   28.788462 -51.559777  1.67492
11372 1   28.774567 -50.139845  1.67492
11373 1   29.997317 -49.417845  1.67492
11374 1   27.565712 -52.281776  1.67492
11375 1   26.329068 -51.583843  1.67492
11376 1   26.315173 -50.163911  1.67492
11377 1   27.537923 -49.441912  1.67492
11378 1   25.106318 -52.305843  1.67492
11379 1   23.869673 -51.607910  1.67492
11380 1   23.855778 -50.187978  1.67492
11381 1   25.078528 -49.465979  1.67492
11382 1   22.646923 -52.329909  1.67492
11383 1   21.410279 -51.631977  1.67492
11384 1   21.396384 -50.212045  1.67492
11385 1   22.619134 -49.490045  1.67492
11386 1   20.187529 -52.353976  1.67492
11387 1   18.950884 -51.656043  1.67492
11388 1   18.936990 -50.236111  1.67492
11389 1   20.159739 -49.514112  1.67492
11390 1   17.728135 -52.378043  1.67492
11391 1   16.491490 -51.680110  1.67492
11392 1   16.477595 -50.260178  1.67492
11393 1   17.700345 -49.538179  1.67492
11394 1   15.268740 -52.402109  1.67492
11395 1   14.032096 -51.704177  1.67492
11396 1   14.018201 -50.284245  1.67492
11397 1   15.240951 -49.562245  1.67492
11398 1   12.809346 -52.426176  1.67492
11399 1   11.572701 -51.728243  1.67492
11400 1   11.558806 -50.308311  1.67492
11401 1   12.781556 -49.586312  1.67492
11402 1   10.349952 -52.450243  1.67492
11403 1    9.113307 -51.752310  1.67492
11404 1    9.099412 -50.332378  1.67492
11405 1   10.322162 -49.610379  1.67492
11406 1    7.890557 -52.474309  1.67492
11407 1    6.653912 -51.776377  1.67492
11408 1    6.640018 -50.356445  1.67492
11409 1    7.862767 -49.634445  1.67492
11410 1    5.431163 -52.498376  1.67492
11411 1    4.194518 -51.800443  1.67492
11412 1    4.180623 -50.380511  1.67492
11413 1    5.403373 -49.658512  1.67492
11414 1    2.971768 -52.522443  1.67492
11415 1    1.735124 -51.824510  1.67492
11416 1    1.721229 -50.404578  1.67492
11417 1    2.943979 -49.682579  1.67492
11418 1    0.512374 -52.546509  1.67492
11419 1   -0.724271 -51.848576  1.67492
11420 1   -0.738166 -50.428644  1.67492
11421 1    0.484584 -49.706645  1.67492
11422 1   -1.947020 -52.570576  1.67492
11423 1   -3.183665 -51.872643  1.67492
11424 1   -3.197560 -50.452711  1.67492
11425 1   -1.974810 -49.730712  1.67492
11426 1   -4.406415 -52.594642  1.67492
11427 1   -5.643060 -51.896710  1.67492
11428 1   -5.656954 -50.476778  1.67492
11429 1   -4.434205 -49.754778  1.67492
11430 1   -6.865809 -52.618709  1.67492
11431 1   -8.102454 -51.920776  1.67492
11432 1   -8.116349 -50.500844  1.67492
11433 1   -6.893599 -49.778845  1.67492
11434 1   -9.325204 -52.642776  1.67492
11435 1  -10.561848 -51.944843  1.67492
11436 1  -10.575743 -50.524911  1.67492
11437 1   -9.352993 -49.802912  1.67492
11438 1  -11.784598 -52.666842  1.67492
11439 1  -13.021243 -51.968910  1.67492
11440 1  -13.035138 -50.548978  1.67492
11441 1  -11.812388 -49.826978  1.67492
11442 1  -14.243992 -52.690909  1.67492
11443 1  -15.480637 -51.992976  1.67492
11444 1  -15.494532 -50.573044  1.67492
11445 1  -14.271782 -49.851045  1.67492
11446 1  -16.703387 -52.714976  1.67492
11447 1  -17.940031 -52.017043  1.67492
11448 1  -17.953926 -50.597111  1.67492
11449 1  -16.731177 -49.875112  1.67492
11450 1  -19.162781 -52.739042  1.67492
11451 1  -20.399426 -52.041110  1.67492
11452 1  -20.413321 -50.621178  1.67492
11453 1  -19.190571 -49.899178  1.67492
11454 1  -21.622176 -52.763109  1.67492
11455 1  -22.858820 -52.065176  1.67492
11456 1  -22.872715 -50.645244  1.67492
11457 1  -21.649965 -49.923245  1.67492
11458 1  -24.081570 -52.787176  1.67492
11459 1  -25.318215 -52.089243  1.67492
11460 1  -25.332110 -50.669311  1.67492
11461 1  -24.109360 -49.947312  1.67492
11462 1  -26.540964 -52.811242  1.67492
11463 1  -27.777609 -52.113310  1.67492
11464 1  -27.791504 -50.693378  1.67492
11465 1  -26.568754 -49.971378  1.67492
11466 1  -29.000359 -52.835309  1.67492
11467 1  -30.237003 -52.137376  1.67492
11468 1  -30.250898 -50.717444  1.67492
11469 1  -29.028149 -49.995445  1.67492
11470 1  -31.459753 -52.859376  1.67492
11471 1  -32.696398 -52.161443  1.67492
11472 1  -32.710293 -50.741511  1.67492
11473 1  -31.487543 -50.019512  1.67492
11474 1  -33.919148 -52.883442  1.67492
11475 1  -35.155792 -52.185510  1.67492
11476 1  -35.169687 -50.765577  1.67492
11477 1  -33.946937 -50.043578  1.67492
11478 1  -36.378542 -52.907509  1.67492
11479 1  -37.615187 -52.209576  1.67492
11480 1  -37.629082 -50.789644  1.67492
11481 1  -36.406332 -50.067645  1.67492
11482 1  -38.837936 -52.931575  1.67492
11483 1  -40.074581 -52.233643  1.67492
11484 1  -40.088476 -50.813711  1.67492
11485 1  -38.865726 -50.091711  1.67492
11486 1  -41.297331 -52.955642  1.67492
11487 1  -42.533975 -52.257709  1.67492
11488 1  -42.547870 -50.837777  1.67492
11489 1  -41.325121 -50.115778  1.67492
11490 1  -43.756725 -52.979709  1.67492
11491 1  -44.993370 -52.281776  1.67492
11492 1  -45.007265 -50.861844  1.67492
11493 1  -43.784515 -50.139845  1.67492
11494 1  -46.216120 -53.003775  1.67492
11495 1  -47.452764 -52.305843  1.67492
11496 1  -47.466659 -50.885911  1.67492
11497 1  -46.243909 -50.163911  1.67492
11498 1  -48.675514 -53.027842  1.67492
11499 1  -49.912159 -52.329909  1.67492
11500 1  -49.926054 -50.909977  1.67492
11501 1  -48.703304 -50.187978  1.67492
11502 1  -51.134908 -53.051909  1.67492
11503 1  -52.371553 -52.353976  1.67492
11504 1  -52.385448 -50.934044  1.67492
11505 1  -51.162698 -50.212045  1.67492
11506 1  -53.594303 -53.075975  1.67492
11507 1  -54.830947 -52.378043  1.67492
11508 1  -54.844842 -50.958111  1.67492
11509 1  -53.622093 -50.236111  1.67492
11510 1  -56.053697 -53.100042  1.67492
11511 1  -57.290342 -52.402109  1.67492
11512 1  -57.304237 -50.982177  1.67492
11513 1  -56.081487 -50.260178  1.67492
11514 1  -58.513092 -53.124109  1.67492
11515 1  -59.749736 -52.426176  1.67492
11516 1  -59.763631 -51.006244  1.67492
11517 1  -58.540881 -50.284245  1.67492
11518 1  -60.972486 -53.148175  1.67492
11519 1  -62.209131 -52.450243  1.67492
11520 1  -62.223026 -51.030311  1.67492
11521 1  -61.000276 -50.308311  1.67492
11522 1  -63.431880 -53.172242  1.67492
11523 1  -64.668525 -52.474309  1.67492
11524 1  -64.682420 -51.054377  1.67492
11525 1  -63.459670 -50.332378  1.67492
11526 1  -65.891275 -53.196309  1.67492
11527 1  -67.127919 -52.498376  1.67492
11528 1  -67.141814 -51.078444  1.67492
11529 1  -65.919065 -50.356445  1.67492
11530 1  -68.350669 -53.220375  1.67492
11531 1  -69.587314 -52.522443  1.67492
11532 1  -69.601209 -51.102511  1.67492
11533 1  -68.378459 -50.380511  1.67492
11534 1  -70.810064 -53.244442  1.67492
11535 1  -72.046708 -52.546509  1.67492
11536 1  -72.060603 -51.126577  1.67492
11537 1  -70.837853 -50.404578  1.67492
11538 1  -73.269458 -53.268509  1.67492
11539 1  -74.506103 -52.570576  1.67492
11540 1  -74.519997 -51.150644  1.67492
11541 1  -73.297248 -50.428644  1.67492
11542 1  -75.728852 -53.292575  1.67492
11543 1  -76.965497 -52.594642  1.67492
11544 1  -76.979392 -51.174710  1.67492
11545 1  -75.756642 -50.452711  1.67492
11546 1  -78.188247 -53.316642  1.67492
11547 1  -79.424891 -52.618709  1.67492
11548 1  -79.438786 -51.198777  1.67492
11549 1  -78.216037 -50.476778  1.67492
11550 1  -80.647641 -53.340708  1.67492
11551 1  -81.884286 -52.642776  1.67492
11552 1  -81.898181 -51.222844  1.67492
11553 1  -80.675431 -50.500844  1.67492
11554 1  -83.107036 -53.364775  1.67492
11555 1  -84.343680 -52.666842  1.67492
11556 1  -84.357575 -51.246910  1.67492
11557 1  -83.134825 -50.524911  1.67492
11558 1  -85.566430 -53.388842  1.67492
11559 1  -86.803075 -52.690909  1.67492
11560 1  -86.816969 -51.270977  1.67492
11561 1  -85.594220 -50.548978  1.67492
11562 1  -88.025824 -53.412908  1.67492
11563 1  -89.262469 -52.714976  1.67492
11564 1  -89.276364 -51.295044  1.67492
11565 1  -88.053614 -50.573044  1.67492
11566 1  -90.485219 -53.436975  1.67492
11567 1  -91.721863 -52.739042  1.67492
11568 1  -91.735758 -51.319110  1.67492
11569 1  -90.513009 -50.597111  1.67492
11570 1  -92.944613 -53.461042  1.67492
11571 1  -94.181258 -52.763109  1.67492
11572 1  -94.195153 -51.343177  1.67492
11573 1  -92.972403 -50.621178  1.67492
11574 1  -95.404008 -53.485108  1.67492
11575 1  -96.640652 -52.787176  1.67492
11576 1  -96.654547 -51.367244  1.67492
11577 1  -95.431797 -50.645244  1.67492
11578 1  -97.863402 -53.509175  1.67492
11579 1  -99.100047 -52.811242  1.67492
11580 1  -99.113941 -51.391310  1.67492
11581 1  -97.891192 -50.669311  1.67492
11582 1 -100.322796 -53.533242  1.67492
11583 1 -101.559441 -52.835309  1.67492
11584 1 -101.573336 -51.415377  1.67492
11585 1 -100.350586 -50.693378  1.67492
11586 1 -102.782191 -53.557308  1.67492
11587 1 -104.018835 -52.859376  1.67492
11588 1 -104.032730 -51.439444  1.67492
11589 1 -102.809980 -50.717444  1.67492
11590 1 -105.241585 -53.581375  1.67492
11591 1 -106.478230 -52.883442  1.67492
11592 1 -106.492125 -51.463510  1.67492
11593 1 -105.269375 -50.741511  1.67492
11594 1 -107.700980 -53.605442  1.67492
11595 1 -107.728769 -50.765577  1.67492
11596 1  108.684043 -47.227781  1.67492
11597 1  107.447398 -46.529848  1.67492
11598 1  107.433503 -45.109916  1.67492
11599 1  108.656253 -44.387917  1.67492
11600 1  106.224648 -47.251847  1.67492
11601 1  104.988004 -46.553915  1.67492
11602 1  104.974109 -45.133983  1.67492
11603 1  106.196859 -44.411983  1.67492
11604 1  103.765254 -47.275914  1.67492
11605 1  102.528609 -46.577981  1.67492
11606 1  102.514714 -45.158049  1.67492
11607 1  103.737464 -44.436050  1.67492
11608 1  101.305860 -47.299981  1.67492
11609 1  100.069215 -46.602048  1.67492
11610 1  100.055320 -45.182116  1.67492
11611 1  101.278070 -44.460117  1.67492
11612 1   98.846465 -47.324047  1.67492
11613 1   97.609820 -46.626115  1.67492
11614 1   97.595926 -45.206183  1.67492
11615 1   98.818675 -44.484183  1.67492
11616 1   96.387071 -47.348114  1.67492
11617 1   95.150426 -46.650181  1.67492
11618 1   95.136531 -45.230249  1.67492
11619 1   96.359281 -44.508250  1.67492
11620 1   93.927676 -47.372181  1.67492
11621 1   92.691032 -46.674248  1.67492
11622 1   92.677137 -45.254316  1.67492
11623 1   93.899887 -44.532317  1.67492
11624 1   91.468282 -47.396247  1.67492
11625 1   90.231637 -46.698315  1.67492
11626 1   90.217742 -45.278383  1.67492
11627 1   91.440492 -44.556383  1.67492
11628 1   89.008888 -47.420314  1.67492
11629 1   87.772243 -46.722381  1.67492
11630 1   87.758348 -45.302449  1.67492
11631 1   88.981098 -44.580450  1.67492
11632 1   86.549493 -47.444381  1.67492
11633 1   85.312848 -46.746448  1.67492
11634 1   85.298954 -45.326516  1.67492
11635 1   86.521703 -44.604517  1.67492
11636 1   84.090099 -47.468447  1.67492
11637 1   82.853454 -46.770515  1.67492
11638 1   82.839559 -45.350583  1.67492
11639 1   84.062309 -44.628583  1.67492
11640 1   81.630704 -47.492514  1.67492
11641 1   80.394060 -46.794581  1.67492
11642 1   80.380165 -45.374649  1.67492
11643 1   81.602915 -44.652650  1.67492
11644 1   79.171310 -47.516581  1.67492
11645 1   77.934665 -46.818648  1.67492
11646 1   77.920770 -45.398716  1.67492
11647 1   79.143520 -44.676716  1.67492
11648 1   76.711916 -47.540647  1.67492
11649 1   75.475271 -46.842714  1.67492
11650 1   75.461376 -45.422782  1.67492
11651 1   76.684126 -44.700783  1.67492
11652 1   74.252521 -47.564714  1.67492
11653 1   73.015877 -46.866781  1.67492
11654 1   73.001982 -45.446849  1.67492
11655 1   74.224731 -44.724850  1.67492
11656 1   71.793127 -47.588780  1.67492
11657 1   70.556482 -46.890848  1.67492
11658 1   70.542587 -45.470916  1.67492
11659 1   71.765337 -44.748916  1.67492
11660 1   69.333732 -47.612847  1.67492
11661 1   68.097088 -46.914914  1.67492
11662 1   68.083193 -45.494982  1.67492
11663 1   69.305943 -44.772983  1.67492
11664 1   66.874338 -47.636914  1.67492
11665 1   65.637693 -46.938981  1.67492
11666 1   65.623798 -45.519049  1.67492
11667 1   66.846548 -44.797050  1.67492
11668 1   64.414944 -47.660980  1.67492
11669 1   63.178299 -46.963048  1.67492
11670 1   63.164404 -45.543116  1.67492
11671 1   64.387154 -44.821116  1.67492
11672 1   61.955549 -47.685047  1.67492
11673 1   60.718905 -46.987114  1.67492
11674 1   60.705010 -45.567182  1.67492
11675 1   61.927759 -44.845183  1.67492
11676 1   59.496155 -47.709114  1.67492
11677 1   58.259510 -47.011181  1.67492
11678 1   58.245615 -45.591249  1.67492
11679 1   59.468365 -44.869250  1.67492
11680 1   57.036760 -47.733180  1.67492
11681 1   55.800116 -47.035248  1.67492
11682 1   55.786221 -45.615316  1.67492
11683 1   57.008971 -44.893316  1.67492
11684 1   54.577366 -47.757247  1.67492
11685 1   53.340721 -47.059314  1.67492
11686 1   53.326826 -45.639382  1.67492
11687 1   54.549576 -44.917383  1.67492
11688 1   52.117972 -47.781314  1.67492
11689 1   50.881327 -47.083381  1.67492
11690 1   50.867432 -45.663449  1.67492
11691 1   52.090182 -44.941450  1.67492
11692 1   49.658577 -47.805380  1.67492
11693 1   48.421933 -47.107448  1.67492
11694 1   48.408038 -45.687516  1.67492
11695 1   49.630787 -44.965516  1.67492
11696 1   47.199183 -47.829447  1.67492
11697 1   45.962538 -47.131514  1.67492
11698 1   45.948643 -45.711582  1.67492
11699 1   47.171393 -44.989583  1.67492
11700 1   44.739788 -47.853514  1.67492
11701 1   43.503144 -47.155581  1.67492
11702 1   43.489249 -45.735649  1.67492
11703 1   44.711999 -45.013649  1.67492
11704 1   42.280394 -47.877580  1.67492
11705 1   41.043749 -47.179647  1.67492
11706 1   41.029854 -45.759715  1.67492
11707 1   42.252604 -45.037716  1.67492
11708 1   39.821000 -47.901647  1.67492
11709 1   38.584355 -47.203714  1.67492
11710 1   38.570460 -45.783782  1.67492
11711 1   39.793210 -45.061783  1.67492
11712 1   37.361605 -47.925713  1.67492
11713 1   36.124961 -47.227781  1.67492
11714 1   36.111066 -45.807849  1.67492
11715 1   37.333815 -45.085849  1.67492
11716 1   34.902211 -47.949780  1.67492
11717 1   33.665566 -47.251847  1.67492
11718 1   33.651671 -45.831915  1.67492
11719 1   34.874421 -45.109916  1.67492
11720 1   32.442816 -47.973847  1.67492
11721 1   31.206172 -47.275914  1.67492
11722 1   31.192277 -45.855982  1.67492
11723 1   32.415027 -45.133983  1.67492
11724 1   29.983422 -47.997913  1.67492
11725 1   28.746777 -47.299981  1.67492
11726 1   28.732882 -45.880049  1.67492
11727 1   29.955632 -45.158049  1.67492
11728 1   27.524028 -48.021980  1.67492
11729 1   26.287383 -47.324047  1.67492
11730 1   26.273488 -45.904115  1.67492
11731 1   27.496238 -45.182116  1.67492
11732 1   25.064633 -48.046047  1.67492
11733 1   23.827989 -47.348114  1.67492
11734 1   23.814094 -45.928182  1.67492
11735 1   25.036843 -45.206183  1.67492
11736 1   22.605239 -48.070113  1.67492
11737 1   21.368594 -47.372181  1.67492
11738 1   21.354699 -45.952249  1.67492
11739 1   22.577449 -45.230249  1.67492
11740 1   20.145844 -48.094180  1.67492
11741 1   18.909200 -47.396247  1.67492
11742 1   18.895305 -45.976315  1.67492
11743 1   20.118055 -45.254316  1.67492
11744 1   17.686450 -48.118247  1.67492
11745 1   16.449805 -47.420314  1.67492
11746 1   16.435911 -46.000382  1.67492
11747 1   17.658660 -45.278383  1.67492
11748 1   15.227056 -48.142313  1.67492
11749 1   13.990411 -47.444381  1.67492
11750 1   13.976516 -46.024449  1.67492
11751 1   15.199266 -45.302449  1.67492
11752 1   12.767661 -48.166380  1.67492
11753 1   11.531017 -47.468447  1.67492
11754 1   11.517122 -46.048515  1.67492
11755 1   12.739871 -45.326516  1.67492
11756 1   10.308267 -48.190447  1.67492
11757 1    9.071622 -47.492514  1.67492
11758 1    9.057727 -46.072582  1.67492
11759 1   10.280477 -45.350583  1.67492
11760 1    7.848872 -48.214513  1.67492
11761 1    6.612228 -47.516581  1.67492
11762 1    6.598333 -46.096648  1.67492
11763 1    7.821083 -45.374649  1.67492
11764 1    5.389478 -48.238580  1.67492
11765 1    4.152833 -47.540647  1.67492
11766 1    4.138939 -46.120715  1.67492
11767 1    5.361688 -45.398716  1.67492
11768 1    2.930084 -48.262646  1.67492
11769 1    1.693439 -47.564714  1.67492
11770 1    1.679544 -46.144782  1.67492
11771 1    2.902294 -45.422782  1.67492
11772 1    0.470689 -48.286713  1.67492
11773 1   -0.765955 -47.588780  1.67492
11774 1   -0.779850 -46.168848  1.67492
11775 1    0.442899 -45.446849  1.67492
11776 1   -1.988705 -48.310780  1.67492
11777 1   -3.225350 -47.612847  1.67492
11778 1   -3.239245 -46.192915  1.67492
11779 1   -2.016495 -45.470916  1.67492
11780 1   -4.448100 -48.334846  1.67492
11781 1   -5.684744 -47.636914  1.67492
11782 1   -5.698639 -46.216982  1.67492
11783 1   -4.475889 -45.494982  1.67492
11784 1   -6.907494 -48.358913  1.67492
11785 1   -8.144139 -47.660980  1.67492
11786 1   -8.158033 -46.241048  1.67492
11787 1   -6.935284 -45.519049  1.67492
11788 1   -9.366888 -48.382980  1.67492
11789 1  -10.603533 -47.685047  1.67492
11790 1  -10.617428 -46.265115  1.67492
11791 1   -9.394678 -45.543116  1.67492
11792 1  -11.826283 -48.407046  1.67492
11793 1  -13.062927 -47.709114  1.67492
11794 1  -13.076822 -46.289182  1.67492
11795 1  -11.854072 -45.567182  1.67492
11796 1  -14.285677 -48.431113  1.67492
11797 1  -15.522322 -47.733180  1.67492
11798 1  -15.536217 -46.313248  1.67492
11799 1  -14.313467 -45.591249  1.67492
11800 1  -16.745072 -48.455180  1.67492
11801 1  -17.981716 -47.757247  1.67492
11802 1  -17.995611 -46.337315  1.67492
11803 1  -16.772861 -45.615316  1.67492
11804 1  -19.204466 -48.479246  1.67492
11805 1  -20.441111 -47.781314  1.67492
11806 1  -20.455005 -46.361382  1.67492
11807 1  -19.232256 -45.639382  1.67492
11808 1  -21.663860 -48.503313  1.67492
11809 1  -22.900505 -47.805380  1.67492
11810 1  -22.914400 -46.385448  1.67492
11811 1  -21.691650 -45.663449  1.67492
11812 1  -24.123255 -48.527380  1.67492
11813 1  -25.359899 -47.829447  1.67492
11814 1  -25.373794 -46.409515  1.67492
11815 1  -24.151044 -45.687516  1.67492
11816 1  -26.582649 -48.551446  1.67492
11817 1  -27.819294 -47.853514  1.67492
11818 1  -27.833189 -46.433582  1.67492
11819 1  -26.610439 -45.711582  1.67492
11820 1  -29.042043 -48.575513  1.67492
11821 1  -30.278688 -47.877580  1.67492
11822 1  -30.292583 -46.457648  1.67492
11823 1  -29.069833 -45.735649  1.67492
11824 1  -31.501438 -48.599580  1.67492
11825 1  -32.738083 -47.901647  1.67492
11826 1  -32.751977 -46.481715  1.67492
11827 1  -31.529228 -45.759715  1.67492
11828 1  -33.960832 -48.623646  1.67492
11829 1  -35.197477 -47.925713  1.67492
11830 1  -35.211372 -46.505781  1.67492
11831 1  -33.988622 -45.783782  1.67492
11832 1  -36.420227 -48.647713  1.67492
11833 1  -37.656871 -47.949780  1.67492
11834 1  -37.670766 -46.529848  1.67492
11835 1  -36.448016 -45.807849  1.67492
11836 1  -38.879621 -48.671779  1.67492
11837 1  -40.116266 -47.973847  1.67492
11838 1  -40.130161 -46.553915  1.67492
11839 1  -38.907411 -45.831915  1.67492
11840 1  -41.339015 -48.695846  1.67492
11841 1  -42.575660 -47.997913  1.67492
11842 1  -42.589555 -46.577981  1.67492
11843 1  -41.366805 -45.855982  1.67492
11844 1  -43.798410 -48.719913  1.67492
11845 1  -45.035055 -48.021980  1.67492
11846 1  -45.048949 -46.602048  1.67492
11847 1  -43.826200 -45.880049  1.67492
11848 1  -46.257804 -48.743979  1.67492
11849 1  -47.494449 -48.046047  1.67492
11850 1  -47.508344 -46.626115  1.67492
11851 1  -46.285594 -45.904115  1.67492
11852 1  -48.717199 -48.768046  1.67492
11853 1  -49.953843 -48.070113  1.67492
11854 1  -49.967738 -46.650181  1.67492
11855 1  -48.744988 -45.928182  1.67492
11856 1  -51.176593 -48.792113  1.67492
11857 1  -52.413238 -48.094180  1.67492
11858 1  -52.427133 -46.674248  1.67492
11859 1  -51.204383 -45.952249  1.67492
11860 1  -53.635987 -48.816179  1.67492
11861 1  -54.872632 -48.118247  1.67492
11862 1  -54.886527 -46.698315  1.67492
11863 1  -53.663777 -45.976315  1.67492
11864 1  -56.095382 -48.840246  1.67492
11865 1  -57.332026 -48.142313  1.67492
11866 1  -57.345921 -46.722381  1.67492
11867 1  -56.123172 -46.000382  1.67492
11868 1  -58.554776 -48.864313  1.67492
11869 1  -59.791421 -48.166380  1.67492
11870 1  -59.805316 -46.746448  1.67492
11871 1  -58.582566 -46.024449  1.67492
11872 1  -61.014171 -48.888379  1.67492
11873 1  -62.250815 -48.190447  1.67492
11874 1  -62.264710 -46.770515  1.67492
11875 1  -61.041960 -46.048515  1.67492
11876 1  -63.473565 -48.912446  1.67492
11877 1  -64.710210 -48.214513  1.67492
11878 1  -64.724105 -46.794581  1.67492
11879 1  -63.501355 -46.072582  1.67492
11880 1  -65.932959 -48.936513  1.67492
11881 1  -67.169604 -48.238580  1.67492
11882 1  -67.183499 -46.818648  1.67492
11883 1  -65.960749 -46.096648  1.67492
11884 1  -68.392354 -48.960579  1.67492
11885 1  -69.628998 -48.262646  1.67492
11886 1  -69.642893 -46.842714  1.67492
11887 1  -68.420144 -46.120715  1.67492
11888 1  -70.851748 -48.984646  1.67492
11889 1  -72.088393 -48.286713  1.67492
11890 1  -72.102288 -46.866781  1.67492
11891 1  -70.879538 -46.144782  1.67492
11892 1  -73.311143 -49.008712  1.67492
11893 1  -74.547787 -48.310780  1.67492
11894 1  -74.561682 -46.890848  1.67492
11895 1  -73.338932 -46.168848  1.67492
11896 1  -75.770537 -49.032779  1.67492
11897 1  -77.007182 -48.334846  1.67492
11898 1  -77.021077 -46.914914  1.67492
11899 1  -75.798327 -46.192915  1.67492
11900 1  -78.229931 -49.056846  1.67492
11901 1  -79.466576 -48.358913  1.67492
11902 1  -79.480471 -46.938981  1.67492
11903 1  -78.257721 -46.216982  1.67492
11904 1  -80.689326 -49.080912  1.67492
11905 1  -81.925970 -48.382980  1.67492
11906 1  -81.939865 -46.963048  1.67492
11907 1  -80.717116 -46.241048  1.67492
11908 1  -83.148720 -49.104979  1.67492
11909 1  -84.385365 -48.407046  1.67492
11910 1  -84.399260 -46.987114  1.67492
11911 1  -83.176510 -46.265115  1.67492
11912 1  -85.608115 -49.129046  1.67492
11913 1  -86.844759 -48.431113  1.67492
11914 1  -86.858654 -47.011181  1.67492
11915 1  -85.635904 -46.289182  1.67492
11916 1  -88.067509 -49.153112  1.67492
11917 1  -89.304154 -48.455180  1.67492
11918 1  -89.318049 -47.035248  1.67492
11919 1  -88.095299 -46.313248  1.67492
11920 1  -90.526903 -49.177179  1.67492
11921 1  -91.763548 -48.479246  1.67492
11922 1  -91.777443 -47.059314  1.67492
11923 1  -90.554693 -46.337315  1.67492
11924 1  -92.986298 -49.201246  1.67492
11925 1  -94.222942 -48.503313  1.67492
11926 1  -94.236837 -47.083381  1.67492
11927 1  -93.014088 -46.361382  1.67492
11928 1  -95.445692 -49.225312  1.67492
11929 1  -96.682337 -48.527380  1.67492
11930 1  -96.696232 -47.107448  1.67492
11931 1  -95.473482 -46.385448  1.67492
11932 1  -97.905087 -49.249379  1.67492
11933 1  -99.141731 -48.551446  1.67492
11934 1  -99.155626 -47.131514  1.67492
11935 1  -97.932876 -46.409515  1.67492
11936 1 -100.364481 -49.273446  1.67492
11937 1 -101.601126 -48.575513  1.67492
11938 1 -101.615021 -47.155581  1.67492
11939 1 -100.392271 -46.433582  1.67492
11940 1 -102.823875 -49.297512  1.67492
11941 1 -104.060520 -48.599580  1.67492
11942 1 -104.074415 -47.179647  1.67492
11943 1 -102.851665 -46.457648  1.67492
11944 1 -105.283270 -49.321579  1.67492
11945 1 -106.519914 -48.623646  1.67492
11946 1 -106.533809 -47.203714  1.67492
11947 1 -105.311060 -46.481715  1.67492
11948 1 -107.742664 -49.345645  1.67492
11949 1 -107.770454 -46.505781  1.67492
11950 1  108.642358 -42.967985  1.67492
11951 1  107.405713 -42.270052  1.67492
11952 1  107.391819 -40.850120  1.67492
11953 1  108.614568 -40.128121  1.67492
11954 1  106.182964 -42.992051  1.67492
11955 1  104.946319 -42.294119  1.67492
11956 1  104.932424 -40.874187  1.67492
11957 1  106.155174 -40.152187  1.67492
11958 1  103.723569 -43.016118  1.67492
11959 1  102.486925 -42.318185  1.67492
11960 1  102.473030 -40.898253  1.67492
11961 1  103.695779 -40.176254  1.67492
11962 1  101.264175 -43.040185  1.67492
11963 1  100.027530 -42.342252  1.67492
11964 1  100.013635 -40.922320  1.67492
11965 1  101.236385 -40.200321  1.67492
11966 1   98.804780 -43.064251  1.67492
11967 1   97.568136 -42.366319  1.67492
11968 1   97.554241 -40.946387  1.67492
11969 1   98.776991 -40.224387  1.67492
11970 1   96.345386 -43.088318  1.67492
11971 1   95.108741 -42.390385  1.67492
11972 1   95.094847 -40.970453  1.67492
11973 1   96.317596 -40.248454  1.67492
11974 1   93.885992 -43.112385  1.67492
11975 1   92.649347 -42.414452  1.67492
11976 1   92.635452 -40.994520  1.67492
11977 1   93.858202 -40.272521  1.67492
11978 1   91.426597 -43.136451  1.67492
11979 1   90.189953 -42.438519  1.67492
11980 1   90.176058 -41.018587  1.67492
11981 1   91.398808 -40.296587  1.67492
11982 1   88.967203 -43.160518  1.67492
11983 1   87.730558 -42.462585  1.67492
11984 1   87.716663 -41.042653  1.67492
11985 1   88.939413 -40.320654  1.67492
11986 1   86.507808 -43.184585  1.67492
11987 1   85.271164 -42.486652  1.67492
11988 1   85.257269 -41.066720  1.67492
11989 1   86.480019 -40.344720  1.67492
11990 1   84.048414 -43.208651  1.67492
11991 1   82.811769 -42.510718  1.67492
11992 1   82.797875 -41.090786  1.67492
11993 1   84.020624 -40.368787  1.67492
11994 1   81.589020 -43.232718  1.67492
11995 1   80.352375 -42.534785  1.67492
11996 1   80.338480 -41.114853  1.67492
11997 1   81.561230 -40.392854  1.67492
11998 1   79.129625 -43.256784  1.67492
11999 1   77.892981 -42.558852  1.67492
12000 1   77.879086 -41.138920  1.67492
12001 1   79.101836 -40.416920  1.67492
12002 1   76.670231 -43.280851  1.67492
12003 1   75.433586 -42.582918  1.67492
12004 1   75.419691 -41.162986  1.67492
12005 1   76.642441 -40.440987  1.67492
12006 1   74.210837 -43.304918  1.67492
12007 1   72.974192 -42.606985  1.67492
12008 1   72.960297 -41.187053  1.67492
12009 1   74.183047 -40.465054  1.67492
12010 1   71.751442 -43.328984  1.67492
12011 1   70.514797 -42.631052  1.67492
12012 1   70.500903 -41.211120  1.67492
12013 1   71.723652 -40.489120  1.67492
12014 1   69.292048 -43.353051  1.67492
12015 1   68.055403 -42.655118  1.67492
12016 1   68.041508 -41.235186  1.67492
12017 1   69.264258 -40.513187  1.67492
12018 1   66.832653 -43.377118  1.67492
12019 1   65.596009 -42.679185  1.67492
12020 1   65.582114 -41.259253  1.67492
12021 1   66.804864 -40.537254  1.67492
12022 1   64.373259 -43.401184  1.67492
12023 1   63.136614 -42.703252  1.67492
12024 1   63.122719 -41.283320  1.67492
12025 1   64.345469 -40.561320  1.67492
12026 1   61.913865 -43.425251  1.67492
12027 1   60.677220 -42.727318  1.67492
12028 1   60.663325 -41.307386  1.67492
12029 1   61.886075 -40.585387  1.67492
12030 1   59.454470 -43.449318  1.67492
12031 1   58.217825 -42.751385  1.67492
12032 1   58.203931 -41.331453  1.67492
12033 1   59.426680 -40.609454  1.67492
12034 1   56.995076 -43.473384  1.67492
12035 1   55.758431 -42.775452  1.67492
12036 1   55.744536 -41.355520  1.67492
12037 1   56.967286 -40.633520  1.67492
12038 1   54.535681 -43.497451  1.67492
12039 1   53.299037 -42.799518  1.67492
12040 1   53.285142 -41.379586  1.67492
12041 1   54.507892 -40.657587  1.67492
12042 1   52.076287 -43.521518  1.67492
12043 1   50.839642 -42.823585  1.67492
12044 1   50.825747 -41.403653  1.67492
12045 1   52.048497 -40.681654  1.67492
12046 1   49.616893 -43.545584  1.67492
12047 1   48.380248 -42.847652  1.67492
12048 1   48.366353 -41.427719  1.67492
12049 1   49.589103 -40.705720  1.67492
12050 1   47.157498 -43.569651  1.67492
12051 1   45.920854 -42.871718  1.67492
12052 1   45.906959 -41.451786  1.67492
12053 1   47.129708 -40.729787  1.67492
12054 1   44.698104 -43.593717  1.67492
12055 1   43.461459 -42.895785  1.67492
12056 1   43.447564 -41.475853  1.67492
12057 1   44.670314 -40.753853  1.67492
12058 1   42.238709 -43.617784  1.67492
12059 1   41.002065 -42.919851  1.67492
12060 1   40.988170 -41.499919  1.67492
12061 1   42.210920 -40.777920  1.67492
12062 1   39.779315 -43.641851  1.67492
12063 1   38.542670 -42.943918  1.67492
12064 1   38.528775 -41.523986  1.67492
12065 1   39.751525 -40.801987  1.67492
12066 1   37.319921 -43.665917  1.67492
12067 1   36.083276 -42.967985  1.67492
12068 1   36.069381 -41.548053  1.67492
12069 1   37.292131 -40.826053  1.67492
12070 1   34.860526 -43.689984  1.67492
12071 1   33.623882 -42.992051  1.67492
12072 1   33.609987 -41.572119  1.67492
12073 1   34.832736 -40.850120  1.67492
12074 1   32.401132 -43.714051  1.67492
12075 1   31.164487 -43.016118  1.67492
12076 1   31.150592 -41.596186  1.67492
12077 1   32.373342 -40.874187  1.67492
12078 1   29.941737 -43.738117  1.67492
12079 1   28.705093 -43.040185  1.67492
12080 1   28.691198 -41.620253  1.67492
12081 1   29.913948 -40.898253  1.67492
12082 1   27.482343 -43.762184  1.67492
12083 1   26.245698 -43.064251  1.67492
12084 1   26.231803 -41.644319  1.67492
12085 1   27.454553 -40.922320  1.67492
12086 1   25.022949 -43.786251  1.67492
12087 1   23.786304 -43.088318  1.67492
12088 1   23.772409 -41.668386  1.67492
12089 1   24.995159 -40.946387  1.67492
12090 1   22.563554 -43.810317  1.67492
12091 1   21.326910 -43.112385  1.67492
12092 1   21.313015 -41.692453  1.67492
12093 1   22.535764 -40.970453  1.67492
12094 1   20.104160 -43.834384  1.67492
12095 1   18.867515 -43.136451  1.67492
12096 1   18.853620 -41.716519  1.67492
12097 1   20.076370 -40.994520  1.67492
12098 1   17.644765 -43.858451  1.67492
12099 1   16.408121 -43.160518  1.67492
12100 1   16.394226 -41.740586  1.67492
12101 1   17.616976 -41.018587  1.67492
12102 1   15.185371 -43.882517  1.67492
12103 1   13.948726 -43.184585  1.67492
12104 1   13.934831 -41.764653  1.67492
12105 1   15.157581 -41.042653  1.67492
12106 1   12.725977 -43.906584  1.67492
12107 1   11.489332 -43.208651  1.67492
12108 1   11.475437 -41.788719  1.67492
12109 1   12.698187 -41.066720  1.67492
12110 1   10.266582 -43.930651  1.67492
12111 1    9.029938 -43.232718  1.67492
12112 1    9.016043 -41.812786  1.67492
12113 1   10.238792 -41.090786  1.67492
12114 1    7.807188 -43.954717  1.67492
12115 1    6.570543 -43.256784  1.67492
12116 1    6.556648 -41.836852  1.67492
12117 1    7.779398 -41.114853  1.67492
12118 1    5.347793 -43.978784  1.67492
12119 1    4.111149 -43.280851  1.67492
12120 1    4.097254 -41.860919  1.67492
12121 1    5.320004 -41.138920  1.67492
12122 1    2.888399 -44.002850  1.67492
12123 1    1.651754 -43.304918  1.67492
12124 1    1.637859 -41.884986  1.67492
12125 1    2.860609 -41.162986  1.67492
12126 1    0.429005 -44.026917  1.67492
12127 1   -0.807640 -43.328984  1.67492
12128 1   -0.821535 -41.909052  1.67492
12129 1    0.401215 -41.187053  1.67492
12130 1   -2.030390 -44.050984  1.67492
12131 1   -3.267034 -43.353051  1.67492
12132 1   -3.280929 -41.933119  1.67492
12133 1   -2.058180 -41.211120  1.67492
12134 1   -4.489784 -44.075050  1.67492
12135 1   -5.726429 -43.377118  1.67492
12136 1   -5.740324 -41.957186  1.67492
12137 1   -4.517574 -41.235186  1.67492
12138 1   -6.949179 -44.099117  1.67492
12139 1   -8.185823 -43.401184  1.67492
12140 1   -8.199718 -41.981252  1.67492
12141 1   -6.976968 -41.259253  1.67492
12142 1   -9.408573 -44.123184  1.67492
12143 1  -10.645218 -43.425251  1.67492
12144 1  -10.659112 -42.005319  1.67492
12145 1   -9.436363 -41.283320  1.67492
12146 1  -11.867967 -44.147250  1.67492
12147 1  -13.104612 -43.449318  1.67492
12148 1  -13.118507 -42.029386  1.67492
12149 1  -11.895757 -41.307386  1.67492
12150 1  -14.327362 -44.171317  1.67492
12151 1  -15.564006 -43.473384  1.67492
12152 1  -15.577901 -42.053452  1.67492
12153 1  -14.355152 -41.331453  1.67492
12154 1  -16.786756 -44.195384  1.67492
12155 1  -18.023401 -43.497451  1.67492
12156 1  -18.037296 -42.077519  1.67492
12157 1  -16.814546 -41.355520  1.67492
12158 1  -19.246151 -44.219450  1.67492
12159 1  -20.482795 -43.521518  1.67492
12160 1  -20.496690 -42.101586  1.67492
12161 1  -19.273940 -41.379586  1.67492
12162 1  -21.705545 -44.243517  1.67492
12163 1  -22.942190 -43.545584  1.67492
12164 1  -22.956084 -42.125652  1.67492
12165 1  -21.733335 -41.403653  1.67492
12166 1  -24.164939 -44.267584  1.67492
12167 1  -25.401584 -43.569651  1.67492
12168 1  -25.415479 -42.149719  1.67492
12169 1  -24.192729 -41.427719  1.67492
12170 1  -26.624334 -44.291650  1.67492
12171 1  -27.860978 -43.593717  1.67492
12172 1  -27.874873 -42.173785  1.67492
12173 1  -26.652124 -41.451786  1.67492
12174 1  -29.083728 -44.315717  1.67492
12175 1  -30.320373 -43.617784  1.67492
12176 1  -30.334268 -42.197852  1.67492
12177 1  -29.111518 -41.475853  1.67492
12178 1  -31.543123 -44.339783  1.67492
12179 1  -32.779767 -43.641851  1.67492
12180 1  -32.793662 -42.221919  1.67492
12181 1  -31.570912 -41.499919  1.67492
12182 1  -34.002517 -44.363850  1.67492
12183 1  -35.239162 -43.665917  1.67492
12184 1  -35.253056 -42.245985  1.67492
12185 1  -34.030307 -41.523986  1.67492
12186 1  -36.461911 -44.387917  1.67492
12187 1  -37.698556 -43.689984  1.67492
12188 1  -37.712451 -42.270052  1.67492
12189 1  -36.489701 -41.548053  1.67492
12190 1  -38.921306 -44.411983  1.67492
12191 1  -40.157950 -43.714051  1.67492
12192 1  -40.171845 -42.294119  1.67492
12193 1  -38.949095 -41.572119  1.67492
12194 1  -41.380700 -44.436050  1.67492
12195 1  -42.617345 -43.738117  1.67492
12196 1  -42.631240 -42.318185  1.67492
12197 1  -41.408490 -41.596186  1.67492
12198 1  -43.840095 -44.460117  1.67492
12199 1  -45.076739 -43.762184  1.67492
12200 1  -45.090634 -42.342252  1.67492
12201 1  -43.867884 -41.620253  1.67492
12202 1  -46.299489 -44.484183  1.67492
12203 1  -47.536134 -43.786251  1.67492
12204 1  -47.550028 -42.366319  1.67492
12205 1  -46.327279 -41.644319  1.67492
12206 1  -48.758883 -44.508250  1.67492
12207 1  -49.995528 -43.810317  1.67492
12208 1  -50.009423 -42.390385  1.67492
12209 1  -48.786673 -41.668386  1.67492
12210 1  -51.218278 -44.532317  1.67492
12211 1  -52.454922 -43.834384  1.67492
12212 1  -52.468817 -42.414452  1.67492
12213 1  -51.246067 -41.692453  1.67492
12214 1  -53.677672 -44.556383  1.67492
12215 1  -54.914317 -43.858451  1.67492
12216 1  -54.928212 -42.438519  1.67492
12217 1  -53.705462 -41.716519  1.67492
12218 1  -56.137067 -44.580450  1.67492
12219 1  -57.373711 -43.882517  1.67492
12220 1  -57.387606 -42.462585  1.67492
12221 1  -56.164856 -41.740586  1.67492
12222 1  -58.596461 -44.604517  1.67492
12223 1  -59.833106 -43.906584  1.67492
12224 1  -59.847000 -42.486652  1.67492
12225 1  -58.624251 -41.764653  1.67492
12226 1  -61.055855 -44.628583  1.67492
12227 1  -62.292500 -43.930651  1.67492
12228 1  -62.306395 -42.510718  1.67492
12229 1  -61.083645 -41.788719  1.67492
12230 1  -63.515250 -44.652650  1.67492
12231 1  -64.751894 -43.954717  1.67492
12232 1  -64.765789 -42.534785  1.67492
12233 1  -63.543039 -41.812786  1.67492
12234 1  -65.974644 -44.676716  1.67492
12235 1  -67.211289 -43.978784  1.67492
12236 1  -67.225184 -42.558852  1.67492
12237 1  -66.002434 -41.836852  1.67492
12238 1  -68.434038 -44.700783  1.67492
12239 1  -69.670683 -44.002850  1.67492
12240 1  -69.684578 -42.582918  1.67492
12241 1  -68.461828 -41.860919  1.67492
12242 1  -70.893433 -44.724850  1.67492
12243 1  -72.130078 -44.026917  1.67492
12244 1  -72.143972 -42.606985  1.67492
12245 1  -70.921223 -41.884986  1.67492
12246 1  -73.352827 -44.748916  1.67492
12247 1  -74.589472 -44.050984  1.67492
12248 1  -74.603367 -42.631052  1.67492
12249 1  -73.380617 -41.909052  1.67492
12250 1  -75.812222 -44.772983  1.67492
12251 1  -77.048866 -44.075050  1.67492
12252 1  -77.062761 -42.655118  1.67492
12253 1  -75.840011 -41.933119  1.67492
12254 1  -78.271616 -44.797050  1.67492
12255 1  -79.508261 -44.099117  1.67492
12256 1  -79.522156 -42.679185  1.67492
12257 1  -78.299406 -41.957186  1.67492
12258 1  -80.731010 -44.821116  1.67492
12259 1  -81.967655 -44.123184  1.67492
12260 1  -81.981550 -42.703252  1.67492
12261 1  -80.758800 -41.981252  1.67492
12262 1  -83.190405 -44.845183  1.67492
12263 1  -84.427050 -44.147250  1.67492
12264 1  -84.440944 -42.727318  1.67492
12265 1  -83.218195 -42.005319  1.67492
12266 1  -85.649799 -44.869250  1.67492
12267 1  -86.886444 -44.171317  1.67492
12268 1  -86.900339 -42.751385  1.67492
12269 1  -85.677589 -42.029386  1.67492
12270 1  -88.109194 -44.893316  1.67492
12271 1  -89.345838 -44.195384  1.67492
12272 1  -89.359733 -42.775452  1.67492
12273 1  -88.136983 -42.053452  1.67492
12274 1  -90.568588 -44.917383  1.67492
12275 1  -91.805233 -44.219450  1.67492
12276 1  -91.819128 -42.799518  1.67492
12277 1  -90.596378 -42.077519  1.67492
12278 1  -93.027982 -44.941450  1.67492
12279 1  -94.264627 -44.243517  1.67492
12280 1  -94.278522 -42.823585  1.67492
12281 1  -93.055772 -42.101586  1.67492
12282 1  -95.487377 -44.965516  1.67492
12283 1  -96.724021 -44.267584  1.67492
12284 1  -96.737916 -42.847652  1.67492
12285 1  -95.515167 -42.125652  1.67492
12286 1  -97.946771 -44.989583  1.67492
12287 1  -99.183416 -44.291650  1.67492
12288 1  -99.197311 -42.871718  1.67492
12289 1  -97.974561 -42.149719  1.67492
12290 1 -100.406166 -45.013649  1.67492
12291 1 -101.642810 -44.315717  1.67492
12292 1 -101.656705 -42.895785  1.67492
12293 1 -100.433955 -42.173785  1.67492
12294 1 -102.865560 -45.037716  1.67492
12295 1 -104.102205 -44.339783  1.67492
12296 1 -104.116100 -42.919851  1.67492
12297 1 -102.893350 -42.197852  1.67492
12298 1 -105.324954 -45.061783  1.67492
12299 1 -106.561599 -44.363850  1.67492
12300 1 -106.575494 -42.943918  1.67492
12301 1 -105.352744 -42.221919  1.67492
12302 1 -107.784349 -45.085849  1.67492
12303 1 -107.812139 -42.245985  1.67492
12304 1  108.600673 -38.708189  1.67492
12305 1  107.364029 -38.010256  1.67492
12306 1  107.350134 -36.590324  1.67492
12307 1  108.572884 -35.868325  1.67492
12308 1  106.141279 -38.732255  1.67492
12309 1  104.904634 -38.034323  1.67492
12310 1  104.890739 -36.614391  1.67492
12311 1  106.113489 -35.892391  1.67492
12312 1  103.681885 -38.756322  1.67492
12313 1  102.445240 -38.058389  1.67492
12314 1  102.431345 -36.638457  1.67492
12315 1  103.654095 -35.916458  1.67492
12316 1  101.222490 -38.780389  1.67492
12317 1   99.985846 -38.082456  1.67492
12318 1   99.971951 -36.662524  1.67492
12319 1  101.194700 -35.940525  1.67492
12320 1   98.763096 -38.804455  1.67492
12321 1   97.526451 -38.106523  1.67492
12322 1   97.512556 -36.686591  1.67492
12323 1   98.735306 -35.964591  1.67492
12324 1   96.303701 -38.828522  1.67492
12325 1   95.067057 -38.130589  1.67492
12326 1   95.053162 -36.710657  1.67492
12327 1   96.275912 -35.988658  1.67492
12328 1   93.844307 -38.852589  1.67492
12329 1   92.607662 -38.154656  1.67492
12330 1   92.593767 -36.734724  1.67492
12331 1   93.816517 -36.012725  1.67492
12332 1   91.384913 -38.876655  1.67492
12333 1   90.148268 -38.178723  1.67492
12334 1   90.134373 -36.758790  1.67492
12335 1   91.357123 -36.036791  1.67492
12336 1   88.925518 -38.900722  1.67492
12337 1   87.688874 -38.202789  1.67492
12338 1   87.674979 -36.782857  1.67492
12339 1   88.897728 -36.060858  1.67492
12340 1   86.466124 -38.924788  1.67492
12341 1   85.229479 -38.226856  1.67492
12342 1   85.215584 -36.806924  1.67492
12343 1   86.438334 -36.084924  1.67492
12344 1   84.006729 -38.948855  1.67492
12345 1   82.770085 -38.250922  1.67492
12346 1   82.756190 -36.830990  1.67492
12347 1   83.978940 -36.108991  1.67492
12348 1   81.547335 -38.972922  1.67492
12349 1   80.310690 -38.274989  1.67492
12350 1   80.296796 -36.855057  1.67492
12351 1   81.519545 -36.133058  1.67492
12352 1   79.087941 -38.996988  1.67492
12353 1   77.851296 -38.299056  1.67492
12354 1   77.837401 -36.879124  1.67492
12355 1   79.060151 -36.157124  1.67492
12356 1   76.628546 -39.021055  1.67492
12357 1   75.391902 -38.323122  1.67492
12358 1   75.378007 -36.903190  1.67492
12359 1   76.600756 -36.181191  1.67492
12360 1   74.169152 -39.045122  1.67492
12361 1   72.932507 -38.347189  1.67492
12362 1   72.918612 -36.927257  1.67492
12363 1   74.141362 -36.205258  1.67492
12364 1   71.709757 -39.069188  1.67492
12365 1   70.473113 -38.371256  1.67492
12366 1   70.459218 -36.951324  1.67492
12367 1   71.681968 -36.229324  1.67492
12368 1   69.250363 -39.093255  1.67492
12369 1   68.013718 -38.395322  1.67492
12370 1   67.999824 -36.975390  1.67492
12371 1   69.222573 -36.253391  1.67492
12372 1   66.790969 -39.117322  1.67492
12373 1   65.554324 -38.419389  1.67492
12374 1   65.540429 -36.999457  1.67492
12375 1   66.763179 -36.277458  1.67492
12376 1   64.331574 -39.141388  1.67492
12377 1   63.094930 -38.443456  1.67492
12378 1   63.081035 -37.023524  1.67492
12379 1   64.303785 -36.301524  1.67492
12380 1   61.872180 -39.165455  1.67492
12381 1   60.635535 -38.467522  1.67492
12382 1   60.621640 -37.047590  1.67492
12383 1   61.844390 -36.325591  1.67492
12384 1   59.412785 -39.189522  1.67492
12385 1   58.176141 -38.491589  1.67492
12386 1   58.162246 -37.071657  1.67492
12387 1   59.384996 -36.349658  1.67492
12388 1   56.953391 -39.213588  1.67492
12389 1   55.716746 -38.515656  1.67492
12390 1   55.702852 -37.095724  1.67492
12391 1   56.925601 -36.373724  1.67492
12392 1   54.493997 -39.237655  1.67492
12393 1   53.257352 -38.539722  1.67492
12394 1   53.243457 -37.119790  1.67492
12395 1   54.466207 -36.397791  1.67492
12396 1   52.034602 -39.261721  1.67492
12397 1   50.797958 -38.563789  1.67492
12398 1   50.784063 -37.143857  1.67492
12399 1   52.006813 -36.421857  1.67492
12400 1   49.575208 -39.285788  1.67492
12401 1   48.338563 -38.587855  1.67492
12402 1   48.324668 -37.167923  1.67492
12403 1   49.547418 -36.445924  1.67492
12404 1   47.115813 -39.309855  1.67492
12405 1   45.879169 -38.611922  1.67492
12406 1   45.865274 -37.191990  1.67492
12407 1   47.088024 -36.469991  1.67492
12408 1   44.656419 -39.333921  1.67492
12409 1   43.419774 -38.635989  1.67492
12410 1   43.405880 -37.216057  1.67492
12411 1   44.628629 -36.494057  1.67492
12412 1   42.197025 -39.357988  1.67492
12413 1   40.960380 -38.660055  1.67492
12414 1   40.946485 -37.240123  1.67492
12415 1   42.169235 -36.518124  1.67492
12416 1   39.737630 -39.382055  1.67492
12417 1   38.500986 -38.684122  1.67492
12418 1   38.487091 -37.264190  1.67492
12419 1   39.709841 -36.542191  1.67492
12420 1   37.278236 -39.406121  1.67492
12421 1   36.041591 -38.708189  1.67492
12422 1   36.027696 -37.288257  1.67492
12423 1   37.250446 -36.566257  1.67492
12424 1   34.818842 -39.430188  1.67492
12425 1   33.582197 -38.732255  1.67492
12426 1   33.568302 -37.312323  1.67492
12427 1   34.791052 -36.590324  1.67492
12428 1   32.359447 -39.454255  1.67492
12429 1   31.122802 -38.756322  1.67492
12430 1   31.108908 -37.336390  1.67492
12431 1   32.331657 -36.614391  1.67492
12432 1   29.900053 -39.478321  1.67492
12433 1   28.663408 -38.780389  1.67492
12434 1   28.649513 -37.360457  1.67492
12435 1   29.872263 -36.638457  1.67492
12436 1   27.440658 -39.502388  1.67492
12437 1   26.204014 -38.804455  1.67492
12438 1   26.190119 -37.384523  1.67492
12439 1   27.412869 -36.662524  1.67492
12440 1   24.981264 -39.526455  1.67492
12441 1   23.744619 -38.828522  1.67492
12442 1   23.730724 -37.408590  1.67492
12443 1   24.953474 -36.686591  1.67492
12444 1   22.521870 -39.550521  1.67492
12445 1   21.285225 -38.852589  1.67492
12446 1   21.271330 -37.432657  1.67492
12447 1   22.494080 -36.710657  1.67492
12448 1   20.062475 -39.574588  1.67492
12449 1   18.825830 -38.876655  1.67492
12450 1   18.811936 -37.456723  1.67492
12451 1   20.034685 -36.734724  1.67492
12452 1   17.603081 -39.598655  1.67492
12453 1   16.366436 -38.900722  1.67492
12454 1   16.352541 -37.480790  1.67492
12455 1   17.575291 -36.758790  1.67492
12456 1   15.143686 -39.622721  1.67492
12457 1   13.907042 -38.924788  1.67492
12458 1   13.893147 -37.504856  1.67492
12459 1   15.115897 -36.782857  1.67492
12460 1   12.684292 -39.646788  1.67492
12461 1   11.447647 -38.948855  1.67492
12462 1   11.433752 -37.528923  1.67492
12463 1   12.656502 -36.806924  1.67492
12464 1   10.224898 -39.670854  1.67492
12465 1    8.988253 -38.972922  1.67492
12466 1    8.974358 -37.552990  1.67492
12467 1   10.197108 -36.830990  1.67492
12468 1    7.765503 -39.694921  1.67492
12469 1    6.528859 -38.996988  1.67492
12470 1    6.514964 -37.577056  1.67492
12471 1    7.737713 -36.855057  1.67492
12472 1    5.306109 -39.718988  1.67492
12473 1    4.069464 -39.021055  1.67492
12474 1    4.055569 -37.601123  1.67492
12475 1    5.278319 -36.879124  1.67492
12476 1    2.846714 -39.743054  1.67492
12477 1    1.610070 -39.045122  1.67492
12478 1    1.596175 -37.625190  1.67492
12479 1    2.818925 -36.903190  1.67492
12480 1    0.387320 -39.767121  1.67492
12481 1   -0.849325 -39.069188  1.67492
12482 1   -0.863220 -37.649256  1.67492
12483 1    0.359530 -36.927257  1.67492
12484 1   -2.072074 -39.791188  1.67492
12485 1   -3.308719 -39.093255  1.67492
12486 1   -3.322614 -37.673323  1.67492
12487 1   -2.099864 -36.951324  1.67492
12488 1   -4.531469 -39.815254  1.67492
12489 1   -5.768113 -39.117322  1.67492
12490 1   -5.782008 -37.697390  1.67492
12491 1   -4.559259 -36.975390  1.67492
12492 1   -6.990863 -39.839321  1.67492
12493 1   -8.227508 -39.141388  1.67492
12494 1   -8.241403 -37.721456  1.67492
12495 1   -7.018653 -36.999457  1.67492
12496 1   -9.450258 -39.863388  1.67492
12497 1  -10.686902 -39.165455  1.67492
12498 1  -10.700797 -37.745523  1.67492
12499 1   -9.478047 -37.023524  1.67492
12500 1  -11.909652 -39.887454  1.67492
12501 1  -13.146297 -39.189522  1.67492
12502 1  -13.160192 -37.769590  1.67492
12503 1  -11.937442 -37.047590  1.67492
12504 1  -14.369046 -39.911521  1.67492
12505 1  -15.605691 -39.213588  1.67492
12506 1  -15.619586 -37.793656  1.67492
12507 1  -14.396836 -37.071657  1.67492
12508 1  -16.828441 -39.935588  1.67492
12509 1  -18.065085 -39.237655  1.67492
12510 1  -18.078980 -37.817723  1.67492
12511 1  -16.856231 -37.095724  1.67492
12512 1  -19.287835 -39.959654  1.67492
12513 1  -20.524480 -39.261721  1.67492
12514 1  -20.538375 -37.841789  1.67492
12515 1  -19.315625 -37.119790  1.67492
12516 1  -21.747230 -39.983721  1.67492
12517 1  -22.983874 -39.285788  1.67492
12518 1  -22.997769 -37.865856  1.67492
12519 1  -21.775019 -37.143857  1.67492
12520 1  -24.206624 -40.007787  1.67492
12521 1  -25.443269 -39.309855  1.67492
12522 1  -25.457164 -37.889923  1.67492
12523 1  -24.234414 -37.167923  1.67492
12524 1  -26.666018 -40.031854  1.67492
12525 1  -27.902663 -39.333921  1.67492
12526 1  -27.916558 -37.913989  1.67492
12527 1  -26.693808 -37.191990  1.67492
12528 1  -29.125413 -40.055921  1.67492
12529 1  -30.362057 -39.357988  1.67492
12530 1  -30.375952 -37.938056  1.67492
12531 1  -29.153203 -37.216057  1.67492
12532 1  -31.584807 -40.079987  1.67492
12533 1  -32.821452 -39.382055  1.67492
12534 1  -32.835347 -37.962123  1.67492
12535 1  -31.612597 -37.240123  1.67492
12536 1  -34.044202 -40.104054  1.67492
12537 1  -35.280846 -39.406121  1.67492
12538 1  -35.294741 -37.986189  1.67492
12539 1  -34.071991 -37.264190  1.67492
12540 1  -36.503596 -40.128121  1.67492
12541 1  -37.740241 -39.430188  1.67492
12542 1  -37.754136 -38.010256  1.67492
12543 1  -36.531386 -37.288257  1.67492
12544 1  -38.962990 -40.152187  1.67492
12545 1  -40.199635 -39.454255  1.67492
12546 1  -40.213530 -38.034323  1.67492
12547 1  -38.990780 -37.312323  1.67492
12548 1  -41.422385 -40.176254  1.67492
12549 1  -42.659029 -39.478321  1.67492
12550 1  -42.672924 -38.058389  1.67492
12551 1  -41.450175 -37.336390  1.67492
12552 1  -43.881779 -40.200321  1.67492
12553 1  -45.118424 -39.502388  1.67492
12554 1  -45.132319 -38.082456  1.67492
12555 1  -43.909569 -37.360457  1.67492
12556 1  -46.341174 -40.224387  1.67492
12557 1  -47.577818 -39.526455  1.67492
12558 1  -47.591713 -38.106523  1.67492
12559 1  -46.368963 -37.384523  1.67492
12560 1  -48.800568 -40.248454  1.67492
12561 1  -50.037213 -39.550521  1.67492
12562 1  -50.051107 -38.130589  1.67492
12563 1  -48.828358 -37.408590  1.67492
12564 1  -51.259962 -40.272521  1.67492
12565 1  -52.496607 -39.574588  1.67492
12566 1  -52.510502 -38.154656  1.67492
12567 1  -51.287752 -37.432657  1.67492
12568 1  -53.719357 -40.296587  1.67492
12569 1  -54.956001 -39.598655  1.67492
12570 1  -54.969896 -38.178723  1.67492
12571 1  -53.747147 -37.456723  1.67492
12572 1  -56.178751 -40.320654  1.67492
12573 1  -57.415396 -39.622721  1.67492
12574 1  -57.429291 -38.202789  1.67492
12575 1  -56.206541 -37.480790  1.67492
12576 1  -58.638146 -40.344720  1.67492
12577 1  -59.874790 -39.646788  1.67492
12578 1  -59.888685 -38.226856  1.67492
12579 1  -58.665935 -37.504856  1.67492
12580 1  -61.097540 -40.368787  1.67492
12581 1  -62.334185 -39.670854  1.67492
12582 1  -62.348079 -38.250922  1.67492
12583 1  -61.125330 -37.528923  1.67492
12584 1  -63.556934 -40.392854  1.67492
12585 1  -64.793579 -39.694921  1.67492
12586 1  -64.807474 -38.274989  1.67492
12587 1  -63.584724 -37.552990  1.67492
12588 1  -66.016329 -40.416920  1.67492
12589 1  -67.252973 -39.718988  1.67492
12590 1  -67.266868 -38.299056  1.67492
12591 1  -66.044119 -37.577056  1.67492
12592 1  -68.475723 -40.440987  1.67492
12593 1  -69.712368 -39.743054  1.67492
12594 1  -69.726263 -38.323122  1.67492
12595 1  -68.503513 -37.601123  1.67492
12596 1  -70.935118 -40.465054  1.67492
12597 1  -72.171762 -39.767121  1.67492
12598 1  -72.185657 -38.347189  1.67492
12599 1  -70.962907 -37.625190  1.67492
12600 1  -73.394512 -40.489120  1.67492
12601 1  -74.631157 -39.791188  1.67492
12602 1  -74.645051 -38.371256  1.67492
12603 1  -73.422302 -37.649256  1.67492
12604 1  -75.853906 -40.513187  1.67492
12605 1  -77.090551 -39.815254  1.67492
12606 1  -77.104446 -38.395322  1.67492
12607 1  -75.881696 -37.673323  1.67492
12608 1  -78.313301 -40.537254  1.67492
12609 1  -79.549945 -39.839321  1.67492
12610 1  -79.563840 -38.419389  1.67492
12611 1  -78.341090 -37.697390  1.67492
12612 1  -80.772695 -40.561320  1.67492
12613 1  -82.009340 -39.863388  1.67492
12614 1  -82.023235 -38.443456  1.67492
12615 1  -80.800485 -37.721456  1.67492
12616 1  -83.232090 -40.585387  1.67492
12617 1  -84.468734 -39.887454  1.67492
12618 1  -84.482629 -38.467522  1.67492
12619 1  -83.259879 -37.745523  1.67492
12620 1  -85.691484 -40.609454  1.67492
12621 1  -86.928129 -39.911521  1.67492
12622 1  -86.942023 -38.491589  1.67492
12623 1  -85.719274 -37.769590  1.67492
12624 1  -88.150878 -40.633520  1.67492
12625 1  -89.387523 -39.935588  1.67492
12626 1  -89.401418 -38.515656  1.67492
12627 1  -88.178668 -37.793656  1.67492
12628 1  -90.610273 -40.657587  1.67492
12629 1  -91.846917 -39.959654  1.67492
12630 1  -91.860812 -38.539722  1.67492
12631 1  -90.638062 -37.817723  1.67492
12632 1  -93.069667 -40.681654  1.67492
12633 1  -94.306312 -39.983721  1.67492
12634 1  -94.320207 -38.563789  1.67492
12635 1  -93.097457 -37.841789  1.67492
12636 1  -95.529061 -40.705720  1.67492
12637 1  -96.765706 -40.007787  1.67492
12638 1  -96.779601 -38.587855  1.67492
12639 1  -95.556851 -37.865856  1.67492
12640 1  -97.988456 -40.729787  1.67492
12641 1  -99.225101 -40.031854  1.67492
12642 1  -99.238995 -38.611922  1.67492
12643 1  -98.016246 -37.889923  1.67492
12644 1 -100.447850 -40.753853  1.67492
12645 1 -101.684495 -40.055921  1.67492
12646 1 -101.698390 -38.635989  1.67492
12647 1 -100.475640 -37.913989  1.67492
12648 1 -102.907245 -40.777920  1.67492
12649 1 -104.143889 -40.079987  1.67492
12650 1 -104.157784 -38.660055  1.67492
12651 1 -102.935034 -37.938056  1.67492
12652 1 -105.366639 -40.801987  1.67492
12653 1 -106.603284 -40.104054  1.67492
12654 1 -106.617179 -38.684122  1.67492
12655 1 -105.394429 -37.962123  1.67492
12656 1 -107.826033 -40.826053  1.67492
12657 1 -107.853823 -37.986189  1.67492
12658 1  108.558989 -34.448393  1.67492
12659 1  107.322344 -33.750460  1.67492
12660 1  107.308449 -32.330528  1.67492
12661 1  108.531199 -31.608529  1.67492
12662 1  106.099594 -34.472459  1.67492
12663 1  104.862950 -33.774527  1.67492
12664 1  104.849055 -32.354595  1.67492
12665 1  106.071805 -31.632595  1.67492
12666 1  103.640200 -34.496526  1.67492
12667 1  102.403555 -33.798593  1.67492
12668 1  102.389660 -32.378661  1.67492
12669 1  103.612410 -31.656662  1.67492
12670 1  101.180806 -34.520593  1.67492
12671 1   99.944161 -33.822660  1.67492
12672 1   99.930266 -32.402728  1.67492
12673 1  101.153016 -31.680729  1.67492
12674 1   98.721411 -34.544659  1.67492
12675 1   97.484767 -33.846727  1.67492
12676 1   97.470872 -32.426795  1.67492
12677 1   98.693621 -31.704795  1.67492
12678 1   96.262017 -34.568726  1.67492
12679 1   95.025372 -33.870793  1.67492
12680 1   95.011477 -32.450861  1.67492
12681 1   96.234227 -31.728862  1.67492
12682 1   93.802622 -34.592792  1.67492
12683 1   92.565978 -33.894860  1.67492
12684 1   92.552083 -32.474928  1.67492
12685 1   93.774833 -31.752928  1.67492
12686 1   91.343228 -34.616859  1.67492
12687 1   90.106583 -33.918926  1.67492
12688 1   90.092688 -32.498994  1.67492
12689 1   91.315438 -31.776995  1.67492
12690 1   88.883834 -34.640926  1.67492
12691 1   87.647189 -33.942993  1.67492
12692 1   87.633294 -32.523061  1.67492
12693 1   88.856044 -31.801062  1.67492
12694 1   86.424439 -34.664992  1.67492
12695 1   85.187795 -33.967060  1.67492
12696 1   85.173900 -32.547128  1.67492
12697 1   86.396649 -31.825128  1.67492
12698 1   83.965045 -34.689059  1.67492
12699 1   82.728400 -33.991126  1.67492
12700 1   82.714505 -32.571194  1.67492
12701 1   83.937255 -31.849195  1.67492
12702 1   81.505650 -34.713126  1.67492
12703 1   80.269006 -34.015193  1.67492
12704 1   80.255111 -32.595261  1.67492
12705 1   81.477861 -31.873262  1.67492
12706 1   79.046256 -34.737192  1.67492
12707 1   77.809611 -34.039260  1.67492
12708 1   77.795716 -32.619328  1.67492
12709 1   79.018466 -31.897328  1.67492
12710 1   76.586862 -34.761259  1.67492
12711 1   75.350217 -34.063326  1.67492
12712 1   75.336322 -32.643394  1.67492
12713 1   76.559072 -31.921395  1.67492
12714 1   74.127467 -34.785326  1.67492
12715 1   72.890823 -34.087393  1.67492
12716 1   72.876928 -32.667461  1.67492
12717 1   74.099677 -31.945462  1.67492
12718 1   71.668073 -34.809392  1.67492
12719 1   70.431428 -34.111460  1.67492
12720 1   70.417533 -32.691528  1.67492
12721 1   71.640283 -31.969528  1.67492
12722 1   69.208678 -34.833459  1.67492
12723 1   67.972034 -34.135526  1.67492
12724 1   67.958139 -32.715594  1.67492
12725 1   69.180889 -31.993595  1.67492
12726 1   66.749284 -34.857526  1.67492
12727 1   65.512639 -34.159593  1.67492
12728 1   65.498744 -32.739661  1.67492
12729 1   66.721494 -32.017662  1.67492
12730 1   64.289890 -34.881592  1.67492
12731 1   63.053245 -34.183660  1.67492
12732 1   63.039350 -32.763728  1.67492
12733 1   64.262100 -32.041728  1.67492
12734 1   61.830495 -34.905659  1.67492
12735 1   60.593851 -34.207726  1.67492
12736 1   60.579956 -32.787794  1.67492
12737 1   61.802705 -32.065795  1.67492
12738 1   59.371101 -34.929726  1.67492
12739 1   58.134456 -34.231793  1.67492
12740 1   58.120561 -32.811861  1.67492
12741 1   59.343311 -32.089861  1.67492
12742 1   56.911706 -34.953792  1.67492
12743 1   55.675062 -34.255859  1.67492
12744 1   55.661167 -32.835927  1.67492
12745 1   56.883917 -32.113928  1.67492
12746 1   54.452312 -34.977859  1.67492
12747 1   53.215667 -34.279926  1.67492
12748 1   53.201773 -32.859994  1.67492
12749 1   54.424522 -32.137995  1.67492
12750 1   51.992918 -35.001925  1.67492
12751 1   50.756273 -34.303993  1.67492
12752 1   50.742378 -32.884061  1.67492
12753 1   51.965128 -32.162061  1.67492
12754 1   49.533523 -35.025992  1.67492
12755 1   48.296879 -34.328059  1.67492
12756 1   48.282984 -32.908127  1.67492
12757 1   49.505733 -32.186128  1.67492
12758 1   47.074129 -35.050059  1.67492
12759 1   45.837484 -34.352126  1.67492
12760 1   45.823589 -32.932194  1.67492
12761 1   47.046339 -32.210195  1.67492
12762 1   44.614734 -35.074125  1.67492
12763 1   43.378090 -34.376193  1.67492
12764 1   43.364195 -32.956261  1.67492
12765 1   44.586945 -32.234261  1.67492
12766 1   42.155340 -35.098192  1.67492
12767 1   40.918695 -34.400259  1.67492
12768 1   40.904801 -32.980327  1.67492
12769 1   42.127550 -32.258328  1.67492
12770 1   39.695946 -35.122259  1.67492
12771 1   38.459301 -34.424326  1.67492
12772 1   38.445406 -33.004394  1.67492
12773 1   39.668156 -32.282395  1.67492
12774 1   37.236551 -35.146325  1.67492
12775 1   35.999907 -34.448393  1.67492
12776 1   35.986012 -33.028461  1.67492
12777 1   37.208761 -32.306461  1.67492
12778 1   34.777157 -35.170392  1.67492
12779 1   33.540512 -34.472459  1.67492
12780 1   33.526617 -33.052527  1.67492
12781 1   34.749367 -32.330528  1.67492
12782 1   32.317762 -35.194459  1.67492
12783 1   31.081118 -34.496526  1.67492
12784 1   31.067223 -33.076594  1.67492
12785 1   32.289973 -32.354595  1.67492
12786 1   29.858368 -35.218525  1.67492
12787 1   28.621723 -34.520593  1.67492
12788 1   28.607829 -33.100661  1.67492
12789 1   29.830578 -32.378661  1.67492
12790 1   27.398974 -35.242592  1.67492
12791 1   26.162329 -34.544659  1.67492
12792 1   26.148434 -33.124727  1.67492
12793 1   27.371184 -32.402728  1.67492
12794 1   24.939579 -35.266659  1.67492
12795 1   23.702935 -34.568726  1.67492
12796 1   23.689040 -33.148794  1.67492
12797 1   24.911790 -32.426795  1.67492
12798 1   22.480185 -35.290725  1.67492
12799 1   21.243540 -34.592792  1.67492
12800 1   21.229645 -33.172860  1.67492
12801 1   22.452395 -32.450861  1.67492
12802 1   20.020790 -35.314792  1.67492
12803 1   18.784146 -34.616859  1.67492
12804 1   18.770251 -33.196927  1.67492
12805 1   19.993001 -32.474928  1.67492
12806 1   17.561396 -35.338858  1.67492
12807 1   16.324751 -34.640926  1.67492
12808 1   16.310857 -33.220994  1.67492
12809 1   17.533606 -32.498994  1.67492
12810 1   15.102002 -35.362925  1.67492
12811 1   13.865357 -34.664992  1.67492
12812 1   13.851462 -33.245060  1.67492
12813 1   15.074212 -32.523061  1.67492
12814 1   12.642607 -35.386992  1.67492
12815 1   11.405963 -34.689059  1.67492
12816 1   11.392068 -33.269127  1.67492
12817 1   12.614818 -32.547128  1.67492
12818 1   10.183213 -35.411058  1.67492
12819 1    8.946568 -34.713126  1.67492
12820 1    8.932673 -33.293194  1.67492
12821 1   10.155423 -32.571194  1.67492
12822 1    7.723819 -35.435125  1.67492
12823 1    6.487174 -34.737192  1.67492
12824 1    6.473279 -33.317260  1.67492
12825 1    7.696029 -32.595261  1.67492
12826 1    5.264424 -35.459192  1.67492
12827 1    4.027779 -34.761259  1.67492
12828 1    4.013885 -33.341327  1.67492
12829 1    5.236634 -32.619328  1.67492
12830 1    2.805030 -35.483258  1.67492
12831 1    1.568385 -34.785326  1.67492
12832 1    1.554490 -33.365394  1.67492
12833 1    2.777240 -32.643394  1.67492
12834 1    0.345635 -35.507325  1.67492
12835 1   -0.891009 -34.809392  1.67492
12836 1   -0.904904 -33.389460  1.67492
12837 1    0.317846 -32.667461  1.67492
12838 1   -2.113759 -35.531392  1.67492
12839 1   -3.350404 -34.833459  1.67492
12840 1   -3.364299 -33.413527  1.67492
12841 1   -2.141549 -32.691528  1.67492
12842 1   -4.573153 -35.555458  1.67492
12843 1   -5.809798 -34.857526  1.67492
12844 1   -5.823693 -33.437594  1.67492
12845 1   -4.600943 -32.715594  1.67492
12846 1   -7.032548 -35.579525  1.67492
12847 1   -8.269193 -34.881592  1.67492
12848 1   -8.283087 -33.461660  1.67492
12849 1   -7.060338 -32.739661  1.67492
12850 1   -9.491942 -35.603592  1.67492
12851 1  -10.728587 -34.905659  1.67492
12852 1  -10.742482 -33.485727  1.67492
12853 1   -9.519732 -32.763728  1.67492
12854 1  -11.951337 -35.627658  1.67492
12855 1  -13.187981 -34.929726  1.67492
12856 1  -13.201876 -33.509793  1.67492
12857 1  -11.979126 -32.787794  1.67492
12858 1  -14.410731 -35.651725  1.67492
12859 1  -15.647376 -34.953792  1.67492
12860 1  -15.661271 -33.533860  1.67492
12861 1  -14.438521 -32.811861  1.67492
12862 1  -16.870125 -35.675791  1.67492
12863 1  -18.106770 -34.977859  1.67492
12864 1  -18.120665 -33.557927  1.67492
12865 1  -16.897915 -32.835927  1.67492
12866 1  -19.329520 -35.699858  1.67492
12867 1  -20.566164 -35.001925  1.67492
12868 1  -20.580059 -33.581993  1.67492
12869 1  -19.357310 -32.859994  1.67492
12870 1  -21.788914 -35.723925  1.67492
12871 1  -23.025559 -35.025992  1.67492
12872 1  -23.039454 -33.606060  1.67492
12873 1  -21.816704 -32.884061  1.67492
12874 1  -24.248309 -35.747991  1.67492
12875 1  -25.484953 -35.050059  1.67492
12876 1  -25.498848 -33.630127  1.67492
12877 1  -24.276098 -32.908127  1.67492
12878 1  -26.707703 -35.772058  1.67492
12879 1  -27.944348 -35.074125  1.67492
12880 1  -27.958243 -33.654193  1.67492
12881 1  -26.735493 -32.932194  1.67492
12882 1  -29.167097 -35.796125  1.67492
12883 1  -30.403742 -35.098192  1.67492
12884 1  -30.417637 -33.678260  1.67492
12885 1  -29.194887 -32.956261  1.67492
12886 1  -31.626492 -35.820191  1.67492
12887 1  -32.863136 -35.122259  1.67492
12888 1  -32.877031 -33.702327  1.67492
12889 1  -31.654282 -32.980327  1.67492
12890 1  -34.085886 -35.844258  1.67492
12891 1  -35.322531 -35.146325  1.67492
12892 1  -35.336426 -33.726393  1.67492
12893 1  -34.113676 -33.004394  1.67492
12894 1  -36.545281 -35.868325  1.67492
12895 1  -37.781925 -35.170392  1.67492
12896 1  -37.795820 -33.750460  1.67492
12897 1  -36.573070 -33.028461  1.67492
12898 1  -39.004675 -35.892391  1.67492
12899 1  -40.241320 -35.194459  1.67492
12900 1  -40.255215 -33.774527  1.67492
12901 1  -39.032465 -33.052527  1.67492
12902 1  -41.464069 -35.916458  1.67492
12903 1  -42.700714 -35.218525  1.67492
12904 1  -42.714609 -33.798593  1.67492
12905 1  -41.491859 -33.076594  1.67492
12906 1  -43.923464 -35.940525  1.67492
12907 1  -45.160108 -35.242592  1.67492
12908 1  -45.174003 -33.822660  1.67492
12909 1  -43.951254 -33.100661  1.67492
12910 1  -46.382858 -35.964591  1.67492
12911 1  -47.619503 -35.266659  1.67492
12912 1  -47.633398 -33.846727  1.67492
12913 1  -46.410648 -33.124727  1.67492
12914 1  -48.842253 -35.988658  1.67492
12915 1  -50.078897 -35.290725  1.67492
12916 1  -50.092792 -33.870793  1.67492
12917 1  -48.870042 -33.148794  1.67492
12918 1  -51.301647 -36.012725  1.67492
12919 1  -52.538292 -35.314792  1.67492
12920 1  -52.552187 -33.894860  1.67492
12921 1  -51.329437 -33.172860  1.67492
12922 1  -53.761041 -36.036791  1.67492
12923 1  -54.997686 -35.338858  1.67492
12924 1  -55.011581 -33.918926  1.67492
12925 1  -53.788831 -33.196927  1.67492
12926 1  -56.220436 -36.060858  1.67492
12927 1  -57.457080 -35.362925  1.67492
12928 1  -57.470975 -33.942993  1.67492
12929 1  -56.248226 -33.220994  1.67492
12930 1  -58.679830 -36.084924  1.67492
12931 1  -59.916475 -35.386992  1.67492
12932 1  -59.930370 -33.967060  1.67492
12933 1  -58.707620 -33.245060  1.67492
12934 1  -61.139225 -36.108991  1.67492
12935 1  -62.375869 -35.411058  1.67492
12936 1  -62.389764 -33.991126  1.67492
12937 1  -61.167014 -33.269127  1.67492
12938 1  -63.598619 -36.133058  1.67492
12939 1  -64.835264 -35.435125  1.67492
12940 1  -64.849159 -34.015193  1.67492
12941 1  -63.626409 -33.293194  1.67492
12942 1  -66.058013 -36.157124  1.67492
12943 1  -67.294658 -35.459192  1.67492
12944 1  -67.308553 -34.039260  1.67492
12945 1  -66.085803 -33.317260  1.67492
12946 1  -68.517408 -36.181191  1.67492
12947 1  -69.754052 -35.483258  1.67492
12948 1  -69.767947 -34.063326  1.67492
12949 1  -68.545198 -33.341327  1.67492
12950 1  -70.976802 -36.205258  1.67492
12951 1  -72.213447 -35.507325  1.67492
12952 1  -72.227342 -34.087393  1.67492
12953 1  -71.004592 -33.365394  1.67492
12954 1  -73.436197 -36.229324  1.67492
12955 1  -74.672841 -35.531392  1.67492
12956 1  -74.686736 -34.111460  1.67492
12957 1  -73.463986 -33.389460  1.67492
12958 1  -75.895591 -36.253391  1.67492
12959 1  -77.132236 -35.555458  1.67492
12960 1  -77.146130 -34.135526  1.67492
12961 1  -75.923381 -33.413527  1.67492
12962 1  -78.354985 -36.277458  1.67492
12963 1  -79.591630 -35.579525  1.67492
12964 1  -79.605525 -34.159593  1.67492
12965 1  -78.382775 -33.437594  1.67492
12966 1  -80.814380 -36.301524  1.67492
12967 1  -82.051024 -35.603592  1.67492
12968 1  -82.064919 -34.183660  1.67492
12969 1  -80.842170 -33.461660  1.67492
12970 1  -83.273774 -36.325591  1.67492
12971 1  -84.510419 -35.627658  1.67492
12972 1  -84.524314 -34.207726  1.67492
12973 1  -83.301564 -33.485727  1.67492
12974 1  -85.733169 -36.349658  1.67492
12975 1  -86.969813 -35.651725  1.67492
12976 1  -86.983708 -34.231793  1.67492
12977 1  -85.760958 -33.509793  1.67492
12978 1  -88.192563 -36.373724  1.67492
12979 1  -89.429208 -35.675791  1.67492
12980 1  -89.443102 -34.255859  1.67492
12981 1  -88.220353 -33.533860  1.67492
12982 1  -90.651957 -36.397791  1.67492
12983 1  -91.888602 -35.699858  1.67492
12984 1  -91.902497 -34.279926  1.67492
12985 1  -90.679747 -33.557927  1.67492
12986 1  -93.111352 -36.421857  1.67492
12987 1  -94.347996 -35.723925  1.67492
12988 1  -94.361891 -34.303993  1.67492
12989 1  -93.139142 -33.581993  1.67492
12990 1  -95.570746 -36.445924  1.67492
12991 1  -96.807391 -35.747991  1.67492
12992 1  -96.821286 -34.328059  1.67492
12993 1  -95.598536 -33.606060  1.67492
12994 1  -98.030141 -36.469991  1.67492
12995 1  -99.266785 -35.772058  1.67492
12996 1  -99.280680 -34.352126  1.67492
12997 1  -98.057930 -33.630127  1.67492
12998 1 -100.489535 -36.494057  1.67492
12999 1 -101.726180 -35.796125  1.67492
13000 1 -101.740074 -34.376193  1.67492
13001 1 -100.517325 -33.654193  1.67492
13002 1 -102.948929 -36.518124  1.67492
13003 1 -104.185574 -35.820191  1.67492
13004 1 -104.199469 -34.400259  1.67492
13005 1 -102.976719 -33.678260  1.67492
13006 1 -105.408324 -36.542191  1.67492
13007 1 -106.644968 -35.844258  1.67492
13008 1 -106.658863 -34.424326  1.67492
13009 1 -105.436113 -33.702327  1.67492
13010 1 -107.867718 -36.566257  1.67492
13011 1 -107.895508 -33.726393  1.67492
13012 1  108.517304 -30.188597  1.67492
13013 1  107.280659 -29.490664  1.67492
13014 1  107.266765 -28.070732  1.67492
13015 1  108.489514 -27.348733  1.67492
13016 1  106.057910 -30.212663  1.67492
13017 1  104.821265 -29.514731  1.67492
13018 1  104.807370 -28.094799  1.67492
13019 1  106.030120 -27.372799  1.67492
13020 1  103.598515 -30.236730  1.67492
13021 1  102.361871 -29.538797  1.67492
13022 1  102.347976 -28.118865  1.67492
13023 1  103.570726 -27.396866  1.67492
13024 1  101.139121 -30.260797  1.67492
13025 1   99.902476 -29.562864  1.67492
13026 1   99.888581 -28.142932  1.67492
13027 1  101.111331 -27.420932  1.67492
13028 1   98.679727 -30.284863  1.67492
13029 1   97.443082 -29.586930  1.67492
13030 1   97.429187 -28.166998  1.67492
13031 1   98.651937 -27.444999  1.67492
13032 1   96.220332 -30.308930  1.67492
13033 1   94.983687 -29.610997  1.67492
13034 1   94.969793 -28.191065  1.67492
13035 1   96.192542 -27.469066  1.67492
13036 1   93.760938 -30.332996  1.67492
13037 1   92.524293 -29.635064  1.67492
13038 1   92.510398 -28.215132  1.67492
13039 1   93.733148 -27.493132  1.67492
13040 1   91.301543 -30.357063  1.67492
13041 1   90.064899 -29.659130  1.67492
13042 1   90.051004 -28.239198  1.67492
13043 1   91.273754 -27.517199  1.67492
13044 1   88.842149 -30.381130  1.67492
13045 1   87.605504 -29.683197  1.67492
13046 1   87.591609 -28.263265  1.67492
13047 1   88.814359 -27.541266  1.67492
13048 1   86.382755 -30.405196  1.67492
13049 1   85.146110 -29.707264  1.67492
13050 1   85.132215 -28.287332  1.67492
13051 1   86.354965 -27.565332  1.67492
13052 1   83.923360 -30.429263  1.67492
13053 1   82.686715 -29.731330  1.67492
13054 1   82.672821 -28.311398  1.67492
13055 1   83.895570 -27.589399  1.67492
13056 1   81.463966 -30.453330  1.67492
13057 1   80.227321 -29.755397  1.67492
13058 1   80.213426 -28.335465  1.67492
13059 1   81.436176 -27.613466  1.67492
13060 1   79.004571 -30.477396  1.67492
13061 1   77.767927 -29.779464  1.67492
13062 1   77.754032 -28.359532  1.67492
13063 1   78.976782 -27.637532  1.67492
13064 1   76.545177 -30.501463  1.67492
13065 1   75.308532 -29.803530  1.67492
13066 1   75.294637 -28.383598  1.67492
13067 1   76.517387 -27.661599  1.67492
13068 1   74.085783 -30.525530  1.67492
13069 1   72.849138 -29.827597  1.67492
13070 1   72.835243 -28.407665  1.67492
13071 1   74.057993 -27.685666  1.67492
13072 1   71.626388 -30.549596  1.67492
13073 1   70.389744 -29.851664  1.67492
13074 1   70.375849 -28.431732  1.67492
13075 1   71.598598 -27.709732  1.67492
13076 1   69.166994 -30.573663  1.67492
13077 1   67.930349 -29.875730  1.67492
13078 1   67.916454 -28.455798  1.67492
13079 1   69.139204 -27.733799  1.67492
13080 1   66.707599 -30.597730  1.67492
13081 1   65.470955 -29.899797  1.67492
13082 1   65.457060 -28.479865  1.67492
13083 1   66.679810 -27.757865  1.67492
13084 1   64.248205 -30.621796  1.67492
13085 1   63.011560 -29.923863  1.67492
13086 1   62.997665 -28.503931  1.67492
13087 1   64.220415 -27.781932  1.67492
13088 1   61.788811 -30.645863  1.67492
13089 1   60.552166 -29.947930  1.67492
13090 1   60.538271 -28.527998  1.67492
13091 1   61.761021 -27.805999  1.67492
13092 1   59.329416 -30.669929  1.67492
13093 1   58.092772 -29.971997  1.67492
13094 1   58.078877 -28.552065  1.67492
13095 1   59.301626 -27.830065  1.67492
13096 1   56.870022 -30.693996  1.67492
13097 1   55.633377 -29.996063  1.67492
13098 1   55.619482 -28.576131  1.67492
13099 1   56.842232 -27.854132  1.67492
13100 1   54.410627 -30.718063  1.67492
13101 1   53.173983 -30.020130  1.67492
13102 1   53.160088 -28.600198  1.67492
13103 1   54.382838 -27.878199  1.67492
13104 1   51.951233 -30.742129  1.67492
13105 1   50.714588 -30.044197  1.67492
13106 1   50.700693 -28.624265  1.67492
13107 1   51.923443 -27.902265  1.67492
13108 1   49.491839 -30.766196  1.67492
13109 1   48.255194 -30.068263  1.67492
13110 1   48.241299 -28.648331  1.67492
13111 1   49.464049 -27.926332  1.67492
13112 1   47.032444 -30.790263  1.67492
13113 1   45.795800 -30.092330  1.67492
13114 1   45.781905 -28.672398  1.67492
13115 1   47.004654 -27.950399  1.67492
13116 1   44.573050 -30.814329  1.67492
13117 1   43.336405 -30.116397  1.67492
13118 1   43.322510 -28.696465  1.67492
13119 1   44.545260 -27.974465  1.67492
13120 1   42.113655 -30.838396  1.67492
13121 1   40.877011 -30.140463  1.67492
13122 1   40.863116 -28.720531  1.67492
13123 1   42.085866 -27.998532  1.67492
13124 1   39.654261 -30.862463  1.67492
13125 1   38.417616 -30.164530  1.67492
13126 1   38.403721 -28.744598  1.67492
13127 1   39.626471 -28.022599  1.67492
13128 1   37.194867 -30.886529  1.67492
13129 1   35.958222 -30.188597  1.67492
13130 1   35.944327 -28.768665  1.67492
13131 1   37.167077 -28.046665  1.67492
13132 1   34.735472 -30.910596  1.67492
13133 1   33.498828 -30.212663  1.67492
13134 1   33.484933 -28.792731  1.67492
13135 1   34.707682 -28.070732  1.67492
13136 1   32.276078 -30.934663  1.67492
13137 1   31.039433 -30.236730  1.67492
13138 1   31.025538 -28.816798  1.67492
13139 1   32.248288 -28.094799  1.67492
13140 1   29.816683 -30.958729  1.67492
13141 1   28.580039 -30.260797  1.67492
13142 1   28.566144 -28.840864  1.67492
13143 1   29.788894 -28.118865  1.67492
13144 1   27.357289 -30.982796  1.67492
13145 1   26.120644 -30.284863  1.67492
13146 1   26.106749 -28.864931  1.67492
13147 1   27.329499 -28.142932  1.67492
13148 1   24.897895 -31.006862  1.67492
13149 1   23.661250 -30.308930  1.67492
13150 1   23.647355 -28.888998  1.67492
13151 1   24.870105 -28.166998  1.67492
13152 1   22.438500 -31.030929  1.67492
13153 1   21.201856 -30.332996  1.67492
13154 1   21.187961 -28.913064  1.67492
13155 1   22.410710 -28.191065  1.67492
13156 1   19.979106 -31.054996  1.67492
13157 1   18.742461 -30.357063  1.67492
13158 1   18.728566 -28.937131  1.67492
13159 1   19.951316 -28.215132  1.67492
13160 1   17.519711 -31.079062  1.67492
13161 1   16.283067 -30.381130  1.67492
13162 1   16.269172 -28.961198  1.67492
13163 1   17.491922 -28.239198  1.67492
13164 1   15.060317 -31.103129  1.67492
13165 1   13.823672 -30.405196  1.67492
13166 1   13.809778 -28.985264  1.67492
13167 1   15.032527 -28.263265  1.67492
13168 1   12.600923 -31.127196  1.67492
13169 1   11.364278 -30.429263  1.67492
13170 1   11.350383 -29.009331  1.67492
13171 1   12.573133 -28.287332  1.67492
13172 1   10.141528 -31.151262  1.67492
13173 1    8.904884 -30.453330  1.67492
13174 1    8.890989 -29.033398  1.67492
13175 1   10.113738 -28.311398  1.67492
13176 1    7.682134 -31.175329  1.67492
13177 1    6.445489 -30.477396  1.67492
13178 1    6.431594 -29.057464  1.67492
13179 1    7.654344 -28.335465  1.67492
13180 1    5.222739 -31.199396  1.67492
13181 1    3.986095 -30.501463  1.67492
13182 1    3.972200 -29.081531  1.67492
13183 1    5.194950 -28.359532  1.67492
13184 1    2.763345 -31.223462  1.67492
13185 1    1.526700 -30.525530  1.67492
13186 1    1.512806 -29.105598  1.67492
13187 1    2.735555 -28.383598  1.67492
13188 1    0.303951 -31.247529  1.67492
13189 1   -0.932694 -30.549596  1.67492
13190 1   -0.946589 -29.129664  1.67492
13191 1    0.276161 -28.407665  1.67492
13192 1   -2.155444 -31.271596  1.67492
13193 1   -3.392088 -30.573663  1.67492
13194 1   -3.405983 -29.153731  1.67492
13195 1   -2.183234 -28.431732  1.67492
13196 1   -4.614838 -31.295662  1.67492
13197 1   -5.851483 -30.597730  1.67492
13198 1   -5.865378 -29.177798  1.67492
13199 1   -4.642628 -28.455798  1.67492
13200 1   -7.074233 -31.319729  1.67492
13201 1   -8.310877 -30.621796  1.67492
13202 1   -8.324772 -29.201864  1.67492
13203 1   -7.102022 -28.479865  1.67492
13204 1   -9.533627 -31.343796  1.67492
13205 1  -10.770272 -30.645863  1.67492
13206 1  -10.784166 -29.225931  1.67492
13207 1   -9.561417 -28.503931  1.67492
13208 1  -11.993021 -31.367862  1.67492
13209 1  -13.229666 -30.669929  1.67492
13210 1  -13.243561 -29.249997  1.67492
13211 1  -12.020811 -28.527998  1.67492
13212 1  -14.452416 -31.391929  1.67492
13213 1  -15.689060 -30.693996  1.67492
13214 1  -15.702955 -29.274064  1.67492
13215 1  -14.480205 -28.552065  1.67492
13216 1  -16.911810 -31.415995  1.67492
13217 1  -18.148455 -30.718063  1.67492
13218 1  -18.162350 -29.298131  1.67492
13219 1  -16.939600 -28.576131  1.67492
13220 1  -19.371205 -31.440062  1.67492
13221 1  -20.607849 -30.742129  1.67492
13222 1  -20.621744 -29.322197  1.67492
13223 1  -19.398994 -28.600198  1.67492
13224 1  -21.830599 -31.464129  1.67492
13225 1  -23.067244 -30.766196  1.67492
13226 1  -23.081138 -29.346264  1.67492
13227 1  -21.858389 -28.624265  1.67492
13228 1  -24.289993 -31.488195  1.67492
13229 1  -25.526638 -30.790263  1.67492
13230 1  -25.540533 -29.370331  1.67492
13231 1  -24.317783 -28.648331  1.67492
13232 1  -26.749388 -31.512262  1.67492
13233 1  -27.986032 -30.814329  1.67492
13234 1  -27.999927 -29.394397  1.67492
13235 1  -26.777177 -28.672398  1.67492
13236 1  -29.208782 -31.536329  1.67492
13237 1  -30.445427 -30.838396  1.67492
13238 1  -30.459322 -29.418464  1.67492
13239 1  -29.236572 -28.696465  1.67492
13240 1  -31.668176 -31.560395  1.67492
13241 1  -32.904821 -30.862463  1.67492
13242 1  -32.918716 -29.442531  1.67492
13243 1  -31.695966 -28.720531  1.67492
13244 1  -34.127571 -31.584462  1.67492
13245 1  -35.364216 -30.886529  1.67492
13246 1  -35.378110 -29.466597  1.67492
13247 1  -34.155361 -28.744598  1.67492
13248 1  -36.586965 -31.608529  1.67492
13249 1  -37.823610 -30.910596  1.67492
13250 1  -37.837505 -29.490664  1.67492
13251 1  -36.614755 -28.768665  1.67492
13252 1  -39.046360 -31.632595  1.67492
13253 1  -40.283004 -30.934663  1.67492
13254 1  -40.296899 -29.514731  1.67492
13255 1  -39.074149 -28.792731  1.67492
13256 1  -41.505754 -31.656662  1.67492
13257 1  -42.742399 -30.958729  1.67492
13258 1  -42.756294 -29.538797  1.67492
13259 1  -41.533544 -28.816798  1.67492
13260 1  -43.965148 -31.680729  1.67492
13261 1  -45.201793 -30.982796  1.67492
13262 1  -45.215688 -29.562864  1.67492
13263 1  -43.992938 -28.840864  1.67492
13264 1  -46.424543 -31.704795  1.67492
13265 1  -47.661188 -31.006862  1.67492
13266 1  -47.675082 -29.586930  1.67492
13267 1  -46.452333 -28.864931  1.67492
13268 1  -48.883937 -31.728862  1.67492
13269 1  -50.120582 -31.030929  1.67492
13270 1  -50.134477 -29.610997  1.67492
13271 1  -48.911727 -28.888998  1.67492
13272 1  -51.343332 -31.752928  1.67492
13273 1  -52.579976 -31.054996  1.67492
13274 1  -52.593871 -29.635064  1.67492
13275 1  -51.371121 -28.913064  1.67492
13276 1  -53.802726 -31.776995  1.67492
13277 1  -55.039371 -31.079062  1.67492
13278 1  -55.053266 -29.659130  1.67492
13279 1  -53.830516 -28.937131  1.67492
13280 1  -56.262120 -31.801062  1.67492
13281 1  -57.498765 -31.103129  1.67492
13282 1  -57.512660 -29.683197  1.67492
13283 1  -56.289910 -28.961198  1.67492
13284 1  -58.721515 -31.825128  1.67492
13285 1  -59.958159 -31.127196  1.67492
13286 1  -59.972054 -29.707264  1.67492
13287 1  -58.749305 -28.985264  1.67492
13288 1  -61.180909 -31.849195  1.67492
13289 1  -62.417554 -31.151262  1.67492
13290 1  -62.431449 -29.731330  1.67492
13291 1  -61.208699 -29.009331  1.67492
13292 1  -63.640304 -31.873262  1.67492
13293 1  -64.876948 -31.175329  1.67492
13294 1  -64.890843 -29.755397  1.67492
13295 1  -63.668093 -29.033398  1.67492
13296 1  -66.099698 -31.897328  1.67492
13297 1  -67.336343 -31.199396  1.67492
13298 1  -67.350238 -29.779464  1.67492
13299 1  -66.127488 -29.057464  1.67492
13300 1  -68.559092 -31.921395  1.67492
13301 1  -69.795737 -31.223462  1.67492
13302 1  -69.809632 -29.803530  1.67492
13303 1  -68.586882 -29.081531  1.67492
13304 1  -71.018487 -31.945462  1.67492
13305 1  -72.255131 -31.247529  1.67492
13306 1  -72.269026 -29.827597  1.67492
13307 1  -71.046277 -29.105598  1.67492
13308 1  -73.477881 -31.969528  1.67492
13309 1  -74.714526 -31.271596  1.67492
13310 1  -74.728421 -29.851664  1.67492
13311 1  -73.505671 -29.129664  1.67492
13312 1  -75.937276 -31.993595  1.67492
13313 1  -77.173920 -31.295662  1.67492
13314 1  -77.187815 -29.875730  1.67492
13315 1  -75.965065 -29.153731  1.67492
13316 1  -78.396670 -32.017662  1.67492
13317 1  -79.633315 -31.319729  1.67492
13318 1  -79.647210 -29.899797  1.67492
13319 1  -78.424460 -29.177798  1.67492
13320 1  -80.856064 -32.041728  1.67492
13321 1  -82.092709 -31.343796  1.67492
13322 1  -82.106604 -29.923863  1.67492
13323 1  -80.883854 -29.201864  1.67492
13324 1  -83.315459 -32.065795  1.67492
13325 1  -84.552103 -31.367862  1.67492
13326 1  -84.565998 -29.947930  1.67492
13327 1  -83.343249 -29.225931  1.67492
13328 1  -85.774853 -32.089861  1.67492
13329 1  -87.011498 -31.391929  1.67492
13330 1  -87.025393 -29.971997  1.67492
13331 1  -85.802643 -29.249997  1.67492
13332 1  -88.234248 -32.113928  1.67492
13333 1  -89.470892 -31.415995  1.67492
13334 1  -89.484787 -29.996063  1.67492
13335 1  -88.262037 -29.274064  1.67492
13336 1  -90.693642 -32.137995  1.67492
13337 1  -91.930287 -31.440062  1.67492
13338 1  -91.944182 -30.020130  1.67492
13339 1  -90.721432 -29.298131  1.67492
13340 1  -93.153036 -32.162061  1.67492
13341 1  -94.389681 -31.464129  1.67492
13342 1  -94.403576 -30.044197  1.67492
13343 1  -93.180826 -29.322197  1.67492
13344 1  -95.612431 -32.186128  1.67492
13345 1  -96.849075 -31.488195  1.67492
13346 1  -96.862970 -30.068263  1.67492
13347 1  -95.640221 -29.346264  1.67492
13348 1  -98.071825 -32.210195  1.67492
13349 1  -99.308470 -31.512262  1.67492
13350 1  -99.322365 -30.092330  1.67492
13351 1  -98.099615 -29.370331  1.67492
13352 1 -100.531220 -32.234261  1.67492
13353 1 -101.767864 -31.536329  1.67492
13354 1 -101.781759 -30.116397  1.67492
13355 1 -100.559009 -29.394397  1.67492
13356 1 -102.990614 -32.258328  1.67492
13357 1 -104.227259 -31.560395  1.67492
13358 1 -104.241154 -30.140463  1.67492
13359 1 -103.018404 -29.418464  1.67492
13360 1 -105.450008 -32.282395  1.67492
13361 1 -106.686653 -31.584462  1.67492
13362 1 -106.700548 -30.164530  1.67492
13363 1 -105.477798 -29.442531  1.67492
13364 1 -107.909403 -32.306461  1.67492
13365 1 -107.937193 -29.466597  1.67492
13366 1  108.475619 -25.928801  1.67492
13367 1  107.238975 -25.230868  1.67492
13368 1  107.225080 -23.810936  1.67492
13369 1  108.447830 -23.088936  1.67492
13370 1  106.016225 -25.952867  1.67492
13371 1  104.779580 -25.254934  1.67492
13372 1  104.765686 -23.835002  1.67492
13373 1  105.988435 -23.113003  1.67492
13374 1  103.556831 -25.976934  1.67492
13375 1  102.320186 -25.279001  1.67492
13376 1  102.306291 -23.859069  1.67492
13377 1  103.529041 -23.137070  1.67492
13378 1  101.097436 -26.001000  1.67492
13379 1   99.860792 -25.303068  1.67492
13380 1   99.846897 -23.883136  1.67492
13381 1  101.069646 -23.161136  1.67492
13382 1   98.638042 -26.025067  1.67492
13383 1   97.401397 -25.327134  1.67492
13384 1   97.387502 -23.907202  1.67492
13385 1   98.610252 -23.185203  1.67492
13386 1   96.178647 -26.049134  1.67492
13387 1   94.942003 -25.351201  1.67492
13388 1   94.928108 -23.931269  1.67492
13389 1   96.150858 -23.209270  1.67492
13390 1   93.719253 -26.073200  1.67492
13391 1   92.482608 -25.375268  1.67492
13392 1   92.468714 -23.955336  1.67492
13393 1   93.691463 -23.233336  1.67492
13394 1   91.259859 -26.097267  1.67492
13395 1   90.023214 -25.399334  1.67492
13396 1   90.009319 -23.979402  1.67492
13397 1   91.232069 -23.257403  1.67492
13398 1   88.800464 -26.121334  1.67492
13399 1   87.563820 -25.423401  1.67492
13400 1   87.549925 -24.003469  1.67492
13401 1   88.772675 -23.281470  1.67492
13402 1   86.341070 -26.145400  1.67492
13403 1   85.104425 -25.447468  1.67492
13404 1   85.090530 -24.027536  1.67492
13405 1   86.313280 -23.305536  1.67492
13406 1   83.881675 -26.169467  1.67492
13407 1   82.645031 -25.471534  1.67492
13408 1   82.631136 -24.051602  1.67492
13409 1   83.853886 -23.329603  1.67492
13410 1   81.422281 -26.193534  1.67492
13411 1   80.185636 -25.495601  1.67492
13412 1   80.171742 -24.075669  1.67492
13413 1   81.394491 -23.353670  1.67492
13414 1   78.962887 -26.217600  1.67492
13415 1   77.726242 -25.519668  1.67492
13416 1   77.712347 -24.099736  1.67492
13417 1   78.935097 -23.377736  1.67492
13418 1   76.503492 -26.241667  1.67492
13419 1   75.266848 -25.543734  1.67492
13420 1   75.252953 -24.123802  1.67492
13421 1   76.475703 -23.401803  1.67492
13422 1   74.044098 -26.265734  1.67492
13423 1   72.807453 -25.567801  1.67492
13424 1   72.793558 -24.147869  1.67492
13425 1   74.016308 -23.425870  1.67492
13426 1   71.584704 -26.289800  1.67492
13427 1   70.348059 -25.591868  1.67492
13428 1   70.334164 -24.171935  1.67492
13429 1   71.556914 -23.449936  1.67492
13430 1   69.125309 -26.313867  1.67492
13431 1   67.888664 -25.615934  1.67492
13432 1   67.874770 -24.196002  1.67492
13433 1   69.097519 -23.474003  1.67492
13434 1   66.665915 -26.337933  1.67492
13435 1   65.429270 -25.640001  1.67492
13436 1   65.415375 -24.220069  1.67492
13437 1   66.638125 -23.498069  1.67492
13438 1   64.206520 -26.362000  1.67492
13439 1   62.969876 -25.664067  1.67492
13440 1   62.955981 -24.244135  1.67492
13441 1   64.178731 -23.522136  1.67492
13442 1   61.747126 -26.386067  1.67492
13443 1   60.510481 -25.688134  1.67492
13444 1   60.496586 -24.268202  1.67492
13445 1   61.719336 -23.546203  1.67492
13446 1   59.287732 -26.410133  1.67492
13447 1   58.051087 -25.712201  1.67492
13448 1   58.037192 -24.292269  1.67492
13449 1   59.259942 -23.570269  1.67492
13450 1   56.828337 -26.434200  1.67492
13451 1   55.591692 -25.736267  1.67492
13452 1   55.577798 -24.316335  1.67492
13453 1   56.800547 -23.594336  1.67492
13454 1   54.368943 -26.458267  1.67492
13455 1   53.132298 -25.760334  1.67492
13456 1   53.118403 -24.340402  1.67492
13457 1   54.341153 -23.618403  1.67492
13458 1   51.909548 -26.482333  1.67492
13459 1   50.672904 -25.784401  1.67492
13460 1   50.659009 -24.364469  1.67492
13461 1   51.881759 -23.642469  1.67492
13462 1   49.450154 -26.506400  1.67492
13463 1   48.213509 -25.808467  1.67492
13464 1   48.199614 -24.388535  1.67492
13465 1   49.422364 -23.666536  1.67492
13466 1   46.990760 -26.530467  1.67492
13467 1   45.754115 -25.832534  1.67492
13468 1   45.740220 -24.412602  1.67492
13469 1   46.962970 -23.690603  1.67492
13470 1   44.531365 -26.554533  1.67492
13471 1   43.294721 -25.856601  1.67492
13472 1   43.280826 -24.436669  1.67492
13473 1   44.503575 -23.714669  1.67492
13474 1   42.071971 -26.578600  1.67492
13475 1   40.835326 -25.880667  1.67492
13476 1   40.821431 -24.460735  1.67492
13477 1   42.044181 -23.738736  1.67492
13478 1   39.612576 -26.602667  1.67492
13479 1   38.375932 -25.904734  1.67492
13480 1   38.362037 -24.484802  1.67492
13481 1   39.584787 -23.762803  1.67492
13482 1   37.153182 -26.626733  1.67492
13483 1   35.916537 -25.928801  1.67492
13484 1   35.902642 -24.508869  1.67492
13485 1   37.125392 -23.786869  1.67492
13486 1   34.693788 -26.650800  1.67492
13487 1   33.457143 -25.952867  1.67492
13488 1   33.443248 -24.532935  1.67492
13489 1   34.665998 -23.810936  1.67492
13490 1   32.234393 -26.674867  1.67492
13491 1   30.997749 -25.976934  1.67492
13492 1   30.983854 -24.557002  1.67492
13493 1   32.206603 -23.835002  1.67492
13494 1   29.774999 -26.698933  1.67492
13495 1   28.538354 -26.001000  1.67492
13496 1   28.524459 -24.581068  1.67492
13497 1   29.747209 -23.859069  1.67492
13498 1   27.315604 -26.723000  1.67492
13499 1   26.078960 -26.025067  1.67492
13500 1   26.065065 -24.605135  1.67492
13501 1   27.287815 -23.883136  1.67492
13502 1   24.856210 -26.747066  1.67492
13503 1   23.619565 -26.049134  1.67492
13504 1   23.605670 -24.629202  1.67492
13505 1   24.828420 -23.907202  1.67492
13506 1   22.396816 -26.771133  1.67492
13507 1   21.160171 -26.073200  1.67492
13508 1   21.146276 -24.653268  1.67492
13509 1   22.369026 -23.931269  1.67492
13510 1   19.937421 -26.795200  1.67492
13511 1   18.700777 -26.097267  1.67492
13512 1   18.686882 -24.677335  1.67492
13513 1   19.909631 -23.955336  1.67492
13514 1   17.478027 -26.819266  1.67492
13515 1   16.241382 -26.121334  1.67492
13516 1   16.227487 -24.701402  1.67492
13517 1   17.450237 -23.979402  1.67492
13518 1   15.018632 -26.843333  1.67492
13519 1   13.781988 -26.145400  1.67492
13520 1   13.768093 -24.725468  1.67492
13521 1   14.990843 -24.003469  1.67492
13522 1   12.559238 -26.867400  1.67492
13523 1   11.322593 -26.169467  1.67492
13524 1   11.308698 -24.749535  1.67492
13525 1   12.531448 -24.027536  1.67492
13526 1   10.099844 -26.891466  1.67492
13527 1    8.863199 -26.193534  1.67492
13528 1    8.849304 -24.773602  1.67492
13529 1   10.072054 -24.051602  1.67492
13530 1    7.640449 -26.915533  1.67492
13531 1    6.403805 -26.217600  1.67492
13532 1    6.389910 -24.797668  1.67492
13533 1    7.612659 -24.075669  1.67492
13534 1    5.181055 -26.939600  1.67492
13535 1    3.944410 -26.241667  1.67492
13536 1    3.930515 -24.821735  1.67492
13537 1    5.153265 -24.099736  1.67492
13538 1    2.721660 -26.963666  1.67492
13539 1    1.485016 -26.265734  1.67492
13540 1    1.471121 -24.845802  1.67492
13541 1    2.693871 -24.123802  1.67492
13542 1    0.262266 -26.987733  1.67492
13543 1   -0.974379 -26.289800  1.67492
13544 1   -0.988274 -24.869868  1.67492
13545 1    0.234476 -24.147869  1.67492
13546 1   -2.197128 -27.011800  1.67492
13547 1   -3.433773 -26.313867  1.67492
13548 1   -3.447668 -24.893935  1.67492
13549 1   -2.224918 -24.171935  1.67492
13550 1   -4.656523 -27.035866  1.67492
13551 1   -5.893167 -26.337933  1.67492
13552 1   -5.907062 -24.918001  1.67492
13553 1   -4.684313 -24.196002  1.67492
13554 1   -7.115917 -27.059933  1.67492
13555 1   -8.352562 -26.362000  1.67492
13556 1   -8.366457 -24.942068  1.67492
13557 1   -7.143707 -24.220069  1.67492
13558 1   -9.575312 -27.083999  1.67492
13559 1  -10.811956 -26.386067  1.67492
13560 1  -10.825851 -24.966135  1.67492
13561 1   -9.603101 -24.244135  1.67492
13562 1  -12.034706 -27.108066  1.67492
13563 1  -13.271351 -26.410133  1.67492
13564 1  -13.285245 -24.990201  1.67492
13565 1  -12.062496 -24.268202  1.67492
13566 1  -14.494100 -27.132133  1.67492
13567 1  -15.730745 -26.434200  1.67492
13568 1  -15.744640 -25.014268  1.67492
13569 1  -14.521890 -24.292269  1.67492
13570 1  -16.953495 -27.156199  1.67492
13571 1  -18.190139 -26.458267  1.67492
13572 1  -18.204034 -25.038335  1.67492
13573 1  -16.981285 -24.316335  1.67492
13574 1  -19.412889 -27.180266  1.67492
13575 1  -20.649534 -26.482333  1.67492
13576 1  -20.663429 -25.062401  1.67492
13577 1  -19.440679 -24.340402  1.67492
13578 1  -21.872284 -27.204333  1.67492
13579 1  -23.108928 -26.506400  1.67492
13580 1  -23.122823 -25.086468  1.67492
13581 1  -21.900073 -24.364469  1.67492
13582 1  -24.331678 -27.228399  1.67492
13583 1  -25.568323 -26.530467  1.67492
13584 1  -25.582217 -25.110535  1.67492
13585 1  -24.359468 -24.388535  1.67492
13586 1  -26.791072 -27.252466  1.67492
13587 1  -28.027717 -26.554533  1.67492
13588 1  -28.041612 -25.134601  1.67492
13589 1  -26.818862 -24.412602  1.67492
13590 1  -29.250467 -27.276533  1.67492
13591 1  -30.487111 -26.578600  1.67492
13592 1  -30.501006 -25.158668  1.67492
13593 1  -29.278257 -24.436669  1.67492
13594 1  -31.709861 -27.300599  1.67492
13595 1  -32.946506 -26.602667  1.67492
13596 1  -32.960401 -25.182735  1.67492
13597 1  -31.737651 -24.460735  1.67492
13598 1  -34.169256 -27.324666  1.67492
13599 1  -35.405900 -26.626733  1.67492
13600 1  -35.419795 -25.206801  1.67492
13601 1  -34.197045 -24.484802  1.67492
13602 1  -36.628650 -27.348733  1.67492
13603 1  -37.865295 -26.650800  1.67492
13604 1  -37.879189 -25.230868  1.67492
13605 1  -36.656440 -24.508869  1.67492
13606 1  -39.088044 -27.372799  1.67492
13607 1  -40.324689 -26.674867  1.67492
13608 1  -40.338584 -25.254934  1.67492
13609 1  -39.115834 -24.532935  1.67492
13610 1  -41.547439 -27.396866  1.67492
13611 1  -42.784083 -26.698933  1.67492
13612 1  -42.797978 -25.279001  1.67492
13613 1  -41.575228 -24.557002  1.67492
13614 1  -44.006833 -27.420932  1.67492
13615 1  -45.243478 -26.723000  1.67492
13616 1  -45.257373 -25.303068  1.67492
13617 1  -44.034623 -24.581068  1.67492
13618 1  -46.466228 -27.444999  1.67492
13619 1  -47.702872 -26.747066  1.67492
13620 1  -47.716767 -25.327134  1.67492
13621 1  -46.494017 -24.605135  1.67492
13622 1  -48.925622 -27.469066  1.67492
13623 1  -50.162267 -26.771133  1.67492
13624 1  -50.176161 -25.351201  1.67492
13625 1  -48.953412 -24.629202  1.67492
13626 1  -51.385016 -27.493132  1.67492
13627 1  -52.621661 -26.795200  1.67492
13628 1  -52.635556 -25.375268  1.67492
13629 1  -51.412806 -24.653268  1.67492
13630 1  -53.844411 -27.517199  1.67492
13631 1  -55.081055 -26.819266  1.67492
13632 1  -55.094950 -25.399334  1.67492
13633 1  -53.872200 -24.677335  1.67492
13634 1  -56.303805 -27.541266  1.67492
13635 1  -57.540450 -26.843333  1.67492
13636 1  -57.554345 -25.423401  1.67492
13637 1  -56.331595 -24.701402  1.67492
13638 1  -58.763200 -27.565332  1.67492
13639 1  -59.999844 -26.867400  1.67492
13640 1  -60.013739 -25.447468  1.67492
13641 1  -58.790989 -24.725468  1.67492
13642 1  -61.222594 -27.589399  1.67492
13643 1  -62.459239 -26.891466  1.67492
13644 1  -62.473133 -25.471534  1.67492
13645 1  -61.250384 -24.749535  1.67492
13646 1  -63.681988 -27.613466  1.67492
13647 1  -64.918633 -26.915533  1.67492
13648 1  -64.932528 -25.495601  1.67492
13649 1  -63.709778 -24.773602  1.67492
13650 1  -66.141383 -27.637532  1.67492
13651 1  -67.378027 -26.939600  1.67492
13652 1  -67.391922 -25.519668  1.67492
13653 1  -66.169172 -24.797668  1.67492
13654 1  -68.600777 -27.661599  1.67492
13655 1  -69.837422 -26.963666  1.67492
13656 1  -69.851317 -25.543734  1.67492
13657 1  -68.628567 -24.821735  1.67492
13658 1  -71.060171 -27.685666  1.67492
13659 1  -72.296816 -26.987733  1.67492
13660 1  -72.310711 -25.567801  1.67492
13661 1  -71.087961 -24.845802  1.67492
13662 1  -73.519566 -27.709732  1.67492
13663 1  -74.756211 -27.011800  1.67492
13664 1  -74.770105 -25.591868  1.67492
13665 1  -73.547356 -24.869868  1.67492
13666 1  -75.978960 -27.733799  1.67492
13667 1  -77.215605 -27.035866  1.67492
13668 1  -77.229500 -25.615934  1.67492
13669 1  -76.006750 -24.893935  1.67492
13670 1  -78.438355 -27.757865  1.67492
13671 1  -79.674999 -27.059933  1.67492
13672 1  -79.688894 -25.640001  1.67492
13673 1  -78.466144 -24.918001  1.67492
13674 1  -80.897749 -27.781932  1.67492
13675 1  -82.134394 -27.083999  1.67492
13676 1  -82.148289 -25.664067  1.67492
13677 1  -80.925539 -24.942068  1.67492
13678 1  -83.357143 -27.805999  1.67492
13679 1  -84.593788 -27.108066  1.67492
13680 1  -84.607683 -25.688134  1.67492
13681 1  -83.384933 -24.966135  1.67492
13682 1  -85.816538 -27.830065  1.67492
13683 1  -87.053183 -27.132133  1.67492
13684 1  -87.067077 -25.712201  1.67492
13685 1  -85.844328 -24.990201  1.67492
13686 1  -88.275932 -27.854132  1.67492
13687 1  -89.512577 -27.156199  1.67492
13688 1  -89.526472 -25.736267  1.67492
13689 1  -88.303722 -25.014268  1.67492
13690 1  -90.735327 -27.878199  1.67492
13691 1  -91.971971 -27.180266  1.67492
13692 1  -91.985866 -25.760334  1.67492
13693 1  -90.763116 -25.038335  1.67492
13694 1  -93.194721 -27.902265  1.67492
13695 1  -94.431366 -27.204333  1.67492
13696 1  -94.445261 -25.784401  1.67492
13697 1  -93.222511 -25.062401  1.67492
13698 1  -95.654115 -27.926332  1.67492
13699 1  -96.890760 -27.228399  1.67492
13700 1  -96.904655 -25.808467  1.67492
13701 1  -95.681905 -25.086468  1.67492
13702 1  -98.113510 -27.950399  1.67492
13703 1  -99.350154 -27.252466  1.67492
13704 1  -99.364049 -25.832534  1.67492
13705 1  -98.141300 -25.110535  1.67492
13706 1 -100.572904 -27.974465  1.67492
13707 1 -101.809549 -27.276533  1.67492
13708 1 -101.823444 -25.856601  1.67492
13709 1 -100.600694 -25.134601  1.67492
13710 1 -103.032299 -27.998532  1.67492
13711 1 -104.268943 -27.300599  1.67492
13712 1 -104.282838 -25.880667  1.67492
13713 1 -103.060088 -25.158668  1.67492
13714 1 -105.491693 -28.022599  1.67492
13715 1 -106.728338 -27.324666  1.67492
13716 1 -106.742233 -25.904734  1.67492
13717 1 -105.519483 -25.182735  1.67492
13718 1 -107.951087 -28.046665  1.67492
13719 1 -107.978877 -25.206801  1.67492
13720 1  108.433935 -21.669004  1.67492
13721 1  107.197290 -20.971072  1.67492
13722 1  107.183395 -19.551140  1.67492
13723 1  108.406145 -18.829140  1.67492
13724 1  105.974540 -21.693071  1.67492
13725 1  104.737896 -20.995138  1.67492
13726 1  104.724001 -19.575206  1.67492
13727 1  105.946751 -18.853207  1.67492
13728 1  103.515146 -21.717138  1.67492
13729 1  102.278501 -21.019205  1.67492
13730 1  102.264606 -19.599273  1.67492
13731 1  103.487356 -18.877274  1.67492
13732 1  101.055752 -21.741204  1.67492
13733 1   99.819107 -21.043272  1.67492
13734 1   99.805212 -19.623340  1.67492
13735 1  101.027962 -18.901340  1.67492
13736 1   98.596357 -21.765271  1.67492
13737 1   97.359713 -21.067338  1.67492
13738 1   97.345818 -19.647406  1.67492
13739 1   98.568567 -18.925407  1.67492
13740 1   96.136963 -21.789338  1.67492
13741 1   94.900318 -21.091405  1.67492
13742 1   94.886423 -19.671473  1.67492
13743 1   96.109173 -18.949474  1.67492
13744 1   93.677568 -21.813404  1.67492
13745 1   92.440924 -21.115472  1.67492
13746 1   92.427029 -19.695540  1.67492
13747 1   93.649779 -18.973540  1.67492
13748 1   91.218174 -21.837471  1.67492
13749 1   89.981529 -21.139538  1.67492
13750 1   89.967635 -19.719606  1.67492
13751 1   91.190384 -18.997607  1.67492
13752 1   88.758780 -21.861538  1.67492
13753 1   87.522135 -21.163605  1.67492
13754 1   87.508240 -19.743673  1.67492
13755 1   88.730990 -19.021674  1.67492
13756 1   86.299385 -21.885604  1.67492
13757 1   85.062741 -21.187672  1.67492
13758 1   85.048846 -19.767740  1.67492
13759 1   86.271595 -19.045740  1.67492
13760 1   83.839991 -21.909671  1.67492
13761 1   82.603346 -21.211738  1.67492
13762 1   82.589451 -19.791806  1.67492
13763 1   83.812201 -19.069807  1.67492
13764 1   81.380596 -21.933738  1.67492
13765 1   80.143952 -21.235805  1.67492
13766 1   80.130057 -19.815873  1.67492
13767 1   81.352807 -19.093874  1.67492
13768 1   78.921202 -21.957804  1.67492
13769 1   77.684557 -21.259872  1.67492
13770 1   77.670663 -19.839940  1.67492
13771 1   78.893412 -19.117940  1.67492
13772 1   76.461808 -21.981871  1.67492
13773 1   75.225163 -21.283938  1.67492
13774 1   75.211268 -19.864006  1.67492
13775 1   76.434018 -19.142007  1.67492
13776 1   74.002413 -22.005937  1.67492
13777 1   72.765769 -21.308005  1.67492
13778 1   72.751874 -19.888073  1.67492
13779 1   73.974623 -19.166073  1.67492
13780 1   71.543019 -22.030004  1.67492
13781 1   70.306374 -21.332071  1.67492
13782 1   70.292479 -19.912139  1.67492
13783 1   71.515229 -19.190140  1.67492
13784 1   69.083624 -22.054071  1.67492
13785 1   67.846980 -21.356138  1.67492
13786 1   67.833085 -19.936206  1.67492
13787 1   69.055835 -19.214207  1.67492
13788 1   66.624230 -22.078137  1.67492
13789 1   65.387585 -21.380205  1.67492
13790 1   65.373691 -19.960273  1.67492
13791 1   66.596440 -19.238273  1.67492
13792 1   64.164836 -22.102204  1.67492
13793 1   62.928191 -21.404271  1.67492
13794 1   62.914296 -19.984339  1.67492
13795 1   64.137046 -19.262340  1.67492
13796 1   61.705441 -22.126271  1.67492
13797 1   60.468797 -21.428338  1.67492
13798 1   60.454902 -20.008406  1.67492
13799 1   61.677652 -19.286407  1.67492
13800 1   59.246047 -22.150337  1.67492
13801 1   58.009402 -21.452405  1.67492
13802 1   57.995507 -20.032473  1.67492
13803 1   59.218257 -19.310473  1.67492
13804 1   56.786652 -22.174404  1.67492
13805 1   55.550008 -21.476471  1.67492
13806 1   55.536113 -20.056539  1.67492
13807 1   56.758863 -19.334540  1.67492
13808 1   54.327258 -22.198471  1.67492
13809 1   53.090613 -21.500538  1.67492
13810 1   53.076719 -20.080606  1.67492
13811 1   54.299468 -19.358607  1.67492
13812 1   51.867864 -22.222537  1.67492
13813 1   50.631219 -21.524605  1.67492
13814 1   50.617324 -20.104673  1.67492
13815 1   51.840074 -19.382673  1.67492
13816 1   49.408469 -22.246604  1.67492
13817 1   48.171825 -21.548671  1.67492
13818 1   48.157930 -20.128739  1.67492
13819 1   49.380680 -19.406740  1.67492
13820 1   46.949075 -22.270671  1.67492
13821 1   45.712430 -21.572738  1.67492
13822 1   45.698535 -20.152806  1.67492
13823 1   46.921285 -19.430807  1.67492
13824 1   44.489680 -22.294737  1.67492
13825 1   43.253036 -21.596805  1.67492
13826 1   43.239141 -20.176873  1.67492
13827 1   44.461891 -19.454873  1.67492
13828 1   42.030286 -22.318804  1.67492
13829 1   40.793641 -21.620871  1.67492
13830 1   40.779747 -20.200939  1.67492
13831 1   42.002496 -19.478940  1.67492
13832 1   39.570892 -22.342871  1.67492
13833 1   38.334247 -21.644938  1.67492
13834 1   38.320352 -20.225006  1.67492
13835 1   39.543102 -19.503006  1.67492
13836 1   37.111497 -22.366937  1.67492
13837 1   35.874853 -21.669004  1.67492
13838 1   35.860958 -20.249072  1.67492
13839 1   37.083708 -19.527073  1.67492
13840 1   34.652103 -22.391004  1.67492
13841 1   33.415458 -21.693071  1.67492
13842 1   33.401563 -20.273139  1.67492
13843 1   34.624313 -19.551140  1.67492
13844 1   32.192709 -22.415070  1.67492
13845 1   30.956064 -21.717138  1.67492
13846 1   30.942169 -20.297206  1.67492
13847 1   32.164919 -19.575206  1.67492
13848 1   29.733314 -22.439137  1.67492
13849 1   28.496669 -21.741204  1.67492
13850 1   28.482775 -20.321272  1.67492
13851 1   29.705524 -19.599273  1.67492
13852 1   27.273920 -22.463204  1.67492
13853 1   26.037275 -21.765271  1.67492
13854 1   26.023380 -20.345339  1.67492
13855 1   27.246130 -19.623340  1.67492
13856 1   24.814525 -22.487270  1.67492
13857 1   23.577881 -21.789338  1.67492
13858 1   23.563986 -20.369406  1.67492
13859 1   24.786736 -19.647406  1.67492
13860 1   22.355131 -22.511337  1.67492
13861 1   21.118486 -21.813404  1.67492
13862 1   21.104591 -20.393472  1.67492
13863 1   22.327341 -19.671473  1.67492
13864 1   19.895737 -22.535404  1.67492
13865 1   18.659092 -21.837471  1.67492
13866 1   18.645197 -20.417539  1.67492
13867 1   19.867947 -19.695540  1.67492
13868 1   17.436342 -22.559470  1.67492
13869 1   16.199697 -21.861538  1.67492
13870 1   16.185803 -20.441606  1.67492
13871 1   17.408552 -19.719606  1.67492
13872 1   14.976948 -22.583537  1.67492
13873 1   13.740303 -21.885604  1.67492
13874 1   13.726408 -20.465672  1.67492
13875 1   14.949158 -19.743673  1.67492
13876 1   12.517553 -22.607604  1.67492
13877 1   11.280909 -21.909671  1.67492
13878 1   11.267014 -20.489739  1.67492
13879 1   12.489764 -19.767740  1.67492
13880 1   10.058159 -22.631670  1.67492
13881 1    8.821514 -21.933738  1.67492
13882 1    8.807619 -20.513806  1.67492
13883 1   10.030369 -19.791806  1.67492
13884 1    7.598765 -22.655737  1.67492
13885 1    6.362120 -21.957804  1.67492
13886 1    6.348225 -20.537872  1.67492
13887 1    7.570975 -19.815873  1.67492
13888 1    5.139370 -22.679804  1.67492
13889 1    3.902726 -21.981871  1.67492
13890 1    3.888831 -20.561939  1.67492
13891 1    5.111580 -19.839940  1.67492
13892 1    2.679976 -22.703870  1.67492
13893 1    1.443331 -22.005937  1.67492
13894 1    1.429436 -20.586005  1.67492
13895 1    2.652186 -19.864006  1.67492
13896 1    0.220581 -22.727937  1.67492
13897 1   -1.016063 -22.030004  1.67492
13898 1   -1.029958 -20.610072  1.67492
13899 1    0.192792 -19.888073  1.67492
13900 1   -2.238813 -22.752003  1.67492
13901 1   -3.475458 -22.054071  1.67492
13902 1   -3.489353 -20.634139  1.67492
13903 1   -2.266603 -19.912139  1.67492
13904 1   -4.698207 -22.776070  1.67492
13905 1   -5.934852 -22.078137  1.67492
13906 1   -5.948747 -20.658205  1.67492
13907 1   -4.725997 -19.936206  1.67492
13908 1   -7.157602 -22.800137  1.67492
13909 1   -8.394246 -22.102204  1.67492
13910 1   -8.408141 -20.682272  1.67492
13911 1   -7.185392 -19.960273  1.67492
13912 1   -9.616996 -22.824203  1.67492
13913 1  -10.853641 -22.126271  1.67492
13914 1  -10.867536 -20.706339  1.67492
13915 1   -9.644786 -19.984339  1.67492
13916 1  -12.076391 -22.848270  1.67492
13917 1  -13.313035 -22.150337  1.67492
13918 1  -13.326930 -20.730405  1.67492
13919 1  -12.104180 -20.008406  1.67492
13920 1  -14.535785 -22.872337  1.67492
13921 1  -15.772430 -22.174404  1.67492
13922 1  -15.786325 -20.754472  1.67492
13923 1  -14.563575 -20.032473  1.67492
13924 1  -16.995179 -22.896403  1.67492
13925 1  -18.231824 -22.198471  1.67492
13926 1  -18.245719 -20.778539  1.67492
13927 1  -17.022969 -20.056539  1.67492
13928 1  -19.454574 -22.920470  1.67492
13929 1  -20.691218 -22.222537  1.67492
13930 1  -20.705113 -20.802605  1.67492
13931 1  -19.482364 -20.080606  1.67492
13932 1  -21.913968 -22.944537  1.67492
13933 1  -23.150613 -22.246604  1.67492
13934 1  -23.164508 -20.826672  1.67492
13935 1  -21.941758 -20.104673  1.67492
13936 1  -24.373363 -22.968603  1.67492
13937 1  -25.610007 -22.270671  1.67492
13938 1  -25.623902 -20.850739  1.67492
13939 1  -24.401152 -20.128739  1.67492
13940 1  -26.832757 -22.992670  1.67492
13941 1  -28.069402 -22.294737  1.67492
13942 1  -28.083297 -20.874805  1.67492
13943 1  -26.860547 -20.152806  1.67492
13944 1  -29.292151 -23.016737  1.67492
13945 1  -30.528796 -22.318804  1.67492
13946 1  -30.542691 -20.898872  1.67492
13947 1  -29.319941 -20.176873  1.67492
13948 1  -31.751546 -23.040803  1.67492
13949 1  -32.988190 -22.342871  1.67492
13950 1  -33.002085 -20.922939  1.67492
13951 1  -31.779336 -20.200939  1.67492
13952 1  -34.210940 -23.064870  1.67492
13953 1  -35.447585 -22.366937  1.67492
13954 1  -35.461480 -20.947005  1.67492
13955 1  -34.238730 -20.225006  1.67492
13956 1  -36.670335 -23.088936  1.67492
13957 1  -37.906979 -22.391004  1.67492
13958 1  -37.920874 -20.971072  1.67492
13959 1  -36.698124 -20.249072  1.67492
13960 1  -39.129729 -23.113003  1.67492
13961 1  -40.366374 -22.415070  1.67492
13962 1  -40.380269 -20.995138  1.67492
13963 1  -39.157519 -20.273139  1.67492
13964 1  -41.589123 -23.137070  1.67492
13965 1  -42.825768 -22.439137  1.67492
13966 1  -42.839663 -21.019205  1.67492
13967 1  -41.616913 -20.297206  1.67492
13968 1  -44.048518 -23.161136  1.67492
13969 1  -45.285162 -22.463204  1.67492
13970 1  -45.299057 -21.043272  1.67492
13971 1  -44.076308 -20.321272  1.67492
13972 1  -46.507912 -23.185203  1.67492
13973 1  -47.744557 -22.487270  1.67492
13974 1  -47.758452 -21.067338  1.67492
13975 1  -46.535702 -20.345339  1.67492
13976 1  -48.967307 -23.209270  1.67492
13977 1  -50.203951 -22.511337  1.67492
13978 1  -50.217846 -21.091405  1.67492
13979 1  -48.995096 -20.369406  1.67492
13980 1  -51.426701 -23.233336  1.67492
13981 1  -52.663346 -22.535404  1.67492
13982 1  -52.677240 -21.115472  1.67492
13983 1  -51.454491 -20.393472  1.67492
13984 1  -53.886095 -23.257403  1.67492
13985 1  -55.122740 -22.559470  1.67492
13986 1  -55.136635 -21.139538  1.67492
13987 1  -53.913885 -20.417539  1.67492
13988 1  -56.345490 -23.281470  1.67492
13989 1  -57.582134 -22.583537  1.67492
13990 1  -57.596029 -21.163605  1.67492
13991 1  -56.373280 -20.441606  1.67492
13992 1  -58.804884 -23.305536  1.67492
13993 1  -60.041529 -22.607604  1.67492
13994 1  -60.055424 -21.187672  1.67492
13995 1  -58.832674 -20.465672  1.67492
13996 1  -61.264279 -23.329603  1.67492
13997 1  -62.500923 -22.631670  1.67492
13998 1  -62.514818 -21.211738  1.67492
13999 1  -61.292068 -20.489739  1.67492
14000 1  -63.723673 -23.353670  1.67492
14001 1  -64.960318 -22.655737  1.67492
14002 1  -64.974212 -21.235805  1.67492
14003 1  -63.751463 -20.513806  1.67492
14004 1  -66.183067 -23.377736  1.67492
14005 1  -67.419712 -22.679804  1.67492
14006 1  -67.433607 -21.259872  1.67492
14007 1  -66.210857 -20.537872  1.67492
14008 1  -68.642462 -23.401803  1.67492
14009 1  -69.879106 -22.703870  1.67492
14010 1  -69.893001 -21.283938  1.67492
14011 1  -68.670252 -20.561939  1.67492
14012 1  -71.101856 -23.425870  1.67492
14013 1  -72.338501 -22.727937  1.67492
14014 1  -72.352396 -21.308005  1.67492
14015 1  -71.129646 -20.586005  1.67492
14016 1  -73.561251 -23.449936  1.67492
14017 1  -74.797895 -22.752003  1.67492
14018 1  -74.811790 -21.332071  1.67492
14019 1  -73.589040 -20.610072  1.67492
14020 1  -76.020645 -23.474003  1.67492
14021 1  -77.257290 -22.776070  1.67492
14022 1  -77.271184 -21.356138  1.67492
14023 1  -76.048435 -20.634139  1.67492
14024 1  -78.480039 -23.498069  1.67492
14025 1  -79.716684 -22.800137  1.67492
14026 1  -79.730579 -21.380205  1.67492
14027 1  -78.507829 -20.658205  1.67492
14028 1  -80.939434 -23.522136  1.67492
14029 1  -82.176078 -22.824203  1.67492
14030 1  -82.189973 -21.404271  1.67492
14031 1  -80.967223 -20.682272  1.67492
14032 1  -83.398828 -23.546203  1.67492
14033 1  -84.635473 -22.848270  1.67492
14034 1  -84.649368 -21.428338  1.67492
14035 1  -83.426618 -20.706339  1.67492
14036 1  -85.858223 -23.570269  1.67492
14037 1  -87.094867 -22.872337  1.67492
14038 1  -87.108762 -21.452405  1.67492
14039 1  -85.886012 -20.730405  1.67492
14040 1  -88.317617 -23.594336  1.67492
14041 1  -89.554262 -22.896403  1.67492
14042 1  -89.568156 -21.476471  1.67492
14043 1  -88.345407 -20.754472  1.67492
14044 1  -90.777011 -23.618403  1.67492
14045 1  -92.013656 -22.920470  1.67492
14046 1  -92.027551 -21.500538  1.67492
14047 1  -90.804801 -20.778539  1.67492
14048 1  -93.236406 -23.642469  1.67492
14049 1  -94.473050 -22.944537  1.67492
14050 1  -94.486945 -21.524605  1.67492
14051 1  -93.264195 -20.802605  1.67492
14052 1  -95.695800 -23.666536  1.67492
14053 1  -96.932445 -22.968603  1.67492
14054 1  -96.946340 -21.548671  1.67492
14055 1  -95.723590 -20.826672  1.67492
14056 1  -98.155194 -23.690603  1.67492
14057 1  -99.391839 -22.992670  1.67492
14058 1  -99.405734 -21.572738  1.67492
14059 1  -98.182984 -20.850739  1.67492
14060 1 -100.614589 -23.714669  1.67492
14061 1 -101.851234 -23.016737  1.67492
14062 1 -101.865128 -21.596805  1.67492
14063 1 -100.642379 -20.874805  1.67492
14064 1 -103.073983 -23.738736  1.67492
14065 1 -104.310628 -23.040803  1.67492
14066 1 -104.324523 -21.620871  1.67492
14067 1 -103.101773 -20.898872  1.67492
14068 1 -105.533378 -23.762803  1.67492
14069 1 -106.770022 -23.064870  1.67492
14070 1 -106.783917 -21.644938  1.67492
14071 1 -105.561167 -20.922939  1.67492
14072 1 -107.992772 -23.786869  1.67492
14073 1 -108.020562 -20.947005  1.67492
14074 1  108.392250 -17.409208  1.67492
14075 1  107.155606 -16.711276  1.67492
14076 1  107.141711 -15.291344  1.67492
14077 1  108.364460 -14.569344  1.67492
14078 1  105.932856 -17.433275  1.67492
14079 1  104.696211 -16.735342  1.67492
14080 1  104.682316 -15.315410  1.67492
14081 1  105.905066 -14.593411  1.67492
14082 1  103.473461 -17.457342  1.67492
14083 1  102.236817 -16.759409  1.67492
14084 1  102.222922 -15.339477  1.67492
14085 1  103.445672 -14.617478  1.67492
14086 1  101.014067 -17.481408  1.67492
14087 1   99.777422 -16.783476  1.67492
14088 1   99.763527 -15.363544  1.67492
14089 1  100.986277 -14.641544  1.67492
14090 1   98.554673 -17.505475  1.67492
14091 1   97.318028 -16.807542  1.67492
14092 1   97.304133 -15.387610  1.67492
14093 1   98.526883 -14.665611  1.67492
14094 1   96.095278 -17.529542  1.67492
14095 1   94.858634 -16.831609  1.67492
14096 1   94.844739 -15.411677  1.67492
14097 1   96.067488 -14.689678  1.67492
14098 1   93.635884 -17.553608  1.67492
14099 1   92.399239 -16.855676  1.67492
14100 1   92.385344 -15.435744  1.67492
14101 1   93.608094 -14.713744  1.67492
14102 1   91.176489 -17.577675  1.67492
14103 1   89.939845 -16.879742  1.67492
14104 1   89.925950 -15.459810  1.67492
14105 1   91.148700 -14.737811  1.67492
14106 1   88.717095 -17.601742  1.67492
14107 1   87.480450 -16.903809  1.67492
14108 1   87.466555 -15.483877  1.67492
14109 1   88.689305 -14.761878  1.67492
14110 1   86.257701 -17.625808  1.67492
14111 1   85.021056 -16.927876  1.67492
14112 1   85.007161 -15.507944  1.67492
14113 1   86.229911 -14.785944  1.67492
14114 1   83.798306 -17.649875  1.67492
14115 1   82.561662 -16.951942  1.67492
14116 1   82.547767 -15.532010  1.67492
14117 1   83.770516 -14.810011  1.67492
14118 1   81.338912 -17.673942  1.67492
14119 1   80.102267 -16.976009  1.67492
14120 1   80.088372 -15.556077  1.67492
14121 1   81.311122 -14.834077  1.67492
14122 1   78.879517 -17.698008  1.67492
14123 1   77.642873 -17.000075  1.67492
14124 1   77.628978 -15.580143  1.67492
14125 1   78.851728 -14.858144  1.67492
14126 1   76.420123 -17.722075  1.67492
14127 1   75.183478 -17.024142  1.67492
14128 1   75.169583 -15.604210  1.67492
14129 1   76.392333 -14.882211  1.67492
14130 1   73.960729 -17.746141  1.67492
14131 1   72.724084 -17.048209  1.67492
14132 1   72.710189 -15.628277  1.67492
14133 1   73.932939 -14.906277  1.67492
14134 1   71.501334 -17.770208  1.67492
14135 1   70.264690 -17.072275  1.67492
14136 1   70.250795 -15.652343  1.67492
14137 1   71.473544 -14.930344  1.67492
14138 1   69.041940 -17.794275  1.67492
14139 1   67.805295 -17.096342  1.67492
14140 1   67.791400 -15.676410  1.67492
14141 1   69.014150 -14.954411  1.67492
14142 1   66.582545 -17.818341  1.67492
14143 1   65.345901 -17.120409  1.67492
14144 1   65.332006 -15.700477  1.67492
14145 1   66.554756 -14.978477  1.67492
14146 1   64.123151 -17.842408  1.67492
14147 1   62.886506 -17.144475  1.67492
14148 1   62.872611 -15.724543  1.67492
14149 1   64.095361 -15.002544  1.67492
14150 1   61.663757 -17.866475  1.67492
14151 1   60.427112 -17.168542  1.67492
14152 1   60.413217 -15.748610  1.67492
14153 1   61.635967 -15.026611  1.67492
14154 1   59.204362 -17.890541  1.67492
14155 1   57.967718 -17.192609  1.67492
14156 1   57.953823 -15.772677  1.67492
14157 1   59.176572 -15.050677  1.67492
14158 1   56.744968 -17.914608  1.67492
14159 1   55.508323 -17.216675  1.67492
14160 1   55.494428 -15.796743  1.67492
14161 1   56.717178 -15.074744  1.67492
14162 1   54.285573 -17.938675  1.67492
14163 1   53.048929 -17.240742  1.67492
14164 1   53.035034 -15.820810  1.67492
14165 1   54.257784 -15.098811  1.67492
14166 1   51.826179 -17.962741  1.67492
14167 1   50.589534 -17.264809  1.67492
14168 1   50.575640 -15.844877  1.67492
14169 1   51.798389 -15.122877  1.67492
14170 1   49.366785 -17.986808  1.67492
14171 1   48.130140 -17.288875  1.67492
14172 1   48.116245 -15.868943  1.67492
14173 1   49.338995 -15.146944  1.67492
14174 1   46.907390 -18.010875  1.67492
14175 1   45.670746 -17.312942  1.67492
14176 1   45.656851 -15.893010  1.67492
14177 1   46.879600 -15.171011  1.67492
14178 1   44.447996 -18.034941  1.67492
14179 1   43.211351 -17.337008  1.67492
14180 1   43.197456 -15.917076  1.67492
14181 1   44.420206 -15.195077  1.67492
14182 1   41.988601 -18.059008  1.67492
14183 1   40.751957 -17.361075  1.67492
14184 1   40.738062 -15.941143  1.67492
14185 1   41.960812 -15.219144  1.67492
14186 1   39.529207 -18.083074  1.67492
14187 1   38.292562 -17.385142  1.67492
14188 1   38.278668 -15.965210  1.67492
14189 1   39.501417 -15.243210  1.67492
14190 1   37.069813 -18.107141  1.67492
14191 1   35.833168 -17.409208  1.67492
14192 1   35.819273 -15.989276  1.67492
14193 1   37.042023 -15.267277  1.67492
14194 1   34.610418 -18.131208  1.67492
14195 1   33.373774 -17.433275  1.67492
14196 1   33.359879 -16.013343  1.67492
14197 1   34.582628 -15.291344  1.67492
14198 1   32.151024 -18.155274  1.67492
14199 1   30.914379 -17.457342  1.67492
14200 1   30.900484 -16.037410  1.67492
14201 1   32.123234 -15.315410  1.67492
14202 1   29.691629 -18.179341  1.67492
14203 1   28.454985 -17.481408  1.67492
14204 1   28.441090 -16.061476  1.67492
14205 1   29.663840 -15.339477  1.67492
14206 1   27.232235 -18.203408  1.67492
14207 1   25.995590 -17.505475  1.67492
14208 1   25.981696 -16.085543  1.67492
14209 1   27.204445 -15.363544  1.67492
14210 1   24.772841 -18.227474  1.67492
14211 1   23.536196 -17.529542  1.67492
14212 1   23.522301 -16.109610  1.67492
14213 1   24.745051 -15.387610  1.67492
14214 1   22.313446 -18.251541  1.67492
14215 1   21.076802 -17.553608  1.67492
14216 1   21.062907 -16.133676  1.67492
14217 1   22.285657 -15.411677  1.67492
14218 1   19.854052 -18.275608  1.67492
14219 1   18.617407 -17.577675  1.67492
14220 1   18.603512 -16.157743  1.67492
14221 1   19.826262 -15.435744  1.67492
14222 1   17.394657 -18.299674  1.67492
14223 1   16.158013 -17.601742  1.67492
14224 1   16.144118 -16.181810  1.67492
14225 1   17.366868 -15.459810  1.67492
14226 1   14.935263 -18.323741  1.67492
14227 1   13.698618 -17.625808  1.67492
14228 1   13.684724 -16.205876  1.67492
14229 1   14.907473 -15.483877  1.67492
14230 1   12.475869 -18.347808  1.67492
14231 1   11.239224 -17.649875  1.67492
14232 1   11.225329 -16.229943  1.67492
14233 1   12.448079 -15.507944  1.67492
14234 1   10.016474 -18.371874  1.67492
14235 1    8.779830 -17.673942  1.67492
14236 1    8.765935 -16.254009  1.67492
14237 1    9.988685 -15.532010  1.67492
14238 1    7.557080 -18.395941  1.67492
14239 1    6.320435 -17.698008  1.67492
14240 1    6.306540 -16.278076  1.67492
14241 1    7.529290 -15.556077  1.67492
14242 1    5.097686 -18.420007  1.67492
14243 1    3.861041 -17.722075  1.67492
14244 1    3.847146 -16.302143  1.67492
14245 1    5.069896 -15.580143  1.67492
14246 1    2.638291 -18.444074  1.67492
14247 1    1.401646 -17.746141  1.67492
14248 1    1.387752 -16.326209  1.67492
14249 1    2.610501 -15.604210  1.67492
14250 1    0.178897 -18.468141  1.67492
14251 1   -1.057748 -17.770208  1.67492
14252 1   -1.071643 -16.350276  1.67492
14253 1    0.151107 -15.628277  1.67492
14254 1   -2.280498 -18.492207  1.67492
14255 1   -3.517142 -17.794275  1.67492
14256 1   -3.531037 -16.374343  1.67492
14257 1   -2.308287 -15.652343  1.67492
14258 1   -4.739892 -18.516274  1.67492
14259 1   -5.976537 -17.818341  1.67492
14260 1   -5.990432 -16.398409  1.67492
14261 1   -4.767682 -15.676410  1.67492
14262 1   -7.199286 -18.540341  1.67492
14263 1   -8.435931 -17.842408  1.67492
14264 1   -8.449826 -16.422476  1.67492
14265 1   -7.227076 -15.700477  1.67492
14266 1   -9.658681 -18.564407  1.67492
14267 1  -10.895326 -17.866475  1.67492
14268 1  -10.909220 -16.446543  1.67492
14269 1   -9.686471 -15.724543  1.67492
14270 1  -12.118075 -18.588474  1.67492
14271 1  -13.354720 -17.890541  1.67492
14272 1  -13.368615 -16.470609  1.67492
14273 1  -12.145865 -15.748610  1.67492
14274 1  -14.577470 -18.612541  1.67492
14275 1  -15.814114 -17.914608  1.67492
14276 1  -15.828009 -16.494676  1.67492
14277 1  -14.605259 -15.772677  1.67492
14278 1  -17.036864 -18.636607  1.67492
14279 1  -18.273509 -17.938675  1.67492
14280 1  -18.287404 -16.518743  1.67492
14281 1  -17.064654 -15.796743  1.67492
14282 1  -19.496258 -18.660674  1.67492
14283 1  -20.732903 -17.962741  1.67492
14284 1  -20.746798 -16.542809  1.67492
14285 1  -19.524048 -15.820810  1.67492
14286 1  -21.955653 -18.684741  1.67492
14287 1  -23.192297 -17.986808  1.67492
14288 1  -23.206192 -16.566876  1.67492
14289 1  -21.983443 -15.844877  1.67492
14290 1  -24.415047 -18.708807  1.67492
14291 1  -25.651692 -18.010875  1.67492
14292 1  -25.665587 -16.590943  1.67492
14293 1  -24.442837 -15.868943  1.67492
14294 1  -26.874442 -18.732874  1.67492
14295 1  -28.111086 -18.034941  1.67492
14296 1  -28.124981 -16.615009  1.67492
14297 1  -26.902231 -15.893010  1.67492
14298 1  -29.333836 -18.756941  1.67492
14299 1  -30.570481 -18.059008  1.67492
14300 1  -30.584376 -16.639076  1.67492
14301 1  -29.361626 -15.917076  1.67492
14302 1  -31.793230 -18.781007  1.67492
14303 1  -33.029875 -18.083074  1.67492
14304 1  -33.043770 -16.663142  1.67492
14305 1  -31.821020 -15.941143  1.67492
14306 1  -34.252625 -18.805074  1.67492
14307 1  -35.489269 -18.107141  1.67492
14308 1  -35.503164 -16.687209  1.67492
14309 1  -34.280415 -15.965210  1.67492
14310 1  -36.712019 -18.829140  1.67492
14311 1  -37.948664 -18.131208  1.67492
14312 1  -37.962559 -16.711276  1.67492
14313 1  -36.739809 -15.989276  1.67492
14314 1  -39.171414 -18.853207  1.67492
14315 1  -40.408058 -18.155274  1.67492
14316 1  -40.421953 -16.735342  1.67492
14317 1  -39.199203 -16.013343  1.67492
14318 1  -41.630808 -18.877274  1.67492
14319 1  -42.867453 -18.179341  1.67492
14320 1  -42.881348 -16.759409  1.67492
14321 1  -41.658598 -16.037410  1.67492
14322 1  -44.090202 -18.901340  1.67492
14323 1  -45.326847 -18.203408  1.67492
14324 1  -45.340742 -16.783476  1.67492
14325 1  -44.117992 -16.061476  1.67492
14326 1  -46.549597 -18.925407  1.67492
14327 1  -47.786241 -18.227474  1.67492
14328 1  -47.800136 -16.807542  1.67492
14329 1  -46.577387 -16.085543  1.67492
14330 1  -49.008991 -18.949474  1.67492
14331 1  -50.245636 -18.251541  1.67492
14332 1  -50.259531 -16.831609  1.67492
14333 1  -49.036781 -16.109610  1.67492
14334 1  -51.468386 -18.973540  1.67492
14335 1  -52.705030 -18.275608  1.67492
14336 1  -52.718925 -16.855676  1.67492
14337 1  -51.496175 -16.133676  1.67492
14338 1  -53.927780 -18.997607  1.67492
14339 1  -55.164425 -18.299674  1.67492
14340 1  -55.178320 -16.879742  1.67492
14341 1  -53.955570 -16.157743  1.67492
14342 1  -56.387174 -19.021674  1.67492
14343 1  -57.623819 -18.323741  1.67492
14344 1  -57.637714 -16.903809  1.67492
14345 1  -56.414964 -16.181810  1.67492
14346 1  -58.846569 -19.045740  1.67492
14347 1  -60.083213 -18.347808  1.67492
14348 1  -60.097108 -16.927876  1.67492
14349 1  -58.874359 -16.205876  1.67492
14350 1  -61.305963 -19.069807  1.67492
14351 1  -62.542608 -18.371874  1.67492
14352 1  -62.556503 -16.951942  1.67492
14353 1  -61.333753 -16.229943  1.67492
14354 1  -63.765358 -19.093874  1.67492
14355 1  -65.002002 -18.395941  1.67492
14356 1  -65.015897 -16.976009  1.67492
14357 1  -63.793147 -16.254009  1.67492
14358 1  -66.224752 -19.117940  1.67492
14359 1  -67.461397 -18.420007  1.67492
14360 1  -67.475292 -17.000075  1.67492
14361 1  -66.252542 -16.278076  1.67492
14362 1  -68.684146 -19.142007  1.67492
14363 1  -69.920791 -18.444074  1.67492
14364 1  -69.934686 -17.024142  1.67492
14365 1  -68.711936 -16.302143  1.67492
14366 1  -71.143541 -19.166073  1.67492
14367 1  -72.380185 -18.468141  1.67492
14368 1  -72.394080 -17.048209  1.67492
14369 1  -71.171331 -16.326209  1.67492
14370 1  -73.602935 -19.190140  1.67492
14371 1  -74.839580 -18.492207  1.67492
14372 1  -74.853475 -17.072275  1.67492
14373 1  -73.630725 -16.350276  1.67492
14374 1  -76.062330 -19.214207  1.67492
14375 1  -77.298974 -18.516274  1.67492
14376 1  -77.312869 -17.096342  1.67492
14377 1  -76.090119 -16.374343  1.67492
14378 1  -78.521724 -19.238273  1.67492
14379 1  -79.758369 -18.540341  1.67492
14380 1  -79.772263 -17.120409  1.67492
14381 1  -78.549514 -16.398409  1.67492
14382 1  -80.981118 -19.262340  1.67492
14383 1  -82.217763 -18.564407  1.67492
14384 1  -82.231658 -17.144475  1.67492
14385 1  -81.008908 -16.422476  1.67492
14386 1  -83.440513 -19.286407  1.67492
14387 1  -84.677157 -18.588474  1.67492
14388 1  -84.691052 -17.168542  1.67492
14389 1  -83.468303 -16.446543  1.67492
14390 1  -85.899907 -19.310473  1.67492
14391 1  -87.136552 -18.612541  1.67492
14392 1  -87.150447 -17.192609  1.67492
14393 1  -85.927697 -16.470609  1.67492
14394 1  -88.359302 -19.334540  1.67492
14395 1  -89.595946 -18.636607  1.67492
14396 1  -89.609841 -17.216675  1.67492
14397 1  -88.387091 -16.494676  1.67492
14398 1  -90.818696 -19.358607  1.67492
14399 1  -92.055341 -18.660674  1.67492
14400 1  -92.069235 -17.240742  1.67492
14401 1  -90.846486 -16.518743  1.67492
14402 1  -93.278090 -19.382673  1.67492
14403 1  -94.514735 -18.684741  1.67492
14404 1  -94.528630 -17.264809  1.67492
14405 1  -93.305880 -16.542809  1.67492
14406 1  -95.737485 -19.406740  1.67492
14407 1  -96.974129 -18.708807  1.67492
14408 1  -96.988024 -17.288875  1.67492
14409 1  -95.765275 -16.566876  1.67492
14410 1  -98.196879 -19.430807  1.67492
14411 1  -99.433524 -18.732874  1.67492
14412 1  -99.447419 -17.312942  1.67492
14413 1  -98.224669 -16.590943  1.67492
14414 1 -100.656274 -19.454873  1.67492
14415 1 -101.892918 -18.756941  1.67492
14416 1 -101.906813 -17.337008  1.67492
14417 1 -100.684063 -16.615009  1.67492
14418 1 -103.115668 -19.478940  1.67492
14419 1 -104.352313 -18.781007  1.67492
14420 1 -104.366207 -17.361075  1.67492
14421 1 -103.143458 -16.639076  1.67492
14422 1 -105.575062 -19.503006  1.67492
14423 1 -106.811707 -18.805074  1.67492
14424 1 -106.825602 -17.385142  1.67492
14425 1 -105.602852 -16.663142  1.67492
14426 1 -108.034457 -19.527073  1.67492
14427 1 -108.062246 -16.687209  1.67492
14428 1  108.350565 -13.149412  1.67492
14429 1  107.113921 -12.451480  1.67492
14430 1  107.100026 -11.031548  1.67492
14431 1  108.322776 -10.309548  1.67492
14432 1  105.891171 -13.173479  1.67492
14433 1  104.654526 -12.475546  1.67492
14434 1  104.640632 -11.055614  1.67492
14435 1  105.863381 -10.333615  1.67492
14436 1  103.431777 -13.197546  1.67492
14437 1  102.195132 -12.499613  1.67492
14438 1  102.181237 -11.079681  1.67492
14439 1  103.403987 -10.357682  1.67492
14440 1  100.972382 -13.221612  1.67492
14441 1   99.735738 -12.523680  1.67492
14442 1   99.721843 -11.103748  1.67492
14443 1  100.944593 -10.381748  1.67492
14444 1   98.512988 -13.245679  1.67492
14445 1   97.276343 -12.547746  1.67492
14446 1   97.262448 -11.127814  1.67492
14447 1   98.485198 -10.405815  1.67492
14448 1   96.053594 -13.269746  1.67492
14449 1   94.816949 -12.571813  1.67492
14450 1   94.803054 -11.151881  1.67492
14451 1   96.025804 -10.429882  1.67492
14452 1   93.594199 -13.293812  1.67492
14453 1   92.357554 -12.595880  1.67492
14454 1   92.343660 -11.175948  1.67492
14455 1   93.566409 -10.453948  1.67492
14456 1   91.134805 -13.317879  1.67492
14457 1   89.898160 -12.619946  1.67492
14458 1   89.884265 -11.200014  1.67492
14459 1   91.107015 -10.478015  1.67492
14460 1   88.675410 -13.341946  1.67492
14461 1   87.438766 -12.644013  1.67492
14462 1   87.424871 -11.224081  1.67492
14463 1   88.647621 -10.502081  1.67492
14464 1   86.216016 -13.366012  1.67492
14465 1   84.979371 -12.668079  1.67492
14466 1   84.965476 -11.248147  1.67492
14467 1   86.188226 -10.526148  1.67492
14468 1   83.756622 -13.390079  1.67492
14469 1   82.519977 -12.692146  1.67492
14470 1   82.506082 -11.272214  1.67492
14471 1   83.728832 -10.550215  1.67492
14472 1   81.297227 -13.414145  1.67492
14473 1   80.060582 -12.716213  1.67492
14474 1   80.046688 -11.296281  1.67492
14475 1   81.269437 -10.574281  1.67492
14476 1   78.837833 -13.438212  1.67492
14477 1   77.601188 -12.740279  1.67492
14478 1   77.587293 -11.320347  1.67492
14479 1   78.810043 -10.598348  1.67492
14480 1   76.378438 -13.462279  1.67492
14481 1   75.141794 -12.764346  1.67492
14482 1   75.127899 -11.344414  1.67492
14483 1   76.350649 -10.622415  1.67492
14484 1   73.919044 -13.486345  1.67492
14485 1   72.682399 -12.788413  1.67492
14486 1   72.668504 -11.368481  1.67492
14487 1   73.891254 -10.646481  1.67492
14488 1   71.459650 -13.510412  1.67492
14489 1   70.223005 -12.812479  1.67492
14490 1   70.209110 -11.392547  1.67492
14491 1   71.431860 -10.670548  1.67492
14492 1   69.000255 -13.534479  1.67492
14493 1   67.763611 -12.836546  1.67492
14494 1   67.749716 -11.416614  1.67492
14495 1   68.972465 -10.694615  1.67492
14496 1   66.540861 -13.558545  1.67492
14497 1   65.304216 -12.860613  1.67492
14498 1   65.290321 -11.440681  1.67492
14499 1   66.513071 -10.718681  1.67492
14500 1   64.081466 -13.582612  1.67492
14501 1   62.844822 -12.884679  1.67492
14502 1   62.830927 -11.464747  1.67492
14503 1   64.053677 -10.742748  1.67492
14504 1   61.622072 -13.606679  1.67492
14505 1   60.385427 -12.908746  1.67492
14506 1   60.371532 -11.488814  1.67492
14507 1   61.594282 -10.766815  1.67492
14508 1   59.162678 -13.630745  1.67492
14509 1   57.926033 -12.932813  1.67492
14510 1   57.912138 -11.512881  1.67492
14511 1   59.134888 -10.790881  1.67492
14512 1   56.703283 -13.654812  1.67492
14513 1   55.466639 -12.956879  1.67492
14514 1   55.452744 -11.536947  1.67492
14515 1   56.675493 -10.814948  1.67492
14516 1   54.243889 -13.678879  1.67492
14517 1   53.007244 -12.980946  1.67492
14518 1   52.993349 -11.561014  1.67492
14519 1   54.216099 -10.839015  1.67492
14520 1   51.784494 -13.702945  1.67492
14521 1   50.547850 -13.005013  1.67492
14522 1   50.533955 -11.585080  1.67492
14523 1   51.756705 -10.863081  1.67492
14524 1   49.325100 -13.727012  1.67492
14525 1   48.088455 -13.029079  1.67492
14526 1   48.074560 -11.609147  1.67492
14527 1   49.297310 -10.887148  1.67492
14528 1   46.865706 -13.751078  1.67492
14529 1   45.629061 -13.053146  1.67492
14530 1   45.615166 -11.633214  1.67492
14531 1   46.837916 -10.911214  1.67492
14532 1   44.406311 -13.775145  1.67492
14533 1   43.169667 -13.077212  1.67492
14534 1   43.155772 -11.657280  1.67492
14535 1   44.378521 -10.935281  1.67492
14536 1   41.946917 -13.799212  1.67492
14537 1   40.710272 -13.101279  1.67492
14538 1   40.696377 -11.681347  1.67492
14539 1   41.919127 -10.959348  1.67492
14540 1   39.487522 -13.823278  1.67492
14541 1   38.250878 -13.125346  1.67492
14542 1   38.236983 -11.705414  1.67492
14543 1   39.459733 -10.983414  1.67492
14544 1   37.028128 -13.847345  1.67492
14545 1   35.791483 -13.149412  1.67492
14546 1   35.777588 -11.729480  1.67492
14547 1   37.000338 -11.007481  1.67492
14548 1   34.568734 -13.871412  1.67492
14549 1   33.332089 -13.173479  1.67492
14550 1   33.318194 -11.753547  1.67492
14551 1   34.540944 -11.031548  1.67492
14552 1   32.109339 -13.895478  1.67492
14553 1   30.872695 -13.197546  1.67492
14554 1   30.858800 -11.777614  1.67492
14555 1   32.081549 -11.055614  1.67492
14556 1   29.649945 -13.919545  1.67492
14557 1   28.413300 -13.221612  1.67492
14558 1   28.399405 -11.801680  1.67492
14559 1   29.622155 -11.079681  1.67492
14560 1   27.190550 -13.943612  1.67492
14561 1   25.953906 -13.245679  1.67492
14562 1   25.940011 -11.825747  1.67492
14563 1   27.162761 -11.103748  1.67492
14564 1   24.731156 -13.967678  1.67492
14565 1   23.494511 -13.269746  1.67492
14566 1   23.480616 -11.849814  1.67492
14567 1   24.703366 -11.127814  1.67492
14568 1   22.271762 -13.991745  1.67492
14569 1   21.035117 -13.293812  1.67492
14570 1   21.021222 -11.873880  1.67492
14571 1   22.243972 -11.151881  1.67492
14572 1   19.812367 -14.015812  1.67492
14573 1   18.575723 -13.317879  1.67492
14574 1   18.561828 -11.897947  1.67492
14575 1   19.784577 -11.175948  1.67492
14576 1   17.352973 -14.039878  1.67492
14577 1   16.116328 -13.341946  1.67492
14578 1   16.102433 -11.922014  1.67492
14579 1   17.325183 -11.200014  1.67492
14580 1   14.893578 -14.063945  1.67492
14581 1   13.656934 -13.366012  1.67492
14582 1   13.643039 -11.946080  1.67492
14583 1   14.865789 -11.224081  1.67492
14584 1   12.434184 -14.088012  1.67492
14585 1   11.197539 -13.390079  1.67492
14586 1   11.183645 -11.970147  1.67492
14587 1   12.406394 -11.248147  1.67492
14588 1    9.974790 -14.112078  1.67492
14589 1    8.738145 -13.414145  1.67492
14590 1    8.724250 -11.994213  1.67492
14591 1    9.947000 -11.272214  1.67492
14592 1    7.515395 -14.136145  1.67492
14593 1    6.278751 -13.438212  1.67492
14594 1    6.264856 -12.018280  1.67492
14595 1    7.487605 -11.296281  1.67492
14596 1    5.056001 -14.160211  1.67492
14597 1    3.819356 -13.462279  1.67492
14598 1    3.805461 -12.042347  1.67492
14599 1    5.028211 -11.320347  1.67492
14600 1    2.596606 -14.184278  1.67492
14601 1    1.359962 -13.486345  1.67492
14602 1    1.346067 -12.066413  1.67492
14603 1    2.568817 -11.344414  1.67492
14604 1    0.137212 -14.208345  1.67492
14605 1   -1.099433 -13.510412  1.67492
14606 1   -1.113327 -12.090480  1.67492
14607 1    0.109422 -11.368481  1.67492
14608 1   -2.322182 -14.232411  1.67492
14609 1   -3.558827 -13.534479  1.67492
14610 1   -3.572722 -12.114547  1.67492
14611 1   -2.349972 -11.392547  1.67492
14612 1   -4.781577 -14.256478  1.67492
14613 1   -6.018221 -13.558545  1.67492
14614 1   -6.032116 -12.138613  1.67492
14615 1   -4.809367 -11.416614  1.67492
14616 1   -7.240971 -14.280545  1.67492
14617 1   -8.477616 -13.582612  1.67492
14618 1   -8.491511 -12.162680  1.67492
14619 1   -7.268761 -11.440681  1.67492
14620 1   -9.700366 -14.304611  1.67492
14621 1  -10.937010 -13.606679  1.67492
14622 1  -10.950905 -12.186747  1.67492
14623 1   -9.728155 -11.464747  1.67492
14624 1  -12.159760 -14.328678  1.67492
14625 1  -13.396405 -13.630745  1.67492
14626 1  -13.410299 -12.210813  1.67492
14627 1  -12.187550 -11.488814  1.67492
14628 1  -14.619154 -14.352745  1.67492
14629 1  -15.855799 -13.654812  1.67492
14630 1  -15.869694 -12.234880  1.67492
14631 1  -14.646944 -11.512881  1.67492
14632 1  -17.078549 -14.376811  1.67492
14633 1  -18.315193 -13.678879  1.67492
14634 1  -18.329088 -12.258947  1.67492
14635 1  -17.106338 -11.536947  1.67492
14636 1  -19.537943 -14.400878  1.67492
14637 1  -20.774588 -13.702945  1.67492
14638 1  -20.788483 -12.283013  1.67492
14639 1  -19.565733 -11.561014  1.67492
14640 1  -21.997338 -14.424945  1.67492
14641 1  -23.233982 -13.727012  1.67492
14642 1  -23.247877 -12.307080  1.67492
14643 1  -22.025127 -11.585080  1.67492
14644 1  -24.456732 -14.449011  1.67492
14645 1  -25.693377 -13.751078  1.67492
14646 1  -25.707271 -12.331146  1.67492
14647 1  -24.484522 -11.609147  1.67492
14648 1  -26.916126 -14.473078  1.67492
14649 1  -28.152771 -13.775145  1.67492
14650 1  -28.166666 -12.355213  1.67492
14651 1  -26.943916 -11.633214  1.67492
14652 1  -29.375521 -14.497144  1.67492
14653 1  -30.612165 -13.799212  1.67492
14654 1  -30.626060 -12.379280  1.67492
14655 1  -29.403310 -11.657280  1.67492
14656 1  -31.834915 -14.521211  1.67492
14657 1  -33.071560 -13.823278  1.67492
14658 1  -33.085455 -12.403346  1.67492
14659 1  -31.862705 -11.681347  1.67492
14660 1  -34.294309 -14.545278  1.67492
14661 1  -35.530954 -13.847345  1.67492
14662 1  -35.544849 -12.427413  1.67492
14663 1  -34.322099 -11.705414  1.67492
14664 1  -36.753704 -14.569344  1.67492
14665 1  -37.990349 -13.871412  1.67492
14666 1  -38.004243 -12.451480  1.67492
14667 1  -36.781494 -11.729480  1.67492
14668 1  -39.213098 -14.593411  1.67492
14669 1  -40.449743 -13.895478  1.67492
14670 1  -40.463638 -12.475546  1.67492
14671 1  -39.240888 -11.753547  1.67492
14672 1  -41.672493 -14.617478  1.67492
14673 1  -42.909137 -13.919545  1.67492
14674 1  -42.923032 -12.499613  1.67492
14675 1  -41.700282 -11.777614  1.67492
14676 1  -44.131887 -14.641544  1.67492
14677 1  -45.368532 -13.943612  1.67492
14678 1  -45.382427 -12.523680  1.67492
14679 1  -44.159677 -11.801680  1.67492
14680 1  -46.591281 -14.665611  1.67492
14681 1  -47.827926 -13.967678  1.67492
14682 1  -47.841821 -12.547746  1.67492
14683 1  -46.619071 -11.825747  1.67492
14684 1  -49.050676 -14.689678  1.67492
14685 1  -50.287321 -13.991745  1.67492
14686 1  -50.301215 -12.571813  1.67492
14687 1  -49.078466 -11.849814  1.67492
14688 1  -51.510070 -14.713744  1.67492
14689 1  -52.746715 -14.015812  1.67492
14690 1  -52.760610 -12.595880  1.67492
14691 1  -51.537860 -11.873880  1.67492
14692 1  -53.969465 -14.737811  1.67492
14693 1  -55.206109 -14.039878  1.67492
14694 1  -55.220004 -12.619946  1.67492
14695 1  -53.997254 -11.897947  1.67492
14696 1  -56.428859 -14.761878  1.67492
14697 1  -57.665504 -14.063945  1.67492
14698 1  -57.679399 -12.644013  1.67492
14699 1  -56.456649 -11.922014  1.67492
14700 1  -58.888253 -14.785944  1.67492
14701 1  -60.124898 -14.088012  1.67492
14702 1  -60.138793 -12.668079  1.67492
14703 1  -58.916043 -11.946080  1.67492
14704 1  -61.347648 -14.810011  1.67492
14705 1  -62.584292 -14.112078  1.67492
14706 1  -62.598187 -12.692146  1.67492
14707 1  -61.375438 -11.970147  1.67492
14708 1  -63.807042 -14.834077  1.67492
14709 1  -65.043687 -14.136145  1.67492
14710 1  -65.057582 -12.716213  1.67492
14711 1  -63.834832 -11.994213  1.67492
14712 1  -66.266437 -14.858144  1.67492
14713 1  -67.503081 -14.160211  1.67492
14714 1  -67.516976 -12.740279  1.67492
14715 1  -66.294226 -12.018280  1.67492
14716 1  -68.725831 -14.882211  1.67492
14717 1  -69.962476 -14.184278  1.67492
14718 1  -69.976371 -12.764346  1.67492
14719 1  -68.753621 -12.042347  1.67492
14720 1  -71.185225 -14.906277  1.67492
14721 1  -72.421870 -14.208345  1.67492
14722 1  -72.435765 -12.788413  1.67492
14723 1  -71.213015 -12.066413  1.67492
14724 1  -73.644620 -14.930344  1.67492
14725 1  -74.881264 -14.232411  1.67492
14726 1  -74.895159 -12.812479  1.67492
14727 1  -73.672410 -12.090480  1.67492
14728 1  -76.104014 -14.954411  1.67492
14729 1  -77.340659 -14.256478  1.67492
14730 1  -77.354554 -12.836546  1.67492
14731 1  -76.131804 -12.114547  1.67492
14732 1  -78.563409 -14.978477  1.67492
14733 1  -79.800053 -14.280545  1.67492
14734 1  -79.813948 -12.860613  1.67492
14735 1  -78.591198 -12.138613  1.67492
14736 1  -81.022803 -15.002544  1.67492
14737 1  -82.259448 -14.304611  1.67492
14738 1  -82.273343 -12.884679  1.67492
14739 1  -81.050593 -12.162680  1.67492
14740 1  -83.482197 -15.026611  1.67492
14741 1  -84.718842 -14.328678  1.67492
14742 1  -84.732737 -12.908746  1.67492
14743 1  -83.509987 -12.186747  1.67492
14744 1  -85.941592 -15.050677  1.67492
14745 1  -87.178236 -14.352745  1.67492
14746 1  -87.192131 -12.932813  1.67492
14747 1  -85.969382 -12.210813  1.67492
14748 1  -88.400986 -15.074744  1.67492
14749 1  -89.637631 -14.376811  1.67492
14750 1  -89.651526 -12.956879  1.67492
14751 1  -88.428776 -12.234880  1.67492
14752 1  -90.860381 -15.098811  1.67492
14753 1  -92.097025 -14.400878  1.67492
14754 1  -92.110920 -12.980946  1.67492
14755 1  -90.888170 -12.258947  1.67492
14756 1  -93.319775 -15.122877  1.67492
14757 1  -94.556420 -14.424945  1.67492
14758 1  -94.570315 -13.005013  1.67492
14759 1  -93.347565 -12.283013  1.67492
14760 1  -95.779169 -15.146944  1.67492
14761 1  -97.015814 -14.449011  1.67492
14762 1  -97.029709 -13.029079  1.67492
14763 1  -95.806959 -12.307080  1.67492
14764 1  -98.238564 -15.171011  1.67492
14765 1  -99.475208 -14.473078  1.67492
14766 1  -99.489103 -13.053146  1.67492
14767 1  -98.266354 -12.331146  1.67492
14768 1 -100.697958 -15.195077  1.67492
14769 1 -101.934603 -14.497144  1.67492
14770 1 -101.948498 -13.077212  1.67492
14771 1 -100.725748 -12.355213  1.67492
14772 1 -103.157353 -15.219144  1.67492
14773 1 -104.393997 -14.521211  1.67492
14774 1 -104.407892 -13.101279  1.67492
14775 1 -103.185142 -12.379280  1.67492
14776 1 -105.616747 -15.243210  1.67492
14777 1 -106.853392 -14.545278  1.67492
14778 1 -106.867287 -13.125346  1.67492
14779 1 -105.644537 -12.403346  1.67492
14780 1 -108.076141 -15.267277  1.67492
14781 1 -108.103931 -12.427413  1.67492
14782 1  108.308881  -8.889616  1.67492
14783 1  107.072236  -8.191684  1.67492
14784 1  107.058341  -6.771752  1.67492
14785 1  108.281091  -6.049752  1.67492
14786 1  105.849486  -8.913683  1.67492
14787 1  104.612842  -8.215750  1.67492
14788 1  104.598947  -6.795818  1.67492
14789 1  105.821697  -6.073819  1.67492
14790 1  103.390092  -8.937750  1.67492
14791 1  102.153447  -8.239817  1.67492
14792 1  102.139553  -6.819885  1.67492
14793 1  103.362302  -6.097886  1.67492
14794 1  100.930698  -8.961816  1.67492
14795 1   99.694053  -8.263884  1.67492
14796 1   99.680158  -6.843952  1.67492
14797 1  100.902908  -6.121952  1.67492
14798 1   98.471303  -8.985883  1.67492
14799 1   97.234659  -8.287950  1.67492
14800 1   97.220764  -6.868018  1.67492
14801 1   98.443513  -6.146019  1.67492
14802 1   96.011909  -9.009950  1.67492
14803 1   94.775264  -8.312017  1.67492
14804 1   94.761369  -6.892085  1.67492
14805 1   95.984119  -6.170086  1.67492
14806 1   93.552514  -9.034016  1.67492
14807 1   92.315870  -8.336084  1.67492
14808 1   92.301975  -6.916151  1.67492
14809 1   93.524725  -6.194152  1.67492
14810 1   91.093120  -9.058083  1.67492
14811 1   89.856475  -8.360150  1.67492
14812 1   89.842581  -6.940218  1.67492
14813 1   91.065330  -6.218219  1.67492
14814 1   88.633726  -9.082149  1.67492
14815 1   87.397081  -8.384217  1.67492
14816 1   87.383186  -6.964285  1.67492
14817 1   88.605936  -6.242285  1.67492
14818 1   86.174331  -9.106216  1.67492
14819 1   84.937687  -8.408283  1.67492
14820 1   84.923792  -6.988351  1.67492
14821 1   86.146542  -6.266352  1.67492
14822 1   83.714937  -9.130283  1.67492
14823 1   82.478292  -8.432350  1.67492
14824 1   82.464397  -7.012418  1.67492
14825 1   83.687147  -6.290419  1.67492
14826 1   81.255542  -9.154349  1.67492
14827 1   80.018898  -8.456417  1.67492
14828 1   80.005003  -7.036485  1.67492
14829 1   81.227753  -6.314485  1.67492
14830 1   78.796148  -9.178416  1.67492
14831 1   77.559503  -8.480483  1.67492
14832 1   77.545609  -7.060551  1.67492
14833 1   78.768358  -6.338552  1.67492
14834 1   76.336754  -9.202483  1.67492
14835 1   75.100109  -8.504550  1.67492
14836 1   75.086214  -7.084618  1.67492
14837 1   76.308964  -6.362619  1.67492
14838 1   73.877359  -9.226549  1.67492
14839 1   72.640715  -8.528617  1.67492
14840 1   72.626820  -7.108685  1.67492
14841 1   73.849570  -6.386685  1.67492
14842 1   71.417965  -9.250616  1.67492
14843 1   70.181320  -8.552683  1.67492
14844 1   70.167425  -7.132751  1.67492
14845 1   71.390175  -6.410752  1.67492
14846 1   68.958571  -9.274683  1.67492
14847 1   67.721926  -8.576750  1.67492
14848 1   67.708031  -7.156818  1.67492
14849 1   68.930781  -6.434819  1.67492
14850 1   66.499176  -9.298749  1.67492
14851 1   65.262531  -8.600817  1.67492
14852 1   65.248637  -7.180885  1.67492
14853 1   66.471386  -6.458885  1.67492
14854 1   64.039782  -9.322816  1.67492
14855 1   62.803137  -8.624883  1.67492
14856 1   62.789242  -7.204951  1.67492
14857 1   64.011992  -6.482952  1.67492
14858 1   61.580387  -9.346883  1.67492
14859 1   60.343743  -8.648950  1.67492
14860 1   60.329848  -7.229018  1.67492
14861 1   61.552598  -6.507019  1.67492
14862 1   59.120993  -9.370949  1.67492
14863 1   57.884348  -8.673017  1.67492
14864 1   57.870453  -7.253085  1.67492
14865 1   59.093203  -6.531085  1.67492
14866 1   56.661599  -9.395016  1.67492
14867 1   55.424954  -8.697083  1.67492
14868 1   55.411059  -7.277151  1.67492
14869 1   56.633809  -6.555152  1.67492
14870 1   54.202204  -9.419083  1.67492
14871 1   52.965559  -8.721150  1.67492
14872 1   52.951665  -7.301218  1.67492
14873 1   54.174414  -6.579218  1.67492
14874 1   51.742810  -9.443149  1.67492
14875 1   50.506165  -8.745216  1.67492
14876 1   50.492270  -7.325284  1.67492
14877 1   51.715020  -6.603285  1.67492
14878 1   49.283415  -9.467216  1.67492
14879 1   48.046771  -8.769283  1.67492
14880 1   48.032876  -7.349351  1.67492
14881 1   49.255626  -6.627352  1.67492
14882 1   46.824021  -9.491282  1.67492
14883 1   45.587376  -8.793350  1.67492
14884 1   45.573481  -7.373418  1.67492
14885 1   46.796231  -6.651418  1.67492
14886 1   44.364627  -9.515349  1.67492
14887 1   43.127982  -8.817416  1.67492
14888 1   43.114087  -7.397484  1.67492
14889 1   44.336837  -6.675485  1.67492
14890 1   41.905232  -9.539416  1.67492
14891 1   40.668588  -8.841483  1.67492
14892 1   40.654693  -7.421551  1.67492
14893 1   41.877442  -6.699552  1.67492
14894 1   39.445838  -9.563482  1.67492
14895 1   38.209193  -8.865550  1.67492
14896 1   38.195298  -7.445618  1.67492
14897 1   39.418048  -6.723618  1.67492
14898 1   36.986443  -9.587549  1.67492
14899 1   35.749799  -8.889616  1.67492
14900 1   35.735904  -7.469684  1.67492
14901 1   36.958654  -6.747685  1.67492
14902 1   34.527049  -9.611616  1.67492
14903 1   33.290404  -8.913683  1.67492
14904 1   33.276509  -7.493751  1.67492
14905 1   34.499259  -6.771752  1.67492
14906 1   32.067655  -9.635682  1.67492
14907 1   30.831010  -8.937750  1.67492
14908 1   30.817115  -7.517818  1.67492
14909 1   32.039865  -6.795818  1.67492
14910 1   29.608260  -9.659749  1.67492
14911 1   28.371616  -8.961816  1.67492
14912 1   28.357721  -7.541884  1.67492
14913 1   29.580470  -6.819885  1.67492
14914 1   27.148866  -9.683816  1.67492
14915 1   25.912221  -8.985883  1.67492
14916 1   25.898326  -7.565951  1.67492
14917 1   27.121076  -6.843952  1.67492
14918 1   24.689471  -9.707882  1.67492
14919 1   23.452827  -9.009950  1.67492
14920 1   23.438932  -7.590018  1.67492
14921 1   24.661682  -6.868018  1.67492
14922 1   22.230077  -9.731949  1.67492
14923 1   20.993432  -9.034016  1.67492
14924 1   20.979537  -7.614084  1.67492
14925 1   22.202287  -6.892085  1.67492
14926 1   19.770683  -9.756016  1.67492
14927 1   18.534038  -9.058083  1.67492
14928 1   18.520143  -7.638151  1.67492
14929 1   19.742893  -6.916151  1.67492
14930 1   17.311288  -9.780082  1.67492
14931 1   16.074644  -9.082149  1.67492
14932 1   16.060749  -7.662217  1.67492
14933 1   17.283498  -6.940218  1.67492
14934 1   14.851894  -9.804149  1.67492
14935 1   13.615249  -9.106216  1.67492
14936 1   13.601354  -7.686284  1.67492
14937 1   14.824104  -6.964285  1.67492
14938 1   12.392499  -9.828215  1.67492
14939 1   11.155855  -9.130283  1.67492
14940 1   11.141960  -7.710351  1.67492
14941 1   12.364710  -6.988351  1.67492
14942 1    9.933105  -9.852282  1.67492
14943 1    8.696460  -9.154349  1.67492
14944 1    8.682565  -7.734417  1.67492
14945 1    9.905315  -7.012418  1.67492
14946 1    7.473711  -9.876349  1.67492
14947 1    6.237066  -9.178416  1.67492
14948 1    6.223171  -7.758484  1.67492
14949 1    7.445921  -7.036485  1.67492
14950 1    5.014316  -9.900415  1.67492
14951 1    3.777672  -9.202483  1.67492
14952 1    3.763777  -7.782551  1.67492
14953 1    4.986526  -7.060551  1.67492
14954 1    2.554922  -9.924482  1.67492
14955 1    1.318277  -9.226549  1.67492
14956 1    1.304382  -7.806617  1.67492
14957 1    2.527132  -7.084618  1.67492
14958 1    0.095527  -9.948549  1.67492
14959 1   -1.141117  -9.250616  1.67492
14960 1   -1.155012  -7.830684  1.67492
14961 1    0.067738  -7.108685  1.67492
14962 1   -2.363867  -9.972615  1.67492
14963 1   -3.600512  -9.274683  1.67492
14964 1   -3.614407  -7.854751  1.67492
14965 1   -2.391657  -7.132751  1.67492
14966 1   -4.823261  -9.996682  1.67492
14967 1   -6.059906  -9.298749  1.67492
14968 1   -6.073801  -7.878817  1.67492
14969 1   -4.851051  -7.156818  1.67492
14970 1   -7.282656 -10.020749  1.67492
14971 1   -8.519300  -9.322816  1.67492
14972 1   -8.533195  -7.902884  1.67492
14973 1   -7.310446  -7.180885  1.67492
14974 1   -9.742050 -10.044815  1.67492
14975 1  -10.978695  -9.346883  1.67492
14976 1  -10.992590  -7.926951  1.67492
14977 1   -9.769840  -7.204951  1.67492
14978 1  -12.201445 -10.068882  1.67492
14979 1  -13.438089  -9.370949  1.67492
14980 1  -13.451984  -7.951017  1.67492
14981 1  -12.229234  -7.229018  1.67492
14982 1  -14.660839 -10.092949  1.67492
14983 1  -15.897484  -9.395016  1.67492
14984 1  -15.911378  -7.975084  1.67492
14985 1  -14.688629  -7.253085  1.67492
14986 1  -17.120233 -10.117015  1.67492
14987 1  -18.356878  -9.419083  1.67492
14988 1  -18.370773  -7.999150  1.67492
14989 1  -17.148023  -7.277151  1.67492
14990 1  -19.579628 -10.141082  1.67492
14991 1  -20.816272  -9.443149  1.67492
14992 1  -20.830167  -8.023217  1.67492
14993 1  -19.607418  -7.301218  1.67492
14994 1  -22.039022 -10.165148  1.67492
14995 1  -23.275667  -9.467216  1.67492
14996 1  -23.289562  -8.047284  1.67492
14997 1  -22.066812  -7.325284  1.67492
14998 1  -24.498417 -10.189215  1.67492
14999 1  -25.735061  -9.491282  1.67492
15000 1  -25.748956  -8.071350  1.67492
15001 1  -24.526206  -7.349351  1.67492
15002 1  -26.957811 -10.213282  1.67492
15003 1  -28.194456  -9.515349  1.67492
15004 1  -28.208350  -8.095417  1.67492
15005 1  -26.985601  -7.373418  1.67492
15006 1  -29.417205 -10.237348  1.67492
15007 1  -30.653850  -9.539416  1.67492
15008 1  -30.667745  -8.119484  1.67492
15009 1  -29.444995  -7.397484  1.67492
15010 1  -31.876600 -10.261415  1.67492
15011 1  -33.113244  -9.563482  1.67492
15012 1  -33.127139  -8.143550  1.67492
15013 1  -31.904390  -7.421551  1.67492
15014 1  -34.335994 -10.285482  1.67492
15015 1  -35.572639  -9.587549  1.67492
15016 1  -35.586534  -8.167617  1.67492
15017 1  -34.363784  -7.445618  1.67492
15018 1  -36.795389 -10.309548  1.67492
15019 1  -38.032033  -9.611616  1.67492
15020 1  -38.045928  -8.191684  1.67492
15021 1  -36.823178  -7.469684  1.67492
15022 1  -39.254783 -10.333615  1.67492
15023 1  -40.491428  -9.635682  1.67492
15024 1  -40.505322  -8.215750  1.67492
15025 1  -39.282573  -7.493751  1.67492
15026 1  -41.714177 -10.357682  1.67492
15027 1  -42.950822  -9.659749  1.67492
15028 1  -42.964717  -8.239817  1.67492
15029 1  -41.741967  -7.517818  1.67492
15030 1  -44.173572 -10.381748  1.67492
15031 1  -45.410216  -9.683816  1.67492
15032 1  -45.424111  -8.263884  1.67492
15033 1  -44.201361  -7.541884  1.67492
15034 1  -46.632966 -10.405815  1.67492
15035 1  -47.869611  -9.707882  1.67492
15036 1  -47.883506  -8.287950  1.67492
15037 1  -46.660756  -7.565951  1.67492
15038 1  -49.092361 -10.429882  1.67492
15039 1  -50.329005  -9.731949  1.67492
15040 1  -50.342900  -8.312017  1.67492
15041 1  -49.120150  -7.590018  1.67492
15042 1  -51.551755 -10.453948  1.67492
15043 1  -52.788400  -9.756016  1.67492
15044 1  -52.802294  -8.336084  1.67492
15045 1  -51.579545  -7.614084  1.67492
15046 1  -54.011149 -10.478015  1.67492
15047 1  -55.247794  -9.780082  1.67492
15048 1  -55.261689  -8.360150  1.67492
15049 1  -54.038939  -7.638151  1.67492
15050 1  -56.470544 -10.502081  1.67492
15051 1  -57.707188  -9.804149  1.67492
15052 1  -57.721083  -8.384217  1.67492
15053 1  -56.498333  -7.662217  1.67492
15054 1  -58.929938 -10.526148  1.67492
15055 1  -60.166583  -9.828215  1.67492
15056 1  -60.180478  -8.408283  1.67492
15057 1  -58.957728  -7.686284  1.67492
15058 1  -61.389333 -10.550215  1.67492
15059 1  -62.625977  -9.852282  1.67492
15060 1  -62.639872  -8.432350  1.67492
15061 1  -61.417122  -7.710351  1.67492
15062 1  -63.848727 -10.574281  1.67492
15063 1  -65.085372  -9.876349  1.67492
15064 1  -65.099266  -8.456417  1.67492
15065 1  -63.876517  -7.734417  1.67492
15066 1  -66.308121 -10.598348  1.67492
15067 1  -67.544766  -9.900415  1.67492
15068 1  -67.558661  -8.480483  1.67492
15069 1  -66.335911  -7.758484  1.67492
15070 1  -68.767516 -10.622415  1.67492
15071 1  -70.004160  -9.924482  1.67492
15072 1  -70.018055  -8.504550  1.67492
15073 1  -68.795305  -7.782551  1.67492
15074 1  -71.226910 -10.646481  1.67492
15075 1  -72.463555  -9.948549  1.67492
15076 1  -72.477450  -8.528617  1.67492
15077 1  -71.254700  -7.806617  1.67492
15078 1  -73.686304 -10.670548  1.67492
15079 1  -74.922949  -9.972615  1.67492
15080 1  -74.936844  -8.552683  1.67492
15081 1  -73.714094  -7.830684  1.67492
15082 1  -76.145699 -10.694615  1.67492
15083 1  -77.382344  -9.996682  1.67492
15084 1  -77.396238  -8.576750  1.67492
15085 1  -76.173489  -7.854751  1.67492
15086 1  -78.605093 -10.718681  1.67492
15087 1  -79.841738 -10.020749  1.67492
15088 1  -79.855633  -8.600817  1.67492
15089 1  -78.632883  -7.878817  1.67492
15090 1  -81.064488 -10.742748  1.67492
15091 1  -82.301132 -10.044815  1.67492
15092 1  -82.315027  -8.624883  1.67492
15093 1  -81.092277  -7.902884  1.67492
15094 1  -83.523882 -10.766815  1.67492
15095 1  -84.760527 -10.068882  1.67492
15096 1  -84.774422  -8.648950  1.67492
15097 1  -83.551672  -7.926951  1.67492
15098 1  -85.983276 -10.790881  1.67492
15099 1  -87.219921 -10.092949  1.67492
15100 1  -87.233816  -8.673017  1.67492
15101 1  -86.011066  -7.951017  1.67492
15102 1  -88.442671 -10.814948  1.67492
15103 1  -89.679315 -10.117015  1.67492
15104 1  -89.693210  -8.697083  1.67492
15105 1  -88.470461  -7.975084  1.67492
15106 1  -90.902065 -10.839015  1.67492
15107 1  -92.138710 -10.141082  1.67492
15108 1  -92.152605  -8.721150  1.67492
15109 1  -90.929855  -7.999150  1.67492
15110 1  -93.361460 -10.863081  1.67492
15111 1  -94.598104 -10.165148  1.67492
15112 1  -94.611999  -8.745216  1.67492
15113 1  -93.389249  -8.023217  1.67492
15114 1  -95.820854 -10.887148  1.67492
15115 1  -97.057499 -10.189215  1.67492
15116 1  -97.071394  -8.769283  1.67492
15117 1  -95.848644  -8.047284  1.67492
15118 1  -98.280248 -10.911214  1.67492
15119 1  -99.516893 -10.213282  1.67492
15120 1  -99.530788  -8.793350  1.67492
15121 1  -98.308038  -8.071350  1.67492
15122 1 -100.739643 -10.935281  1.67492
15123 1 -101.976287 -10.237348  1.67492
15124 1 -101.990182  -8.817416  1.67492
15125 1 -100.767433  -8.095417  1.67492
15126 1 -103.199037 -10.959348  1.67492
15127 1 -104.435682 -10.261415  1.67492
15128 1 -104.449577  -8.841483  1.67492
15129 1 -103.226827  -8.119484  1.67492
15130 1 -105.658432 -10.983414  1.67492
15131 1 -106.895076 -10.285482  1.67492
15132 1 -106.908971  -8.865550  1.67492
15133 1 -105.686221  -8.143550  1.67492
15134 1 -108.117826 -11.007481  1.67492
15135 1 -108.145616  -8.167617  1.67492
15136 1  108.267196  -4.629820  1.67492
15137 1  107.030552  -3.931888  1.67492
15138 1  107.016657  -2.511956  1.67492
15139 1  108.239406  -1.789956  1.67492
15140 1  105.807802  -4.653887  1.67492
15141 1  104.571157  -3.955954  1.67492
15142 1  104.557262  -2.536022  1.67492
15143 1  105.780012  -1.814023  1.67492
15144 1  103.348407  -4.677954  1.67492
15145 1  102.111763  -3.980021  1.67492
15146 1  102.097868  -2.560089  1.67492
15147 1  103.320618  -1.838090  1.67492
15148 1  100.889013  -4.702020  1.67492
15149 1   99.652368  -4.004088  1.67492
15150 1   99.638473  -2.584156  1.67492
15151 1  100.861223  -1.862156  1.67492
15152 1   98.429619  -4.726087  1.67492
15153 1   97.192974  -4.028154  1.67492
15154 1   97.179079  -2.608222  1.67492
15155 1   98.401829  -1.886223  1.67492
15156 1   95.970224  -4.750153  1.67492
15157 1   94.733580  -4.052221  1.67492
15158 1   94.719685  -2.632289  1.67492
15159 1   95.942434  -1.910289  1.67492
15160 1   93.510830  -4.774220  1.67492
15161 1   92.274185  -4.076287  1.67492
15162 1   92.260290  -2.656355  1.67492
15163 1   93.483040  -1.934356  1.67492
15164 1   91.051435  -4.798287  1.67492
15165 1   89.814791  -4.100354  1.67492
15166 1   89.800896  -2.680422  1.67492
15167 1   91.023646  -1.958423  1.67492
15168 1   88.592041  -4.822353  1.67492
15169 1   87.355396  -4.124421  1.67492
15170 1   87.341502  -2.704489  1.67492
15171 1   88.564251  -1.982489  1.67492
15172 1   86.132647  -4.846420  1.67492
15173 1   84.896002  -4.148487  1.67492
15174 1   84.882107  -2.728555  1.67492
15175 1   86.104857  -2.006556  1.67492
15176 1   83.673252  -4.870487  1.67492
15177 1   82.436608  -4.172554  1.67492
15178 1   82.422713  -2.752622  1.67492
15179 1   83.645462  -2.030623  1.67492
15180 1   81.213858  -4.894553  1.67492
15181 1   79.977213  -4.196621  1.67492
15182 1   79.963318  -2.776689  1.67492
15183 1   81.186068  -2.054689  1.67492
15184 1   78.754463  -4.918620  1.67492
15185 1   77.517819  -4.220687  1.67492
15186 1   77.503924  -2.800755  1.67492
15187 1   78.726674  -2.078756  1.67492
15188 1   76.295069  -4.942687  1.67492
15189 1   75.058424  -4.244754  1.67492
15190 1   75.044530  -2.824822  1.67492
15191 1   76.267279  -2.102823  1.67492
15192 1   73.835675  -4.966753  1.67492
15193 1   72.599030  -4.268821  1.67492
15194 1   72.585135  -2.848889  1.67492
15195 1   73.807885  -2.126889  1.67492
15196 1   71.376280  -4.990820  1.67492
15197 1   70.139636  -4.292887  1.67492
15198 1   70.125741  -2.872955  1.67492
15199 1   71.348490  -2.150956  1.67492
15200 1   68.916886  -5.014887  1.67492
15201 1   67.680241  -4.316954  1.67492
15202 1   67.666346  -2.897022  1.67492
15203 1   68.889096  -2.175023  1.67492
15204 1   66.457491  -5.038953  1.67492
15205 1   65.220847  -4.341021  1.67492
15206 1   65.206952  -2.921089  1.67492
15207 1   66.429702  -2.199089  1.67492
15208 1   63.998097  -5.063020  1.67492
15209 1   62.761452  -4.365087  1.67492
15210 1   62.747558  -2.945155  1.67492
15211 1   63.970307  -2.223156  1.67492
15212 1   61.538703  -5.087087  1.67492
15213 1   60.302058  -4.389154  1.67492
15214 1   60.288163  -2.969222  1.67492
15215 1   61.510913  -2.247222  1.67492
15216 1   59.079308  -5.111153  1.67492
15217 1   57.842664  -4.413220  1.67492
15218 1   57.828769  -2.993288  1.67492
15219 1   59.051519  -2.271289  1.67492
15220 1   56.619914  -5.135220  1.67492
15221 1   55.383269  -4.437287  1.67492
15222 1   55.369374  -3.017355  1.67492
15223 1   56.592124  -2.295356  1.67492
15224 1   54.160519  -5.159286  1.67492
15225 1   52.923875  -4.461354  1.67492
15226 1   52.909980  -3.041422  1.67492
15227 1   54.132730  -2.319422  1.67492
15228 1   51.701125  -5.183353  1.67492
15229 1   50.464480  -4.485420  1.67492
15230 1   50.450586  -3.065488  1.67492
15231 1   51.673335  -2.343489  1.67492
15232 1   49.241731  -5.207420  1.67492
15233 1   48.005086  -4.509487  1.67492
15234 1   47.991191  -3.089555  1.67492
15235 1   49.213941  -2.367556  1.67492
15236 1   46.782336  -5.231486  1.67492
15237 1   45.545692  -4.533554  1.67492
15238 1   45.531797  -3.113622  1.67492
15239 1   46.754547  -2.391622  1.67492
15240 1   44.322942  -5.255553  1.67492
15241 1   43.086297  -4.557620  1.67492
15242 1   43.072402  -3.137688  1.67492
15243 1   44.295152  -2.415689  1.67492
15244 1   41.863547  -5.279620  1.67492
15245 1   40.626903  -4.581687  1.67492
15246 1   40.613008  -3.161755  1.67492
15247 1   41.835758  -2.439756  1.67492
15248 1   39.404153  -5.303686  1.67492
15249 1   38.167508  -4.605754  1.67492
15250 1   38.153614  -3.185822  1.67492
15251 1   39.376363  -2.463822  1.67492
15252 1   36.944759  -5.327753  1.67492
15253 1   35.708114  -4.629820  1.67492
15254 1   35.694219  -3.209888  1.67492
15255 1   36.916969  -2.487889  1.67492
15256 1   34.485364  -5.351820  1.67492
15257 1   33.248720  -4.653887  1.67492
15258 1   33.234825  -3.233955  1.67492
15259 1   34.457575  -2.511956  1.67492
15260 1   32.025970  -5.375886  1.67492
15261 1   30.789325  -4.677954  1.67492
15262 1   30.775430  -3.258022  1.67492
15263 1   31.998180  -2.536022  1.67492
15264 1   29.566576  -5.399953  1.67492
15265 1   28.329931  -4.702020  1.67492
15266 1   28.316036  -3.282088  1.67492
15267 1   29.538786  -2.560089  1.67492
15268 1   27.107181  -5.424020  1.67492
15269 1   25.870536  -4.726087  1.67492
15270 1   25.856642  -3.306155  1.67492
15271 1   27.079391  -2.584156  1.67492
15272 1   24.647787  -5.448086  1.67492
15273 1   23.411142  -4.750153  1.67492
15274 1   23.397247  -3.330221  1.67492
15275 1   24.619997  -2.608222  1.67492
15276 1   22.188392  -5.472153  1.67492
15277 1   20.951748  -4.774220  1.67492
15278 1   20.937853  -3.354288  1.67492
15279 1   22.160603  -2.632289  1.67492
15280 1   19.728998  -5.496219  1.67492
15281 1   18.492353  -4.798287  1.67492
15282 1   18.478458  -3.378355  1.67492
15283 1   19.701208  -2.656355  1.67492
15284 1   17.269604  -5.520286  1.67492
15285 1   16.032959  -4.822353  1.67492
15286 1   16.019064  -3.402421  1.67492
15287 1   17.241814  -2.680422  1.67492
15288 1   14.810209  -5.544353  1.67492
15289 1   13.573564  -4.846420  1.67492
15290 1   13.559670  -3.426488  1.67492
15291 1   14.782419  -2.704489  1.67492
15292 1   12.350815  -5.568419  1.67492
15293 1   11.114170  -4.870487  1.67492
15294 1   11.100275  -3.450555  1.67492
15295 1   12.323025  -2.728555  1.67492
15296 1    9.891420  -5.592486  1.67492
15297 1    8.654776  -4.894553  1.67492
15298 1    8.640881  -3.474621  1.67492
15299 1    9.863631  -2.752622  1.67492
15300 1    7.432026  -5.616553  1.67492
15301 1    6.195381  -4.918620  1.67492
15302 1    6.181486  -3.498688  1.67492
15303 1    7.404236  -2.776689  1.67492
15304 1    4.972632  -5.640619  1.67492
15305 1    3.735987  -4.942687  1.67492
15306 1    3.722092  -3.522755  1.67492
15307 1    4.944842  -2.800755  1.67492
15308 1    2.513237  -5.664686  1.67492
15309 1    1.276593  -4.966753  1.67492
15310 1    1.262698  -3.546821  1.67492
15311 1    2.485447  -2.824822  1.67492
15312 1    0.053843  -5.688753  1.67492
15313 1   -1.182802  -4.990820  1.67492
15314 1   -1.196697  -3.570888  1.67492
15315 1    0.026053  -2.848889  1.67492
15316 1   -2.405552  -5.712819  1.67492
15317 1   -3.642196  -5.014887  1.67492
15318 1   -3.656091  -3.594955  1.67492
15319 1   -2.433341  -2.872955  1.67492
15320 1   -4.864946  -5.736886  1.67492
15321 1   -6.101591  -5.038953  1.67492
15322 1   -6.115486  -3.619021  1.67492
15323 1   -4.892736  -2.897022  1.67492
15324 1   -7.324340  -5.760953  1.67492
15325 1   -8.560985  -5.063020  1.67492
15326 1   -8.574880  -3.643088  1.67492
15327 1   -7.352130  -2.921089  1.67492
15328 1   -9.783735  -5.785019  1.67492
15329 1  -11.020379  -5.087087  1.67492
15330 1  -11.034274  -3.667155  1.67492
15331 1   -9.811525  -2.945155  1.67492
15332 1  -12.243129  -5.809086  1.67492
15333 1  -13.479774  -5.111153  1.67492
15334 1  -13.493669  -3.691221  1.67492
15335 1  -12.270919  -2.969222  1.67492
15336 1  -14.702524  -5.833152  1.67492
15337 1  -15.939168  -5.135220  1.67492
15338 1  -15.953063  -3.715288  1.67492
15339 1  -14.730313  -2.993288  1.67492
15340 1  -17.161918  -5.857219  1.67492
15341 1  -18.398563  -5.159286  1.67492
15342 1  -18.412458  -3.739354  1.67492
15343 1  -17.189708  -3.017355  1.67492
15344 1  -19.621312  -5.881286  1.67492
15345 1  -20.857957  -5.183353  1.67492
15346 1  -20.871852  -3.763421  1.67492
15347 1  -19.649102  -3.041422  1.67492
15348 1  -22.080707  -5.905352  1.67492
15349 1  -23.317351  -5.207420  1.67492
15350 1  -23.331246  -3.787488  1.67492
15351 1  -22.108497  -3.065488  1.67492
15352 1  -24.540101  -5.929419  1.67492
15353 1  -25.776746  -5.231486  1.67492
15354 1  -25.790641  -3.811554  1.67492
15355 1  -24.567891  -3.089555  1.67492
15356 1  -26.999496  -5.953486  1.67492
15357 1  -28.236140  -5.255553  1.67492
15358 1  -28.250035  -3.835621  1.67492
15359 1  -27.027285  -3.113622  1.67492
15360 1  -29.458890  -5.977552  1.67492
15361 1  -30.695535  -5.279620  1.67492
15362 1  -30.709430  -3.859688  1.67492
15363 1  -29.486680  -3.137688  1.67492
15364 1  -31.918284  -6.001619  1.67492
15365 1  -33.154929  -5.303686  1.67492
15366 1  -33.168824  -3.883754  1.67492
15367 1  -31.946074  -3.161755  1.67492
15368 1  -34.377679  -6.025686  1.67492
15369 1  -35.614323  -5.327753  1.67492
15370 1  -35.628218  -3.907821  1.67492
15371 1  -34.405469  -3.185822  1.67492
15372 1  -36.837073  -6.049752  1.67492
15373 1  -38.073718  -5.351820  1.67492
15374 1  -38.087613  -3.931888  1.67492
15375 1  -36.864863  -3.209888  1.67492
15376 1  -39.296468  -6.073819  1.67492
15377 1  -40.533112  -5.375886  1.67492
15378 1  -40.547007  -3.955954  1.67492
15379 1  -39.324257  -3.233955  1.67492
15380 1  -41.755862  -6.097886  1.67492
15381 1  -42.992507  -5.399953  1.67492
15382 1  -43.006402  -3.980021  1.67492
15383 1  -41.783652  -3.258022  1.67492
15384 1  -44.215256  -6.121952  1.67492
15385 1  -45.451901  -5.424020  1.67492
15386 1  -45.465796  -4.004088  1.67492
15387 1  -44.243046  -3.282088  1.67492
15388 1  -46.674651  -6.146019  1.67492
15389 1  -47.911295  -5.448086  1.67492
15390 1  -47.925190  -4.028154  1.67492
15391 1  -46.702441  -3.306155  1.67492
15392 1  -49.134045  -6.170086  1.67492
15393 1  -50.370690  -5.472153  1.67492
15394 1  -50.384585  -4.052221  1.67492
15395 1  -49.161835  -3.330221  1.67492
15396 1  -51.593440  -6.194152  1.67492
15397 1  -52.830084  -5.496219  1.67492
15398 1  -52.843979  -4.076287  1.67492
15399 1  -51.621229  -3.354288  1.67492
15400 1  -54.052834  -6.218219  1.67492
15401 1  -55.289479  -5.520286  1.67492
15402 1  -55.303373  -4.100354  1.67492
15403 1  -54.080624  -3.378355  1.67492
15404 1  -56.512228  -6.242285  1.67492
15405 1  -57.748873  -5.544353  1.67492
15406 1  -57.762768  -4.124421  1.67492
15407 1  -56.540018  -3.402421  1.67492
15408 1  -58.971623  -6.266352  1.67492
15409 1  -60.208267  -5.568419  1.67492
15410 1  -60.222162  -4.148487  1.67492
15411 1  -58.999413  -3.426488  1.67492
15412 1  -61.431017  -6.290419  1.67492
15413 1  -62.667662  -5.592486  1.67492
15414 1  -62.681557  -4.172554  1.67492
15415 1  -61.458807  -3.450555  1.67492
15416 1  -63.890412  -6.314485  1.67492
15417 1  -65.127056  -5.616553  1.67492
15418 1  -65.140951  -4.196621  1.67492
15419 1  -63.918201  -3.474621  1.67492
15420 1  -66.349806  -6.338552  1.67492
15421 1  -67.586451  -5.640619  1.67492
15422 1  -67.600345  -4.220687  1.67492
15423 1  -66.377596  -3.498688  1.67492
15424 1  -68.809200  -6.362619  1.67492
15425 1  -70.045845  -5.664686  1.67492
15426 1  -70.059740  -4.244754  1.67492
15427 1  -68.836990  -3.522755  1.67492
15428 1  -71.268595  -6.386685  1.67492
15429 1  -72.505239  -5.688753  1.67492
15430 1  -72.519134  -4.268821  1.67492
15431 1  -71.296385  -3.546821  1.67492
15432 1  -73.727989  -6.410752  1.67492
15433 1  -74.964634  -5.712819  1.67492
15434 1  -74.978529  -4.292887  1.67492
15435 1  -73.755779  -3.570888  1.67492
15436 1  -76.187384  -6.434819  1.67492
15437 1  -77.424028  -5.736886  1.67492
15438 1  -77.437923  -4.316954  1.67492
15439 1  -76.215173  -3.594955  1.67492
15440 1  -78.646778  -6.458885  1.67492
15441 1  -79.883423  -5.760953  1.67492
15442 1  -79.897317  -4.341021  1.67492
15443 1  -78.674568  -3.619021  1.67492
15444 1  -81.106172  -6.482952  1.67492
15445 1  -82.342817  -5.785019  1.67492
15446 1  -82.356712  -4.365087  1.67492
15447 1  -81.133962  -3.643088  1.67492
15448 1  -83.565567  -6.507019  1.67492
15449 1  -84.802211  -5.809086  1.67492
15450 1  -84.816106  -4.389154  1.67492
15451 1  -83.593356  -3.667155  1.67492
15452 1  -86.024961  -6.531085  1.67492
15453 1  -87.261606  -5.833152  1.67492
15454 1  -87.275501  -4.413220  1.67492
15455 1  -86.052751  -3.691221  1.67492
15456 1  -88.484356  -6.555152  1.67492
15457 1  -89.721000  -5.857219  1.67492
15458 1  -89.734895  -4.437287  1.67492
15459 1  -88.512145  -3.715288  1.67492
15460 1  -90.943750  -6.579218  1.67492
15461 1  -92.180395  -5.881286  1.67492
15462 1  -92.194289  -4.461354  1.67492
15463 1  -90.971540  -3.739354  1.67492
15464 1  -93.403144  -6.603285  1.67492
15465 1  -94.639789  -5.905352  1.67492
15466 1  -94.653684  -4.485420  1.67492
15467 1  -93.430934  -3.763421  1.67492
15468 1  -95.862539  -6.627352  1.67492
15469 1  -97.099183  -5.929419  1.67492
15470 1  -97.113078  -4.509487  1.67492
15471 1  -95.890328  -3.787488  1.67492
15472 1  -98.321933  -6.651418  1.67492
15473 1  -99.558578  -5.953486  1.67492
15474 1  -99.572473  -4.533554  1.67492
15475 1  -98.349723  -3.811554  1.67492
15476 1 -100.781327  -6.675485  1.67492
15477 1 -102.017972  -5.977552  1.67492
15478 1 -102.031867  -4.557620  1.67492
15479 1 -100.809117  -3.835621  1.67492
15480 1 -103.240722  -6.699552  1.67492
15481 1 -104.477367  -6.001619  1.67492
15482 1 -104.491261  -4.581687  1.67492
15483 1 -103.268512  -3.859688  1.67492
15484 1 -105.700116  -6.723618  1.67492
15485 1 -106.936761  -6.025686  1.67492
15486 1 -106.950656  -4.605754  1.67492
15487 1 -105.727906  -3.883754  1.67492
15488 1 -108.159511  -6.747685  1.67492
15489 1 -108.187300  -3.907821  1.67492
15490 1  108.225512  -0.370024  1.67492
15491 1  106.988867   0.327908  1.67492
15492 1  106.974972   1.747840  1.67492
15493 1  108.197722   2.469840  1.67492
15494 1  105.766117  -0.394091  1.67492
15495 1  104.529473   0.303842  1.67492
15496 1  104.515578   1.723774  1.67492
15497 1  105.738327   2.445773  1.67492
15498 1  103.306723  -0.418158  1.67492
15499 1  102.070078   0.279775  1.67492
15500 1  102.056183   1.699707  1.67492
15501 1  103.278933   2.421707  1.67492
15502 1  100.847328  -0.442224  1.67492
15503 1   99.610684   0.255709  1.67492
15504 1   99.596789   1.675641  1.67492
15505 1  100.819539   2.397640  1.67492
15506 1   98.387934  -0.466291  1.67492
15507 1   97.151289   0.231642  1.67492
15508 1   97.137394   1.651574  1.67492
15509 1   98.360144   2.373573  1.67492
15510 1   95.928540  -0.490357  1.67492
15511 1   94.691895   0.207575  1.67492
15512 1   94.678000   1.627507  1.67492
15513 1   95.900750   2.349507  1.67492
15514 1   93.469145  -0.514424  1.67492
15515 1   92.232501   0.183509  1.67492
15516 1   92.218606   1.603441  1.67492
15517 1   93.441355   2.325440  1.67492
15518 1   91.009751  -0.538491  1.67492
15519 1   89.773106   0.159442  1.67492
15520 1   89.759211   1.579374  1.67492
15521 1   90.981961   2.301373  1.67492
15522 1   88.550356  -0.562557  1.67492
15523 1   87.313712   0.135375  1.67492
15524 1   87.299817   1.555307  1.67492
15525 1   88.522567   2.277307  1.67492
15526 1   86.090962  -0.586624  1.67492
15527 1   84.854317   0.111309  1.67492
15528 1   84.840422   1.531241  1.67492
15529 1   86.063172   2.253240  1.67492
15530 1   83.631568  -0.610691  1.67492
15531 1   82.394923   0.087242  1.67492
15532 1   82.381028   1.507174  1.67492
15533 1   83.603778   2.229173  1.67492
15534 1   81.172173  -0.634757  1.67492
15535 1   79.935529   0.063175  1.67492
15536 1   79.921634   1.483107  1.67492
15537 1   81.144383   2.205107  1.67492
15538 1   78.712779  -0.658824  1.67492
15539 1   77.476134   0.039109  1.67492
15540 1   77.462239   1.459041  1.67492
15541 1   78.684989   2.181040  1.67492
15542 1   76.253384  -0.682891  1.67492
15543 1   75.016740   0.015042  1.67492
15544 1   75.002845   1.434974  1.67492
15545 1   76.225595   2.156973  1.67492
15546 1   73.793990  -0.706957  1.67492
15547 1   72.557345  -0.009025  1.67492
15548 1   72.543450   1.410907  1.67492
15549 1   73.766200   2.132907  1.67492
15550 1   71.334596  -0.731024  1.67492
15551 1   70.097951  -0.033091  1.67492
15552 1   70.084056   1.386841  1.67492
15553 1   71.306806   2.108840  1.67492
15554 1   68.875201  -0.755091  1.67492
15555 1   67.638557  -0.057158  1.67492
15556 1   67.624662   1.362774  1.67492
15557 1   68.847411   2.084773  1.67492
15558 1   66.415807  -0.779157  1.67492
15559 1   65.179162  -0.081224  1.67492
15560 1   65.165267   1.338708  1.67492
15561 1   66.388017   2.060707  1.67492
15562 1   63.956412  -0.803224  1.67492
15563 1   62.719768  -0.105291  1.67492
15564 1   62.705873   1.314641  1.67492
15565 1   63.928623   2.036640  1.67492
15566 1   61.497018  -0.827290  1.67492
15567 1   60.260373  -0.129358  1.67492
15568 1   60.246478   1.290574  1.67492
15569 1   61.469228   2.012574  1.67492
15570 1   59.037624  -0.851357  1.67492
15571 1   57.800979  -0.153424  1.67492
15572 1   57.787084   1.266508  1.67492
15573 1   59.009834   1.988507  1.67492
15574 1   56.578229  -0.875424  1.67492
15575 1   55.341585  -0.177491  1.67492
15576 1   55.327690   1.242441  1.67492
15577 1   56.550439   1.964440  1.67492
15578 1   54.118835  -0.899490  1.67492
15579 1   52.882190  -0.201558  1.67492
15580 1   52.868295   1.218374  1.67492
15581 1   54.091045   1.940374  1.67492
15582 1   51.659440  -0.923557  1.67492
15583 1   50.422796  -0.225624  1.67492
15584 1   50.408901   1.194308  1.67492
15585 1   51.631651   1.916307  1.67492
15586 1   49.200046  -0.947624  1.67492
15587 1   47.963401  -0.249691  1.67492
15588 1   47.949507   1.170241  1.67492
15589 1   49.172256   1.892240  1.67492
15590 1   46.740652  -0.971690  1.67492
15591 1   45.504007  -0.273758  1.67492
15592 1   45.490112   1.146174  1.67492
15593 1   46.712862   1.868174  1.67492
15594 1   44.281257  -0.995757  1.67492
15595 1   43.044613  -0.297824  1.67492
15596 1   43.030718   1.122108  1.67492
15597 1   44.253467   1.844107  1.67492
15598 1   41.821863  -1.019824  1.67492
15599 1   40.585218  -0.321891  1.67492
15600 1   40.571323   1.098041  1.67492
15601 1   41.794073   1.820040  1.67492
15602 1   39.362468  -1.043890  1.67492
15603 1   38.125824  -0.345958  1.67492
15604 1   38.111929   1.073974  1.67492
15605 1   39.334679   1.795974  1.67492
15606 1   36.903074  -1.067957  1.67492
15607 1   35.666429  -0.370024  1.67492
15608 1   35.652535   1.049908  1.67492
15609 1   36.875284   1.771907  1.67492
15610 1   34.443680  -1.092024  1.67492
15611 1   33.207035  -0.394091  1.67492
15612 1   33.193140   1.025841  1.67492
15613 1   34.415890   1.747840  1.67492
15614 1   31.984285  -1.116090  1.67492
15615 1   30.747641  -0.418158  1.67492
15616 1   30.733746   1.001775  1.67492
15617 1   31.956495   1.723774  1.67492
15618 1   29.524891  -1.140157  1.67492
15619 1   28.288246  -0.442224  1.67492
15620 1   28.274351   0.977708  1.67492
15621 1   29.497101   1.699707  1.67492
15622 1   27.065496  -1.164223  1.67492
15623 1   25.828852  -0.466291  1.67492
15624 1   25.814957   0.953641  1.67492
15625 1   27.037707   1.675641  1.67492
15626 1   24.606102  -1.188290  1.67492
15627 1   23.369457  -0.490357  1.67492
15628 1   23.355563   0.929575  1.67492
15629 1   24.578312   1.651574  1.67492
15630 1   22.146708  -1.212357  1.67492
15631 1   20.910063  -0.514424  1.67492
15632 1   20.896168   0.905508  1.67492
15633 1   22.118918   1.627507  1.67492
15634 1   19.687313  -1.236423  1.67492
15635 1   18.450669  -0.538491  1.67492
15636 1   18.436774   0.881441  1.67492
15637 1   19.659524   1.603441  1.67492
15638 1   17.227919  -1.260490  1.67492
15639 1   15.991274  -0.562557  1.67492
15640 1   15.977379   0.857375  1.67492
15641 1   17.200129   1.579374  1.67492
15642 1   14.768524  -1.284557  1.67492
15643 1   13.531880  -0.586624  1.67492
15644 1   13.517985   0.833308  1.67492
15645 1   14.740735   1.555307  1.67492
15646 1   12.309130  -1.308623  1.67492
15647 1   11.072485  -0.610691  1.67492
15648 1   11.058591   0.809241  1.67492
15649 1   12.281340   1.531241  1.67492
15650 1    9.849736  -1.332690  1.67492
15651 1    8.613091  -0.634757  1.67492
15652 1    8.599196   0.785175  1.67492
15653 1    9.821946   1.507174  1.67492
15654 1    7.390341  -1.356757  1.67492
15655 1    6.153697  -0.658824  1.67492
15656 1    6.139802   0.761108  1.67492
15657 1    7.362552   1.483107  1.67492
15658 1    4.930947  -1.380823  1.67492
15659 1    3.694302  -0.682891  1.67492
15660 1    3.680407   0.737041  1.67492
15661 1    4.903157   1.459041  1.67492
15662 1    2.471553  -1.404890  1.67492
15663 1    1.234908  -0.706957  1.67492
15664 1    1.221013   0.712975  1.67492
15665 1    2.443763   1.434974  1.67492
15666 1    0.012158  -1.428957  1.67492
15667 1   -1.224487  -0.731024  1.67492
15668 1   -1.238381   0.688908  1.67492
15669 1   -0.015632   1.410907  1.67492
15670 1   -2.447236  -1.453023  1.67492
15671 1   -3.683881  -0.755091  1.67492
15672 1   -3.697776   0.664841  1.67492
15673 1   -2.475026   1.386841  1.67492
15674 1   -4.906631  -1.477090  1.67492
15675 1   -6.143275  -0.779157  1.67492
15676 1   -6.157170   0.640775  1.67492
15677 1   -4.934420   1.362774  1.67492
15678 1   -7.366025  -1.501157  1.67492
15679 1   -8.602670  -0.803224  1.67492
15680 1   -8.616565   0.616708  1.67492
15681 1   -7.393815   1.338708  1.67492
15682 1   -9.825419  -1.525223  1.67492
15683 1  -11.062064  -0.827290  1.67492
15684 1  -11.075959   0.592642  1.67492
15685 1   -9.853209   1.314641  1.67492
15686 1  -12.284814  -1.549290  1.67492
15687 1  -13.521459  -0.851357  1.67492
15688 1  -13.535353   0.568575  1.67492
15689 1  -12.312604   1.290574  1.67492
15690 1  -14.744208  -1.573356  1.67492
15691 1  -15.980853  -0.875424  1.67492
15692 1  -15.994748   0.544508  1.67492
15693 1  -14.771998   1.266508  1.67492
15694 1  -17.203603  -1.597423  1.67492
15695 1  -18.440247  -0.899490  1.67492
15696 1  -18.454142   0.520442  1.67492
15697 1  -17.231392   1.242441  1.67492
15698 1  -19.662997  -1.621490  1.67492
15699 1  -20.899642  -0.923557  1.67492
15700 1  -20.913537   0.496375  1.67492
15701 1  -19.690787   1.218374  1.67492
15702 1  -22.122391  -1.645556  1.67492
15703 1  -23.359036  -0.947624  1.67492
15704 1  -23.372931   0.472308  1.67492
15705 1  -22.150181   1.194308  1.67492
15706 1  -24.581786  -1.669623  1.67492
15707 1  -25.818430  -0.971690  1.67492
15708 1  -25.832325   0.448242  1.67492
15709 1  -24.609576   1.170241  1.67492
15710 1  -27.041180  -1.693690  1.67492
15711 1  -28.277825  -0.995757  1.67492
15712 1  -28.291720   0.424175  1.67492
15713 1  -27.068970   1.146174  1.67492
15714 1  -29.500575  -1.717756  1.67492
15715 1  -30.737219  -1.019824  1.67492
15716 1  -30.751114   0.400108  1.67492
15717 1  -29.528364   1.122108  1.67492
15718 1  -31.959969  -1.741823  1.67492
15719 1  -33.196614  -1.043890  1.67492
15720 1  -33.210509   0.376042  1.67492
15721 1  -31.987759   1.098041  1.67492
15722 1  -34.419363  -1.765890  1.67492
15723 1  -35.656008  -1.067957  1.67492
15724 1  -35.669903   0.351975  1.67492
15725 1  -34.447153   1.073974  1.67492
15726 1  -36.878758  -1.789956  1.67492
15727 1  -38.115402  -1.092024  1.67492
15728 1  -38.129297   0.327908  1.67492
15729 1  -36.906548   1.049908  1.67492
15730 1  -39.338152  -1.814023  1.67492
15731 1  -40.574797  -1.116090  1.67492
15732 1  -40.588692   0.303842  1.67492
15733 1  -39.365942   1.025841  1.67492
15734 1  -41.797547  -1.838090  1.67492
15735 1  -43.034191  -1.140157  1.67492
15736 1  -43.048086   0.279775  1.67492
15737 1  -41.825336   1.001775  1.67492
15738 1  -44.256941  -1.862156  1.67492
15739 1  -45.493586  -1.164223  1.67492
15740 1  -45.507481   0.255709  1.67492
15741 1  -44.284731   0.977708  1.67492
15742 1  -46.716335  -1.886223  1.67492
15743 1  -47.952980  -1.188290  1.67492
15744 1  -47.966875   0.231642  1.67492
15745 1  -46.744125   0.953641  1.67492
15746 1  -49.175730  -1.910289  1.67492
15747 1  -50.412374  -1.212357  1.67492
15748 1  -50.426269   0.207575  1.67492
15749 1  -49.203520   0.929575  1.67492
15750 1  -51.635124  -1.934356  1.67492
15751 1  -52.871769  -1.236423  1.67492
15752 1  -52.885664   0.183509  1.67492
15753 1  -51.662914   0.905508  1.67492
15754 1  -54.094519  -1.958423  1.67492
15755 1  -55.331163  -1.260490  1.67492
15756 1  -55.345058   0.159442  1.67492
15757 1  -54.122308   0.881441  1.67492
15758 1  -56.553913  -1.982489  1.67492
15759 1  -57.790558  -1.284557  1.67492
15760 1  -57.804453   0.135375  1.67492
15761 1  -56.581703   0.857375  1.67492
15762 1  -59.013307  -2.006556  1.67492
15763 1  -60.249952  -1.308623  1.67492
15764 1  -60.263847   0.111309  1.67492
15765 1  -59.041097   0.833308  1.67492
15766 1  -61.472702  -2.030623  1.67492
15767 1  -62.709346  -1.332690  1.67492
15768 1  -62.723241   0.087242  1.67492
15769 1  -61.500492   0.809241  1.67492
15770 1  -63.932096  -2.054689  1.67492
15771 1  -65.168741  -1.356757  1.67492
15772 1  -65.182636   0.063175  1.67492
15773 1  -63.959886   0.785175  1.67492
15774 1  -66.391491  -2.078756  1.67492
15775 1  -67.628135  -1.380823  1.67492
15776 1  -67.642030   0.039109  1.67492
15777 1  -66.419280   0.761108  1.67492
15778 1  -68.850885  -2.102823  1.67492
15779 1  -70.087530  -1.404890  1.67492
15780 1  -70.101425   0.015042  1.67492
15781 1  -68.878675   0.737041  1.67492
15782 1  -71.310279  -2.126889  1.67492
15783 1  -72.546924  -1.428957  1.67492
15784 1  -72.560819  -0.009025  1.67492
15785 1  -71.338069   0.712975  1.67492
15786 1  -73.769674  -2.150956  1.67492
15787 1  -75.006318  -1.453023  1.67492
15788 1  -75.020213  -0.033091  1.67492
15789 1  -73.797464   0.688908  1.67492
15790 1  -76.229068  -2.175023  1.67492
15791 1  -77.465713  -1.477090  1.67492
15792 1  -77.479608  -0.057158  1.67492
15793 1  -76.256858   0.664841  1.67492
15794 1  -78.688463  -2.199089  1.67492
15795 1  -79.925107  -1.501157  1.67492
15796 1  -79.939002  -0.081224  1.67492
15797 1  -78.716252   0.640775  1.67492
15798 1  -81.147857  -2.223156  1.67492
15799 1  -82.384502  -1.525223  1.67492
15800 1  -82.398396  -0.105291  1.67492
15801 1  -81.175647   0.616708  1.67492
15802 1  -83.607251  -2.247222  1.67492
15803 1  -84.843896  -1.549290  1.67492
15804 1  -84.857791  -0.129358  1.67492
15805 1  -83.635041   0.592642  1.67492
15806 1  -86.066646  -2.271289  1.67492
15807 1  -87.303290  -1.573356  1.67492
15808 1  -87.317185  -0.153424  1.67492
15809 1  -86.094436   0.568575  1.67492
15810 1  -88.526040  -2.295356  1.67492
15811 1  -89.762685  -1.597423  1.67492
15812 1  -89.776580  -0.177491  1.67492
15813 1  -88.553830   0.544508  1.67492
15814 1  -90.985435  -2.319422  1.67492
15815 1  -92.222079  -1.621490  1.67492
15816 1  -92.235974  -0.201558  1.67492
15817 1  -91.013224   0.520442  1.67492
15818 1  -93.444829  -2.343489  1.67492
15819 1  -94.681474  -1.645556  1.67492
15820 1  -94.695368  -0.225624  1.67492
15821 1  -93.472619   0.496375  1.67492
15822 1  -95.904223  -2.367556  1.67492
15823 1  -97.140868  -1.669623  1.67492
15824 1  -97.154763  -0.249691  1.67492
15825 1  -95.932013   0.472308  1.67492
15826 1  -98.363618  -2.391622  1.67492
15827 1  -99.600262  -1.693690  1.67492
15828 1  -99.614157  -0.273758  1.67492
15829 1  -98.391408   0.448242  1.67492
15830 1 -100.823012  -2.415689  1.67492
15831 1 -102.059657  -1.717756  1.67492
15832 1 -102.073552  -0.297824  1.67492
15833 1 -100.850802   0.424175  1.67492
15834 1 -103.282407  -2.439756  1.67492
15835 1 -104.519051  -1.741823  1.67492
15836 1 -104.532946  -0.321891  1.67492
15837 1 -103.310196   0.400108  1.67492
15838 1 -105.741801  -2.463822  1.67492
15839 1 -106.978446  -1.765890  1.67492
15840 1 -106.992340  -0.345958  1.67492
15841 1 -105.769591   0.376042  1.67492
15842 1 -108.201195  -2.487889  1.67492
15843 1 -108.228985   0.351975  1.67492
15844 1  108.183827   3.889772  1.67492
15845 1  106.947182   4.587705  1.67492
15846 1  106.933287   6.007637  1.67492
15847 1  108.156037   6.729636  1.67492
15848 1  105.724432   3.865705  1.67492
15849 1  104.487788   4.563638  1.67492
15850 1  104.473893   5.983570  1.67492
15851 1  105.696643   6.705569  1.67492
15852 1  103.265038   3.841639  1.67492
15853 1  102.028393   4.539571  1.67492
15854 1  102.014499   5.959503  1.67492
15855 1  103.237248   6.681503  1.67492
15856 1  100.805644   3.817572  1.67492
15857 1   99.568999   4.515505  1.67492
15858 1   99.555104   5.935437  1.67492
15859 1  100.777854   6.657436  1.67492
15860 1   98.346249   3.793505  1.67492
15861 1   97.109605   4.491438  1.67492
15862 1   97.095710   5.911370  1.67492
15863 1   98.318460   6.633369  1.67492
15864 1   95.886855   3.769439  1.67492
15865 1   94.650210   4.467371  1.67492
15866 1   94.636315   5.887303  1.67492
15867 1   95.859065   6.609303  1.67492
15868 1   93.427461   3.745372  1.67492
15869 1   92.190816   4.443305  1.67492
15870 1   92.176921   5.863237  1.67492
15871 1   93.399671   6.585236  1.67492
15872 1   90.968066   3.721305  1.67492
15873 1   89.731421   4.419238  1.67492
15874 1   89.717527   5.839170  1.67492
15875 1   90.940276   6.561169  1.67492
15876 1   88.508672   3.697239  1.67492
15877 1   87.272027   4.395171  1.67492
15878 1   87.258132   5.815103  1.67492
15879 1   88.480882   6.537103  1.67492
15880 1   86.049277   3.673172  1.67492
15881 1   84.812633   4.371105  1.67492
15882 1   84.798738   5.791037  1.67492
15883 1   86.021488   6.513036  1.67492
15884 1   83.589883   3.649105  1.67492
15885 1   82.353238   4.347038  1.67492
15886 1   82.339343   5.766970  1.67492
15887 1   83.562093   6.488969  1.67492
15888 1   81.130489   3.625039  1.67492
15889 1   79.893844   4.322971  1.67492
15890 1   79.879949   5.742903  1.67492
15891 1   81.102699   6.464903  1.67492
15892 1   78.671094   3.600972  1.67492
15893 1   77.434449   4.298905  1.67492
15894 1   77.420555   5.718837  1.67492
15895 1   78.643304   6.440836  1.67492
15896 1   76.211700   3.576905  1.67492
15897 1   74.975055   4.274838  1.67492
15898 1   74.961160   5.694770  1.67492
15899 1   76.183910   6.416769  1.67492
15900 1   73.752305   3.552839  1.67492
15901 1   72.515661   4.250771  1.67492
15902 1   72.501766   5.670704  1.67492
15903 1   73.724516   6.392703  1.67492
15904 1   71.292911   3.528772  1.67492
15905 1   70.056266   4.226705  1.67492
15906 1   70.042371   5.646637  1.67492
15907 1   71.265121   6.368636  1.67492
15908 1   68.833517   3.504706  1.67492
15909 1   67.596872   4.202638  1.67492
15910 1   67.582977   5.622570  1.67492
15911 1   68.805727   6.344570  1.67492
15912 1   66.374122   3.480639  1.67492
15913 1   65.137478   4.178572  1.67492
15914 1   65.123583   5.598504  1.67492
15915 1   66.346332   6.320503  1.67492
15916 1   63.914728   3.456572  1.67492
15917 1   62.678083   4.154505  1.67492
15918 1   62.664188   5.574437  1.67492
15919 1   63.886938   6.296436  1.67492
15920 1   61.455333   3.432506  1.67492
15921 1   60.218689   4.130438  1.67492
15922 1   60.204794   5.550370  1.67492
15923 1   61.427544   6.272370  1.67492
15924 1   58.995939   3.408439  1.67492
15925 1   57.759294   4.106372  1.67492
15926 1   57.745399   5.526304  1.67492
15927 1   58.968149   6.248303  1.67492
15928 1   56.536545   3.384372  1.67492
15929 1   55.299900   4.082305  1.67492
15930 1   55.286005   5.502237  1.67492
15931 1   56.508755   6.224236  1.67492
15932 1   54.077150   3.360306  1.67492
15933 1   52.840506   4.058238  1.67492
15934 1   52.826611   5.478170  1.67492
15935 1   54.049360   6.200170  1.67492
15936 1   51.617756   3.336239  1.67492
15937 1   50.381111   4.034172  1.67492
15938 1   50.367216   5.454104  1.67492
15939 1   51.589966   6.176103  1.67492
15940 1   49.158361   3.312172  1.67492
15941 1   47.921717   4.010105  1.67492
15942 1   47.907822   5.430037  1.67492
15943 1   49.130572   6.152036  1.67492
15944 1   46.698967   3.288106  1.67492
15945 1   45.462322   3.986038  1.67492
15946 1   45.448427   5.405970  1.67492
15947 1   46.671177   6.127970  1.67492
15948 1   44.239573   3.264039  1.67492
15949 1   43.002928   3.961972  1.67492
15950 1   42.989033   5.381904  1.67492
15951 1   44.211783   6.103903  1.67492
15952 1   41.780178   3.239972  1.67492
15953 1   40.543534   3.937905  1.67492
15954 1   40.529639   5.357837  1.67492
15955 1   41.752388   6.079836  1.67492
15956 1   39.320784   3.215906  1.67492
15957 1   38.084139   3.913838  1.67492
15958 1   38.070244   5.333770  1.67492
15959 1   39.292994   6.055770  1.67492
15960 1   36.861389   3.191839  1.67492
15961 1   35.624745   3.889772  1.67492
15962 1   35.610850   5.309704  1.67492
15963 1   36.833600   6.031703  1.67492
15964 1   34.401995   3.167772  1.67492
15965 1   33.165350   3.865705  1.67492
15966 1   33.151455   5.285637  1.67492
15967 1   34.374205   6.007637  1.67492
15968 1   31.942601   3.143706  1.67492
15969 1   30.705956   3.841639  1.67492
15970 1   30.692061   5.261571  1.67492
15971 1   31.914811   5.983570  1.67492
15972 1   29.483206   3.119639  1.67492
15973 1   28.246562   3.817572  1.67492
15974 1   28.232667   5.237504  1.67492
15975 1   29.455416   5.959503  1.67492
15976 1   27.023812   3.095573  1.67492
15977 1   25.787167   3.793505  1.67492
15978 1   25.773272   5.213437  1.67492
15979 1   26.996022   5.935437  1.67492
15980 1   24.564417   3.071506  1.67492
15981 1   23.327773   3.769439  1.67492
15982 1   23.313878   5.189371  1.67492
15983 1   24.536628   5.911370  1.67492
15984 1   22.105023   3.047439  1.67492
15985 1   20.868378   3.745372  1.67492
15986 1   20.854483   5.165304  1.67492
15987 1   22.077233   5.887303  1.67492
15988 1   19.645629   3.023373  1.67492
15989 1   18.408984   3.721305  1.67492
15990 1   18.395089   5.141237  1.67492
15991 1   19.617839   5.863237  1.67492
15992 1   17.186234   2.999306  1.67492
15993 1   15.949590   3.697239  1.67492
15994 1   15.935695   5.117171  1.67492
15995 1   17.158444   5.839170  1.67492
15996 1   14.726840   2.975239  1.67492
15997 1   13.490195   3.673172  1.67492
15998 1   13.476300   5.093104  1.67492
15999 1   14.699050   5.815103  1.67492
16000 1   12.267445   2.951173  1.67492
16001 1   11.030801   3.649105  1.67492
16002 1   11.016906   5.069037  1.67492
16003 1   12.239656   5.791037  1.67492
16004 1    9.808051   2.927106  1.67492
16005 1    8.571406   3.625039  1.67492
16006 1    8.557512   5.044971  1.67492
16007 1    9.780261   5.766970  1.67492
16008 1    7.348657   2.903039  1.67492
16009 1    6.112012   3.600972  1.67492
16010 1    6.098117   5.020904  1.67492
16011 1    7.320867   5.742903  1.67492
16012 1    4.889262   2.878973  1.67492
16013 1    3.652618   3.576905  1.67492
16014 1    3.638723   4.996837  1.67492
16015 1    4.861472   5.718837  1.67492
16016 1    2.429868   2.854906  1.67492
16017 1    1.193223   3.552839  1.67492
16018 1    1.179328   4.972771  1.67492
16019 1    2.402078   5.694770  1.67492
16020 1   -0.029527   2.830839  1.67492
16021 1   -1.266171   3.528772  1.67492
16022 1   -1.280066   4.948704  1.67492
16023 1   -0.057316   5.670704  1.67492
16024 1   -2.488921   2.806773  1.67492
16025 1   -3.725566   3.504706  1.67492
16026 1   -3.739460   4.924638  1.67492
16027 1   -2.516711   5.646637  1.67492
16028 1   -4.948315   2.782706  1.67492
16029 1   -6.184960   3.480639  1.67492
16030 1   -6.198855   4.900571  1.67492
16031 1   -4.976105   5.622570  1.67492
16032 1   -7.407710   2.758640  1.67492
16033 1   -8.644354   3.456572  1.67492
16034 1   -8.658249   4.876504  1.67492
16035 1   -7.435500   5.598504  1.67492
16036 1   -9.867104   2.734573  1.67492
16037 1  -11.103749   3.432506  1.67492
16038 1  -11.117644   4.852438  1.67492
16039 1   -9.894894   5.574437  1.67492
16040 1  -12.326499   2.710506  1.67492
16041 1  -13.563143   3.408439  1.67492
16042 1  -13.577038   4.828371  1.67492
16043 1  -12.354288   5.550370  1.67492
16044 1  -14.785893   2.686440  1.67492
16045 1  -16.022538   3.384372  1.67492
16046 1  -16.036432   4.804304  1.67492
16047 1  -14.813683   5.526304  1.67492
16048 1  -17.245287   2.662373  1.67492
16049 1  -18.481932   3.360306  1.67492
16050 1  -18.495827   4.780238  1.67492
16051 1  -17.273077   5.502237  1.67492
16052 1  -19.704682   2.638306  1.67492
16053 1  -20.941326   3.336239  1.67492
16054 1  -20.955221   4.756171  1.67492
16055 1  -19.732471   5.478170  1.67492
16056 1  -22.164076   2.614240  1.67492
16057 1  -23.400721   3.312172  1.67492
16058 1  -23.414616   4.732104  1.67492
16059 1  -22.191866   5.454104  1.67492
16060 1  -24.623471   2.590173  1.67492
16061 1  -25.860115   3.288106  1.67492
16062 1  -25.874010   4.708038  1.67492
16063 1  -24.651260   5.430037  1.67492
16064 1  -27.082865   2.566106  1.67492
16065 1  -28.319510   3.264039  1.67492
16066 1  -28.333404   4.683971  1.67492
16067 1  -27.110655   5.405970  1.67492
16068 1  -29.542259   2.542040  1.67492
16069 1  -30.778904   3.239972  1.67492
16070 1  -30.792799   4.659904  1.67492
16071 1  -29.570049   5.381904  1.67492
16072 1  -32.001654   2.517973  1.67492
16073 1  -33.238298   3.215906  1.67492
16074 1  -33.252193   4.635838  1.67492
16075 1  -32.029443   5.357837  1.67492
16076 1  -34.461048   2.493906  1.67492
16077 1  -35.697693   3.191839  1.67492
16078 1  -35.711588   4.611771  1.67492
16079 1  -34.488838   5.333770  1.67492
16080 1  -36.920442   2.469840  1.67492
16081 1  -38.157087   3.167772  1.67492
16082 1  -38.170982   4.587705  1.67492
16083 1  -36.948232   5.309704  1.67492
16084 1  -39.379837   2.445773  1.67492
16085 1  -40.616482   3.143706  1.67492
16086 1  -40.630376   4.563638  1.67492
16087 1  -39.407627   5.285637  1.67492
16088 1  -41.839231   2.421707  1.67492
16089 1  -43.075876   3.119639  1.67492
16090 1  -43.089771   4.539571  1.67492
16091 1  -41.867021   5.261571  1.67492
16092 1  -44.298626   2.397640  1.67492
16093 1  -45.535270   3.095573  1.67492
16094 1  -45.549165   4.515505  1.67492
16095 1  -44.326415   5.237504  1.67492
16096 1  -46.758020   2.373573  1.67492
16097 1  -47.994665   3.071506  1.67492
16098 1  -48.008560   4.491438  1.67492
16099 1  -46.785810   5.213437  1.67492
16100 1  -49.217414   2.349507  1.67492
16101 1  -50.454059   3.047439  1.67492
16102 1  -50.467954   4.467371  1.67492
16103 1  -49.245204   5.189371  1.67492
16104 1  -51.676809   2.325440  1.67492
16105 1  -52.913454   3.023373  1.67492
16106 1  -52.927348   4.443305  1.67492
16107 1  -51.704599   5.165304  1.67492
16108 1  -54.136203   2.301373  1.67492
16109 1  -55.372848   2.999306  1.67492
16110 1  -55.386743   4.419238  1.67492
16111 1  -54.163993   5.141237  1.67492
16112 1  -56.595598   2.277307  1.67492
16113 1  -57.832242   2.975239  1.67492
16114 1  -57.846137   4.395171  1.67492
16115 1  -56.623387   5.117171  1.67492
16116 1  -59.054992   2.253240  1.67492
16117 1  -60.291637   2.951173  1.67492
16118 1  -60.305532   4.371105  1.67492
16119 1  -59.082782   5.093104  1.67492
16120 1  -61.514386   2.229173  1.67492
16121 1  -62.751031   2.927106  1.67492
16122 1  -62.764926   4.347038  1.67492
16123 1  -61.542176   5.069037  1.67492
16124 1  -63.973781   2.205107  1.67492
16125 1  -65.210425   2.903039  1.67492
16126 1  -65.224320   4.322971  1.67492
16127 1  -64.001571   5.044971  1.67492
16128 1  -66.433175   2.181040  1.67492
16129 1  -67.669820   2.878973  1.67492
16130 1  -67.683715   4.298905  1.67492
16131 1  -66.460965   5.020904  1.67492
16132 1  -68.892570   2.156973  1.67492
16133 1  -70.129214   2.854906  1.67492
16134 1  -70.143109   4.274838  1.67492
16135 1  -68.920359   4.996837  1.67492
16136 1  -71.351964   2.132907  1.67492
16137 1  -72.588609   2.830839  1.67492
16138 1  -72.602504   4.250771  1.67492
16139 1  -71.379754   4.972771  1.67492
16140 1  -73.811358   2.108840  1.67492
16141 1  -75.048003   2.806773  1.67492
16142 1  -75.061898   4.226705  1.67492
16143 1  -73.839148   4.948704  1.67492
16144 1  -76.270753   2.084773  1.67492
16145 1  -77.507397   2.782706  1.67492
16146 1  -77.521292   4.202638  1.67492
16147 1  -76.298543   4.924638  1.67492
16148 1  -78.730147   2.060707  1.67492
16149 1  -79.966792   2.758640  1.67492
16150 1  -79.980687   4.178572  1.67492
16151 1  -78.757937   4.900571  1.67492
16152 1  -81.189542   2.036640  1.67492
16153 1  -82.426186   2.734573  1.67492
16154 1  -82.440081   4.154505  1.67492
16155 1  -81.217331   4.876504  1.67492
16156 1  -83.648936   2.012574  1.67492
16157 1  -84.885581   2.710506  1.67492
16158 1  -84.899476   4.130438  1.67492
16159 1  -83.676726   4.852438  1.67492
16160 1  -86.108330   1.988507  1.67492
16161 1  -87.344975   2.686440  1.67492
16162 1  -87.358870   4.106372  1.67492
16163 1  -86.136120   4.828371  1.67492
16164 1  -88.567725   1.964440  1.67492
16165 1  -89.804369   2.662373  1.67492
16166 1  -89.818264   4.082305  1.67492
16167 1  -88.595515   4.804304  1.67492
16168 1  -91.027119   1.940374  1.67492
16169 1  -92.263764   2.638306  1.67492
16170 1  -92.277659   4.058238  1.67492
16171 1  -91.054909   4.780238  1.67492
16172 1  -93.486514   1.916307  1.67492
16173 1  -94.723158   2.614240  1.67492
16174 1  -94.737053   4.034172  1.67492
16175 1  -93.514303   4.756171  1.67492
16176 1  -95.945908   1.892240  1.67492
16177 1  -97.182553   2.590173  1.67492
16178 1  -97.196448   4.010105  1.67492
16179 1  -95.973698   4.732104  1.67492
16180 1  -98.405302   1.868174  1.67492
16181 1  -99.641947   2.566106  1.67492
16182 1  -99.655842   3.986038  1.67492
16183 1  -98.433092   4.708038  1.67492
16184 1 -100.864697   1.844107  1.67492
16185 1 -102.101341   2.542040  1.67492
16186 1 -102.115236   3.961972  1.67492
16187 1 -100.892487   4.683971  1.67492
16188 1 -103.324091   1.820040  1.67492
16189 1 -104.560736   2.517973  1.67492
16190 1 -104.574631   3.937905  1.67492
16191 1 -103.351881   4.659904  1.67492
16192 1 -105.783486   1.795974  1.67492
16193 1 -107.020130   2.493906  1.67492
16194 1 -107.034025   3.913838  1.67492
16195 1 -105.811275   4.635838  1.67492
16196 1 -108.242880   1.771907  1.67492
16197 1 -108.270670   4.611771  1.67492
16198 1  108.142142   8.149568  1.67492
16199 1  106.905498   8.847501  1.67492
16200 1  106.891603  10.267433  1.67492
16201 1  108.114352  10.989432  1.67492
16202 1  105.682748   8.125501  1.67492
16203 1  104.446103   8.823434  1.67492
16204 1  104.432208  10.243366  1.67492
16205 1  105.654958  10.965365  1.67492
16206 1  103.223353   8.101435  1.67492
16207 1  101.986709   8.799367  1.67492
16208 1  101.972814  10.219299  1.67492
16209 1  103.195564  10.941299  1.67492
16210 1  100.763959   8.077368  1.67492
16211 1   99.527314   8.775301  1.67492
16212 1   99.513420  10.195233  1.67492
16213 1  100.736169  10.917232  1.67492
16214 1   98.304565   8.053301  1.67492
16215 1   97.067920   8.751234  1.67492
16216 1   97.054025  10.171166  1.67492
16217 1   98.276775  10.893165  1.67492
16218 1   95.845170   8.029235  1.67492
16219 1   94.608526   8.727167  1.67492
16220 1   94.594631  10.147099  1.67492
16221 1   95.817380  10.869099  1.67492
16222 1   93.385776   8.005168  1.67492
16223 1   92.149131   8.703101  1.67492
16224 1   92.135236  10.123033  1.67492
16225 1   93.357986  10.845032  1.67492
16226 1   90.926381   7.981101  1.67492
16227 1   89.689737   8.679034  1.67492
16228 1   89.675842  10.098966  1.67492
16229 1   90.898592  10.820965  1.67492
16230 1   88.466987   7.957035  1.67492
16231 1   87.230342   8.654967  1.67492
16232 1   87.216448  10.074899  1.67492
16233 1   88.439197  10.796899  1.67492
16234 1   86.007593   7.932968  1.67492
16235 1   84.770948   8.630901  1.67492
16236 1   84.757053  10.050833  1.67492
16237 1   85.979803  10.772832  1.67492
16238 1   83.548198   7.908901  1.67492
16239 1   82.311554   8.606834  1.67492
16240 1   82.297659  10.026766  1.67492
16241 1   83.520409  10.748765  1.67492
16242 1   81.088804   7.884835  1.67492
16243 1   79.852159   8.582767  1.67492
16244 1   79.838264  10.002699  1.67492
16245 1   81.061014  10.724699  1.67492
16246 1   78.629409   7.860768  1.67492
16247 1   77.392765   8.558701  1.67492
16248 1   77.378870   9.978633  1.67492
16249 1   78.601620  10.700632  1.67492
16250 1   76.170015   7.836701  1.67492
16251 1   74.933370   8.534634  1.67492
16252 1   74.919476   9.954566  1.67492
16253 1   76.142225  10.676566  1.67492
16254 1   73.710621   7.812635  1.67492
16255 1   72.473976   8.510568  1.67492
16256 1   72.460081   9.930500  1.67492
16257 1   73.682831  10.652499  1.67492
16258 1   71.251226   7.788568  1.67492
16259 1   70.014582   8.486501  1.67492
16260 1   70.000687   9.906433  1.67492
16261 1   71.223437  10.628432  1.67492
16262 1   68.791832   7.764502  1.67492
16263 1   67.555187   8.462434  1.67492
16264 1   67.541292   9.882366  1.67492
16265 1   68.764042  10.604366  1.67492
16266 1   66.332438   7.740435  1.67492
16267 1   65.095793   8.438368  1.67492
16268 1   65.081898   9.858300  1.67492
16269 1   66.304648  10.580299  1.67492
16270 1   63.873043   7.716368  1.67492
16271 1   62.636398   8.414301  1.67492
16272 1   62.622504   9.834233  1.67492
16273 1   63.845253  10.556232  1.67492
16274 1   61.413649   7.692302  1.67492
16275 1   60.177004   8.390234  1.67492
16276 1   60.163109   9.810166  1.67492
16277 1   61.385859  10.532166  1.67492
16278 1   58.954254   7.668235  1.67492
16279 1   57.717610   8.366168  1.67492
16280 1   57.703715   9.786100  1.67492
16281 1   58.926465  10.508099  1.67492
16282 1   56.494860   7.644168  1.67492
16283 1   55.258215   8.342101  1.67492
16284 1   55.244320   9.762033  1.67492
16285 1   56.467070  10.484032  1.67492
16286 1   54.035466   7.620102  1.67492
16287 1   52.798821   8.318034  1.67492
16288 1   52.784926   9.737966  1.67492
16289 1   54.007676  10.459966  1.67492
16290 1   51.576071   7.596035  1.67492
16291 1   50.339426   8.293968  1.67492
16292 1   50.325532   9.713900  1.67492
16293 1   51.548281  10.435899  1.67492
16294 1   49.116677   7.571968  1.67492
16295 1   47.880032   8.269901  1.67492
16296 1   47.866137   9.689833  1.67492
16297 1   49.088887  10.411832  1.67492
16298 1   46.657282   7.547902  1.67492
16299 1   45.420638   8.245834  1.67492
16300 1   45.406743   9.665766  1.67492
16301 1   46.629493  10.387766  1.67492
16302 1   44.197888   7.523835  1.67492
16303 1   42.961243   8.221768  1.67492
16304 1   42.947348   9.641700  1.67492
16305 1   44.170098  10.363699  1.67492
16306 1   41.738494   7.499768  1.67492
16307 1   40.501849   8.197701  1.67492
16308 1   40.487954   9.617633  1.67492
16309 1   41.710704  10.339633  1.67492
16310 1   39.279099   7.475702  1.67492
16311 1   38.042455   8.173635  1.67492
16312 1   38.028560   9.593567  1.67492
16313 1   39.251309  10.315566  1.67492
16314 1   36.819705   7.451635  1.67492
16315 1   35.583060   8.149568  1.67492
16316 1   35.569165   9.569500  1.67492
16317 1   36.791915  10.291499  1.67492
16318 1   34.360310   7.427569  1.67492
16319 1   33.123666   8.125501  1.67492
16320 1   33.109771   9.545433  1.67492
16321 1   34.332521  10.267433  1.67492
16322 1   31.900916   7.403502  1.67492
16323 1   30.664271   8.101435  1.67492
16324 1   30.650376   9.521367  1.67492
16325 1   31.873126  10.243366  1.67492
16326 1   29.441522   7.379435  1.67492
16327 1   28.204877   8.077368  1.67492
16328 1   28.190982   9.497300  1.67492
16329 1   29.413732  10.219299  1.67492
16330 1   26.982127   7.355369  1.67492
16331 1   25.745483   8.053301  1.67492
16332 1   25.731588   9.473233  1.67492
16333 1   26.954337  10.195233  1.67492
16334 1   24.522733   7.331302  1.67492
16335 1   23.286088   8.029235  1.67492
16336 1   23.272193   9.449167  1.67492
16337 1   24.494943  10.171166  1.67492
16338 1   22.063338   7.307235  1.67492
16339 1   20.826694   8.005168  1.67492
16340 1   20.812799   9.425100  1.67492
16341 1   22.035549  10.147099  1.67492
16342 1   19.603944   7.283169  1.67492
16343 1   18.367299   7.981101  1.67492
16344 1   18.353404   9.401033  1.67492
16345 1   19.576154  10.123033  1.67492
16346 1   17.144550   7.259102  1.67492
16347 1   15.907905   7.957035  1.67492
16348 1   15.894010   9.376967  1.67492
16349 1   17.116760  10.098966  1.67492
16350 1   14.685155   7.235035  1.67492
16351 1   13.448511   7.932968  1.67492
16352 1   13.434616   9.352900  1.67492
16353 1   14.657365  10.074899  1.67492
16354 1   12.225761   7.210969  1.67492
16355 1   10.989116   7.908901  1.67492
16356 1   10.975221   9.328833  1.67492
16357 1   12.197971  10.050833  1.67492
16358 1    9.766366   7.186902  1.67492
16359 1    8.529722   7.884835  1.67492
16360 1    8.515827   9.304767  1.67492
16361 1    9.738577  10.026766  1.67492
16362 1    7.306972   7.162835  1.67492
16363 1    6.070327   7.860768  1.67492
16364 1    6.056432   9.280700  1.67492
16365 1    7.279182  10.002699  1.67492
16366 1    4.847578   7.138769  1.67492
16367 1    3.610933   7.836701  1.67492
16368 1    3.597038   9.256634  1.67492
16369 1    4.819788   9.978633  1.67492
16370 1    2.388183   7.114702  1.67492
16371 1    1.151539   7.812635  1.67492
16372 1    1.137644   9.232567  1.67492
16373 1    2.360393   9.954566  1.67492
16374 1   -0.071211   7.090636  1.67492
16375 1   -1.307856   7.788568  1.67492
16376 1   -1.321751   9.208500  1.67492
16377 1   -0.099001   9.930500  1.67492
16378 1   -2.530606   7.066569  1.67492
16379 1   -3.767250   7.764502  1.67492
16380 1   -3.781145   9.184434  1.67492
16381 1   -2.558395   9.906433  1.67492
16382 1   -4.990000   7.042502  1.67492
16383 1   -6.226645   7.740435  1.67492
16384 1   -6.240540   9.160367  1.67492
16385 1   -5.017790   9.882366  1.67492
16386 1   -7.449394   7.018436  1.67492
16387 1   -8.686039   7.716368  1.67492
16388 1   -8.699934   9.136300  1.67492
16389 1   -7.477184   9.858300  1.67492
16390 1   -9.908789   6.994369  1.67492
16391 1  -11.145433   7.692302  1.67492
16392 1  -11.159328   9.112234  1.67492
16393 1   -9.936579   9.834233  1.67492
16394 1  -12.368183   6.970302  1.67492
16395 1  -13.604828   7.668235  1.67492
16396 1  -13.618723   9.088167  1.67492
16397 1  -12.395973   9.810166  1.67492
16398 1  -14.827578   6.946236  1.67492
16399 1  -16.064222   7.644168  1.67492
16400 1  -16.078117   9.064100  1.67492
16401 1  -14.855367   9.786100  1.67492
16402 1  -17.286972   6.922169  1.67492
16403 1  -18.523617   7.620102  1.67492
16404 1  -18.537511   9.040034  1.67492
16405 1  -17.314762   9.762033  1.67492
16406 1  -19.746366   6.898102  1.67492
16407 1  -20.983011   7.596035  1.67492
16408 1  -20.996906   9.015967  1.67492
16409 1  -19.774156   9.737966  1.67492
16410 1  -22.205761   6.874036  1.67492
16411 1  -23.442405   7.571968  1.67492
16412 1  -23.456300   8.991900  1.67492
16413 1  -22.233551   9.713900  1.67492
16414 1  -24.665155   6.849969  1.67492
16415 1  -25.901800   7.547902  1.67492
16416 1  -25.915695   8.967834  1.67492
16417 1  -24.692945   9.689833  1.67492
16418 1  -27.124550   6.825902  1.67492
16419 1  -28.361194   7.523835  1.67492
16420 1  -28.375089   8.943767  1.67492
16421 1  -27.152339   9.665766  1.67492
16422 1  -29.583944   6.801836  1.67492
16423 1  -30.820589   7.499768  1.67492
16424 1  -30.834483   8.919700  1.67492
16425 1  -29.611734   9.641700  1.67492
16426 1  -32.043338   6.777769  1.67492
16427 1  -33.279983   7.475702  1.67492
16428 1  -33.293878   8.895634  1.67492
16429 1  -32.071128   9.617633  1.67492
16430 1  -34.502733   6.753703  1.67492
16431 1  -35.739377   7.451635  1.67492
16432 1  -35.753272   8.871567  1.67492
16433 1  -34.530523   9.593567  1.67492
16434 1  -36.962127   6.729636  1.67492
16435 1  -38.198772   7.427569  1.67492
16436 1  -38.212667   8.847501  1.67492
16437 1  -36.989917   9.569500  1.67492
16438 1  -39.421522   6.705569  1.67492
16439 1  -40.658166   7.403502  1.67492
16440 1  -40.672061   8.823434  1.67492
16441 1  -39.449311   9.545433  1.67492
16442 1  -41.880916   6.681503  1.67492
16443 1  -43.117561   7.379435  1.67492
16444 1  -43.131455   8.799367  1.67492
16445 1  -41.908706   9.521367  1.67492
16446 1  -44.340310   6.657436  1.67492
16447 1  -45.576955   7.355369  1.67492
16448 1  -45.590850   8.775301  1.67492
16449 1  -44.368100   9.497300  1.67492
16450 1  -46.799705   6.633369  1.67492
16451 1  -48.036349   7.331302  1.67492
16452 1  -48.050244   8.751234  1.67492
16453 1  -46.827494   9.473233  1.67492
16454 1  -49.259099   6.609303  1.67492
16455 1  -50.495744   7.307235  1.67492
16456 1  -50.509639   8.727167  1.67492
16457 1  -49.286889   9.449167  1.67492
16458 1  -51.718494   6.585236  1.67492
16459 1  -52.955138   7.283169  1.67492
16460 1  -52.969033   8.703101  1.67492
16461 1  -51.746283   9.425100  1.67492
16462 1  -54.177888   6.561169  1.67492
16463 1  -55.414533   7.259102  1.67492
16464 1  -55.428427   8.679034  1.67492
16465 1  -54.205678   9.401033  1.67492
16466 1  -56.637282   6.537103  1.67492
16467 1  -57.873927   7.235035  1.67492
16468 1  -57.887822   8.654967  1.67492
16469 1  -56.665072   9.376967  1.67492
16470 1  -59.096677   6.513036  1.67492
16471 1  -60.333321   7.210969  1.67492
16472 1  -60.347216   8.630901  1.67492
16473 1  -59.124466   9.352900  1.67492
16474 1  -61.556071   6.488969  1.67492
16475 1  -62.792716   7.186902  1.67492
16476 1  -62.806611   8.606834  1.67492
16477 1  -61.583861   9.328833  1.67492
16478 1  -64.015465   6.464903  1.67492
16479 1  -65.252110   7.162835  1.67492
16480 1  -65.266005   8.582767  1.67492
16481 1  -64.043255   9.304767  1.67492
16482 1  -66.474860   6.440836  1.67492
16483 1  -67.711505   7.138769  1.67492
16484 1  -67.725399   8.558701  1.67492
16485 1  -66.502650   9.280700  1.67492
16486 1  -68.934254   6.416769  1.67492
16487 1  -70.170899   7.114702  1.67492
16488 1  -70.184794   8.534634  1.67492
16489 1  -68.962044   9.256634  1.67492
16490 1  -71.393649   6.392703  1.67492
16491 1  -72.630293   7.090636  1.67492
16492 1  -72.644188   8.510568  1.67492
16493 1  -71.421438   9.232567  1.67492
16494 1  -73.853043   6.368636  1.67492
16495 1  -75.089688   7.066569  1.67492
16496 1  -75.103583   8.486501  1.67492
16497 1  -73.880833   9.208500  1.67492
16498 1  -76.312437   6.344570  1.67492
16499 1  -77.549082   7.042502  1.67492
16500 1  -77.562977   8.462434  1.67492
16501 1  -76.340227   9.184434  1.67492
16502 1  -78.771832   6.320503  1.67492
16503 1  -80.008477   7.018436  1.67492
16504 1  -80.022371   8.438368  1.67492
16505 1  -78.799622   9.160367  1.67492
16506 1  -81.231226   6.296436  1.67492
16507 1  -82.467871   6.994369  1.67492
16508 1  -82.481766   8.414301  1.67492
16509 1  -81.259016   9.136300  1.67492
16510 1  -83.690621   6.272370  1.67492
16511 1  -84.927265   6.970302  1.67492
16512 1  -84.941160   8.390234  1.67492
16513 1  -83.718410   9.112234  1.67492
16514 1  -86.150015   6.248303  1.67492
16515 1  -87.386660   6.946236  1.67492
16516 1  -87.400555   8.366168  1.67492
16517 1  -86.177805   9.088167  1.67492
16518 1  -88.609409   6.224236  1.67492
16519 1  -89.846054   6.922169  1.67492
16520 1  -89.859949   8.342101  1.67492
16521 1  -88.637199   9.064100  1.67492
16522 1  -91.068804   6.200170  1.67492
16523 1  -92.305448   6.898102  1.67492
16524 1  -92.319343   8.318034  1.67492
16525 1  -91.096594   9.040034  1.67492
16526 1  -93.528198   6.176103  1.67492
16527 1  -94.764843   6.874036  1.67492
16528 1  -94.778738   8.293968  1.67492
16529 1  -93.555988   9.015967  1.67492
16530 1  -95.987593   6.152036  1.67492
16531 1  -97.224237   6.849969  1.67492
16532 1  -97.238132   8.269901  1.67492
16533 1  -96.015382   8.991900  1.67492
16534 1  -98.446987   6.127970  1.67492
16535 1  -99.683632   6.825902  1.67492
16536 1  -99.697527   8.245834  1.67492
16537 1  -98.474777   8.967834  1.67492
16538 1 -100.906381   6.103903  1.67492
16539 1 -102.143026   6.801836  1.67492
16540 1 -102.156921   8.221768  1.67492
16541 1 -100.934171   8.943767  1.67492
16542 1 -103.365776   6.079836  1.67492
16543 1 -104.602420   6.777769  1.67492
16544 1 -104.616315   8.197701  1.67492
16545 1 -103.393566   8.919700  1.67492
16546 1 -105.825170   6.055770  1.67492
16547 1 -107.061815   6.753703  1.67492
16548 1 -107.075710   8.173635  1.67492
16549 1 -105.852960   8.895634  1.67492
16550 1 -108.284565   6.031703  1.67492
16551 1 -108.312354   8.871567  1.67492
16552 1  108.100458  12.409364  1.67492
16553 1  106.863813  13.107297  1.67492
16554 1  106.849918  14.527229  1.67492
16555 1  108.072668  15.249228  1.67492
16556 1  105.641063  12.385297  1.67492
16557 1  104.404419  13.083230  1.67492
16558 1  104.390524  14.503162  1.67492
16559 1  105.613273  15.225161  1.67492
16560 1  103.181669  12.361231  1.67492
16561 1  101.945024  13.059163  1.67492
16562 1  101.931129  14.479095  1.67492
16563 1  103.153879  15.201095  1.67492
16564 1  100.722274  12.337164  1.67492
16565 1   99.485630  13.035097  1.67492
16566 1   99.471735  14.455029  1.67492
16567 1  100.694485  15.177028  1.67492
16568 1   98.262880  12.313097  1.67492
16569 1   97.026235  13.011030  1.67492
16570 1   97.012340  14.430962  1.67492
16571 1   98.235090  15.152961  1.67492
16572 1   95.803486  12.289031  1.67492
16573 1   94.566841  12.986963  1.67492
16574 1   94.552946  14.406895  1.67492
16575 1   95.775696  15.128895  1.67492
16576 1   93.344091  12.264964  1.67492
16577 1   92.107447  12.962897  1.67492
16578 1   92.093552  14.382829  1.67492
16579 1   93.316301  15.104828  1.67492
16580 1   90.884697  12.240897  1.67492
16581 1   89.648052  12.938830  1.67492
16582 1   89.634157  14.358762  1.67492
16583 1   90.856907  15.080761  1.67492
16584 1   88.425302  12.216831  1.67492
16585 1   87.188658  12.914763  1.67492
16586 1   87.174763  14.334695  1.67492
16587 1   88.397513  15.056695  1.67492
16588 1   85.965908  12.192764  1.67492
16589 1   84.729263  12.890697  1.67492
16590 1   84.715369  14.310629  1.67492
16591 1   85.938118  15.032628  1.67492
16592 1   83.506514  12.168697  1.67492
16593 1   82.269869  12.866630  1.67492
16594 1   82.255974  14.286562  1.67492
16595 1   83.478724  15.008562  1.67492
16596 1   81.047119  12.144631  1.67492
16597 1   79.810475  12.842564  1.67492
16598 1   79.796580  14.262496  1.67492
16599 1   81.019329  14.984495  1.67492
16600 1   78.587725  12.120564  1.67492
16601 1   77.351080  12.818497  1.67492
16602 1   77.337185  14.238429  1.67492
16603 1   78.559935  14.960428  1.67492
16604 1   76.128330  12.096498  1.67492
16605 1   74.891686  12.794430  1.67492
16606 1   74.877791  14.214362  1.67492
16607 1   76.100541  14.936362  1.67492
16608 1   73.668936  12.072431  1.67492
16609 1   72.432291  12.770364  1.67492
16610 1   72.418397  14.190296  1.67492
16611 1   73.641146  14.912295  1.67492
16612 1   71.209542  12.048364  1.67492
16613 1   69.972897  12.746297  1.67492
16614 1   69.959002  14.166229  1.67492
16615 1   71.181752  14.888228  1.67492
16616 1   68.750147  12.024298  1.67492
16617 1   67.513503  12.722230  1.67492
16618 1   67.499608  14.142162  1.67492
16619 1   68.722357  14.864162  1.67492
16620 1   66.290753  12.000231  1.67492
16621 1   65.054108  12.698164  1.67492
16622 1   65.040213  14.118096  1.67492
16623 1   66.262963  14.840095  1.67492
16624 1   63.831358  11.976164  1.67492
16625 1   62.594714  12.674097  1.67492
16626 1   62.580819  14.094029  1.67492
16627 1   63.803569  14.816028  1.67492
16628 1   61.371964  11.952098  1.67492
16629 1   60.135319  12.650030  1.67492
16630 1   60.121425  14.069962  1.67492
16631 1   61.344174  14.791962  1.67492
16632 1   58.912570  11.928031  1.67492
16633 1   57.675925  12.625964  1.67492
16634 1   57.662030  14.045896  1.67492
16635 1   58.884780  14.767895  1.67492
16636 1   56.453175  11.903964  1.67492
16637 1   55.216531  12.601897  1.67492
16638 1   55.202636  14.021829  1.67492
16639 1   56.425386  14.743828  1.67492
16640 1   53.993781  11.879898  1.67492
16641 1   52.757136  12.577830  1.67492
16642 1   52.743241  13.997762  1.67492
16643 1   53.965991  14.719762  1.67492
16644 1   51.534386  11.855831  1.67492
16645 1   50.297742  12.553764  1.67492
16646 1   50.283847  13.973696  1.67492
16647 1   51.506597  14.695695  1.67492
16648 1   49.074992  11.831764  1.67492
16649 1   47.838347  12.529697  1.67492
16650 1   47.824453  13.949629  1.67492
16651 1   49.047202  14.671628  1.67492
16652 1   46.615598  11.807698  1.67492
16653 1   45.378953  12.505631  1.67492
16654 1   45.365058  13.925563  1.67492
16655 1   46.587808  14.647562  1.67492
16656 1   44.156203  11.783631  1.67492
16657 1   42.919559  12.481564  1.67492
16658 1   42.905664  13.901496  1.67492
16659 1   44.128414  14.623495  1.67492
16660 1   41.696809  11.759565  1.67492
16661 1   40.460164  12.457497  1.67492
16662 1   40.446269  13.877429  1.67492
16663 1   41.669019  14.599429  1.67492
16664 1   39.237414  11.735498  1.67492
16665 1   38.000770  12.433431  1.67492
16666 1   37.986875  13.853363  1.67492
16667 1   39.209625  14.575362  1.67492
16668 1   36.778020  11.711431  1.67492
16669 1   35.541375  12.409364  1.67492
16670 1   35.527481  13.829296  1.67492
16671 1   36.750230  14.551295  1.67492
16672 1   34.318626  11.687365  1.67492
16673 1   33.081981  12.385297  1.67492
16674 1   33.068086  13.805229  1.67492
16675 1   34.290836  14.527229  1.67492
16676 1   31.859231  11.663298  1.67492
16677 1   30.622587  12.361231  1.67492
16678 1   30.608692  13.781163  1.67492
16679 1   31.831442  14.503162  1.67492
16680 1   29.399837  11.639231  1.67492
16681 1   28.163192  12.337164  1.67492
16682 1   28.149297  13.757096  1.67492
16683 1   29.372047  14.479095  1.67492
16684 1   26.940443  11.615165  1.67492
16685 1   25.703798  12.313097  1.67492
16686 1   25.689903  13.733029  1.67492
16687 1   26.912653  14.455029  1.67492
16688 1   24.481048  11.591098  1.67492
16689 1   23.244403  12.289031  1.67492
16690 1   23.230509  13.708963  1.67492
16691 1   24.453258  14.430962  1.67492
16692 1   22.021654  11.567031  1.67492
16693 1   20.785009  12.264964  1.67492
16694 1   20.771114  13.684896  1.67492
16695 1   21.993864  14.406895  1.67492
16696 1   19.562259  11.542965  1.67492
16697 1   18.325615  12.240897  1.67492
16698 1   18.311720  13.660829  1.67492
16699 1   19.534470  14.382829  1.67492
16700 1   17.102865  11.518898  1.67492
16701 1   15.866220  12.216831  1.67492
16702 1   15.852325  13.636763  1.67492
16703 1   17.075075  14.358762  1.67492
16704 1   14.643471  11.494831  1.67492
16705 1   13.406826  12.192764  1.67492
16706 1   13.392931  13.612696  1.67492
16707 1   14.615681  14.334695  1.67492
16708 1   12.184076  11.470765  1.67492
16709 1   10.947431  12.168697  1.67492
16710 1   10.933537  13.588629  1.67492
16711 1   12.156286  14.310629  1.67492
16712 1    9.724682  11.446698  1.67492
16713 1    8.488037  12.144631  1.67492
16714 1    8.474142  13.564563  1.67492
16715 1    9.696892  14.286562  1.67492
16716 1    7.265287  11.422632  1.67492
16717 1    6.028643  12.120564  1.67492
16718 1    6.014748  13.540496  1.67492
16719 1    7.237498  14.262496  1.67492
16720 1    4.805893  11.398565  1.67492
16721 1    3.569248  12.096498  1.67492
16722 1    3.555353  13.516430  1.67492
16723 1    4.778103  14.238429  1.67492
16724 1    2.346499  11.374498  1.67492
16725 1    1.109854  12.072431  1.67492
16726 1    1.095959  13.492363  1.67492
16727 1    2.318709  14.214362  1.67492
16728 1   -0.112896  11.350432  1.67492
16729 1   -1.349540  12.048364  1.67492
16730 1   -1.363435  13.468296  1.67492
16731 1   -0.140686  14.190296  1.67492
16732 1   -2.572290  11.326365  1.67492
16733 1   -3.808935  12.024298  1.67492
16734 1   -3.822830  13.444230  1.67492
16735 1   -2.600080  14.166229  1.67492
16736 1   -5.031685  11.302298  1.67492
16737 1   -6.268329  12.000231  1.67492
16738 1   -6.282224  13.420163  1.67492
16739 1   -5.059474  14.142162  1.67492
16740 1   -7.491079  11.278232  1.67492
16741 1   -8.727724  11.976164  1.67492
16742 1   -8.741619  13.396096  1.67492
16743 1   -7.518869  14.118096  1.67492
16744 1   -9.950473  11.254165  1.67492
16745 1  -11.187118  11.952098  1.67492
16746 1  -11.201013  13.372030  1.67492
16747 1   -9.978263  14.094029  1.67492
16748 1  -12.409868  11.230098  1.67492
16749 1  -13.646512  11.928031  1.67492
16750 1  -13.660407  13.347963  1.67492
16751 1  -12.437658  14.069962  1.67492
16752 1  -14.869262  11.206032  1.67492
16753 1  -16.105907  11.903964  1.67492
16754 1  -16.119802  13.323896  1.67492
16755 1  -14.897052  14.045896  1.67492
16756 1  -17.328657  11.181965  1.67492
16757 1  -18.565301  11.879898  1.67492
16758 1  -18.579196  13.299830  1.67492
16759 1  -17.356446  14.021829  1.67492
16760 1  -19.788051  11.157898  1.67492
16761 1  -21.024696  11.855831  1.67492
16762 1  -21.038591  13.275763  1.67492
16763 1  -19.815841  13.997762  1.67492
16764 1  -22.247445  11.133832  1.67492
16765 1  -23.484090  11.831764  1.67492
16766 1  -23.497985  13.251696  1.67492
16767 1  -22.275235  13.973696  1.67492
16768 1  -24.706840  11.109765  1.67492
16769 1  -25.943484  11.807698  1.67492
16770 1  -25.957379  13.227630  1.67492
16771 1  -24.734630  13.949629  1.67492
16772 1  -27.166234  11.085698  1.67492
16773 1  -28.402879  11.783631  1.67492
16774 1  -28.416774  13.203563  1.67492
16775 1  -27.194024  13.925563  1.67492
16776 1  -29.625629  11.061632  1.67492
16777 1  -30.862273  11.759565  1.67492
16778 1  -30.876168  13.179497  1.67492
16779 1  -29.653418  13.901496  1.67492
16780 1  -32.085023  11.037565  1.67492
16781 1  -33.321668  11.735498  1.67492
16782 1  -33.335563  13.155430  1.67492
16783 1  -32.112813  13.877429  1.67492
16784 1  -34.544417  11.013499  1.67492
16785 1  -35.781062  11.711431  1.67492
16786 1  -35.794957  13.131363  1.67492
16787 1  -34.572207  13.853363  1.67492
16788 1  -37.003812  10.989432  1.67492
16789 1  -38.240456  11.687365  1.67492
16790 1  -38.254351  13.107297  1.67492
16791 1  -37.031602  13.829296  1.67492
16792 1  -39.463206  10.965365  1.67492
16793 1  -40.699851  11.663298  1.67492
16794 1  -40.713746  13.083230  1.67492
16795 1  -39.490996  13.805229  1.67492
16796 1  -41.922601  10.941299  1.67492
16797 1  -43.159245  11.639231  1.67492
16798 1  -43.173140  13.059163  1.67492
16799 1  -41.950390  13.781163  1.67492
16800 1  -44.381995  10.917232  1.67492
16801 1  -45.618640  11.615165  1.67492
16802 1  -45.632535  13.035097  1.67492
16803 1  -44.409785  13.757096  1.67492
16804 1  -46.841389  10.893165  1.67492
16805 1  -48.078034  11.591098  1.67492
16806 1  -48.091929  13.011030  1.67492
16807 1  -46.869179  13.733029  1.67492
16808 1  -49.300784  10.869099  1.67492
16809 1  -50.537428  11.567031  1.67492
16810 1  -50.551323  12.986963  1.67492
16811 1  -49.328574  13.708963  1.67492
16812 1  -51.760178  10.845032  1.67492
16813 1  -52.996823  11.542965  1.67492
16814 1  -53.010718  12.962897  1.67492
16815 1  -51.787968  13.684896  1.67492
16816 1  -54.219573  10.820965  1.67492
16817 1  -55.456217  11.518898  1.67492
16818 1  -55.470112  12.938830  1.67492
16819 1  -54.247362  13.660829  1.67492
16820 1  -56.678967  10.796899  1.67492
16821 1  -57.915612  11.494831  1.67492
16822 1  -57.929506  12.914763  1.67492
16823 1  -56.706757  13.636763  1.67492
16824 1  -59.138361  10.772832  1.67492
16825 1  -60.375006  11.470765  1.67492
16826 1  -60.388901  12.890697  1.67492
16827 1  -59.166151  13.612696  1.67492
16828 1  -61.597756  10.748765  1.67492
16829 1  -62.834400  11.446698  1.67492
16830 1  -62.848295  12.866630  1.67492
16831 1  -61.625546  13.588629  1.67492
16832 1  -64.057150  10.724699  1.67492
16833 1  -65.293795  11.422632  1.67492
16834 1  -65.307690  12.842564  1.67492
16835 1  -64.084940  13.564563  1.67492
16836 1  -66.516545  10.700632  1.67492
16837 1  -67.753189  11.398565  1.67492
16838 1  -67.767084  12.818497  1.67492
16839 1  -66.544334  13.540496  1.67492
16840 1  -68.975939  10.676566  1.67492
16841 1  -70.212584  11.374498  1.67492
16842 1  -70.226478  12.794430  1.67492
16843 1  -69.003729  13.516430  1.67492
16844 1  -71.435333  10.652499  1.67492
16845 1  -72.671978  11.350432  1.67492
16846 1  -72.685873  12.770364  1.67492
16847 1  -71.463123  13.492363  1.67492
16848 1  -73.894728  10.628432  1.67492
16849 1  -75.131372  11.326365  1.67492
16850 1  -75.145267  12.746297  1.67492
16851 1  -73.922518  13.468296  1.67492
16852 1  -76.354122  10.604366  1.67492
16853 1  -77.590767  11.302298  1.67492
16854 1  -77.604662  12.722230  1.67492
16855 1  -76.381912  13.444230  1.67492
16856 1  -78.813517  10.580299  1.67492
16857 1  -80.050161  11.278232  1.67492
16858 1  -80.064056  12.698164  1.67492
16859 1  -78.841306  13.420163  1.67492
16860 1  -81.272911  10.556232  1.67492
16861 1  -82.509556  11.254165  1.67492
16862 1  -82.523450  12.674097  1.67492
16863 1  -81.300701  13.396096  1.67492
16864 1  -83.732305  10.532166  1.67492
16865 1  -84.968950  11.230098  1.67492
16866 1  -84.982845  12.650030  1.67492
16867 1  -83.760095  13.372030  1.67492
16868 1  -86.191700  10.508099  1.67492
16869 1  -87.428344  11.206032  1.67492
16870 1  -87.442239  12.625964  1.67492
16871 1  -86.219489  13.347963  1.67492
16872 1  -88.651094  10.484032  1.67492
16873 1  -89.887739  11.181965  1.67492
16874 1  -89.901634  12.601897  1.67492
16875 1  -88.678884  13.323896  1.67492
16876 1  -91.110489  10.459966  1.67492
16877 1  -92.347133  11.157898  1.67492
16878 1  -92.361028  12.577830  1.67492
16879 1  -91.138278  13.299830  1.67492
16880 1  -93.569883  10.435899  1.67492
16881 1  -94.806528  11.133832  1.67492
16882 1  -94.820422  12.553764  1.67492
16883 1  -93.597673  13.275763  1.67492
16884 1  -96.029277  10.411832  1.67492
16885 1  -97.265922  11.109765  1.67492
16886 1  -97.279817  12.529697  1.67492
16887 1  -96.057067  13.251696  1.67492
16888 1  -98.488672  10.387766  1.67492
16889 1  -99.725316  11.085698  1.67492
16890 1  -99.739211  12.505631  1.67492
16891 1  -98.516461  13.227630  1.67492
16892 1 -100.948066  10.363699  1.67492
16893 1 -102.184711  11.061632  1.67492
16894 1 -102.198606  12.481564  1.67492
16895 1 -100.975856  13.203563  1.67492
16896 1 -103.407460  10.339633  1.67492
16897 1 -104.644105  11.037565  1.67492
16898 1 -104.658000  12.457497  1.67492
16899 1 -103.435250  13.179497  1.67492
16900 1 -105.866855  10.315566  1.67492
16901 1 -107.103500  11.013499  1.67492
16902 1 -107.117394  12.433431  1.67492
16903 1 -105.894645  13.155430  1.67492
16904 1 -108.326249  10.291499  1.67492
16905 1 -108.354039  13.131363  1.67492
16906 1  108.058773  16.669160  1.67492
16907 1  106.822128  17.367093  1.67492
16908 1  106.808233  18.787025  1.67492
16909 1  108.030983  19.509024  1.67492
16910 1  105.599379  16.645093  1.67492
16911 1  104.362734  17.343026  1.67492
16912 1  104.348839  18.762958  1.67492
16913 1  105.571589  19.484957  1.67492
16914 1  103.139984  16.621027  1.67492
16915 1  101.903340  17.318959  1.67492
16916 1  101.889445  18.738891  1.67492
16917 1  103.112194  19.460891  1.67492
16918 1  100.680590  16.596960  1.67492
16919 1   99.443945  17.294893  1.67492
16920 1   99.430050  18.714825  1.67492
16921 1  100.652800  19.436824  1.67492
16922 1   98.221195  16.572893  1.67492
16923 1   96.984551  17.270826  1.67492
16924 1   96.970656  18.690758  1.67492
16925 1   98.193406  19.412757  1.67492
16926 1   95.761801  16.548827  1.67492
16927 1   94.525156  17.246759  1.67492
16928 1   94.511261  18.666691  1.67492
16929 1   95.734011  19.388691  1.67492
16930 1   93.302407  16.524760  1.67492
16931 1   92.065762  17.222693  1.67492
16932 1   92.051867  18.642625  1.67492
16933 1   93.274617  19.364624  1.67492
16934 1   90.843012  16.500693  1.67492
16935 1   89.606368  17.198626  1.67492
16936 1   89.592473  18.618558  1.67492
16937 1   90.815222  19.340557  1.67492
16938 1   88.383618  16.476627  1.67492
16939 1   87.146973  17.174560  1.67492
16940 1   87.133078  18.594492  1.67492
16941 1   88.355828  19.316491  1.67492
16942 1   85.924223  16.452560  1.67492
16943 1   84.687579  17.150493  1.67492
16944 1   84.673684  18.570425  1.67492
16945 1   85.896434  19.292424  1.67492
16946 1   83.464829  16.428494  1.67492
16947 1   82.228184  17.126426  1.67492
16948 1   82.214289  18.546358  1.67492
16949 1   83.437039  19.268358  1.67492
16950 1   81.005435  16.404427  1.67492
16951 1   79.768790  17.102360  1.67492
16952 1   79.754895  18.522292  1.67492
16953 1   80.977645  19.244291  1.67492
16954 1   78.546040  16.380360  1.67492
16955 1   77.309396  17.078293  1.67492
16956 1   77.295501  18.498225  1.67492
16957 1   78.518250  19.220224  1.67492
16958 1   76.086646  16.356294  1.67492
16959 1   74.850001  17.054226  1.67492
16960 1   74.836106  18.474158  1.67492
16961 1   76.058856  19.196158  1.67492
16962 1   73.627251  16.332227  1.67492
16963 1   72.390607  17.030160  1.67492
16964 1   72.376712  18.450092  1.67492
16965 1   73.599462  19.172091  1.67492
16966 1   71.167857  16.308160  1.67492
16967 1   69.931212  17.006093  1.67492
16968 1   69.917317  18.426025  1.67492
16969 1   71.140067  19.148024  1.67492
16970 1   68.708463  16.284094  1.67492
16971 1   67.471818  16.982026  1.67492
16972 1   67.457923  18.401958  1.67492
16973 1   68.680673  19.123958  1.67492
16974 1   66.249068  16.260027  1.67492
16975 1   65.012424  16.957960  1.67492
16976 1   64.998529  18.377892  1.67492
16977 1   66.221278  19.099891  1.67492
16978 1   63.789674  16.235960  1.67492
16979 1   62.553029  16.933893  1.67492
16980 1   62.539134  18.353825  1.67492
16981 1   63.761884  19.075824  1.67492
16982 1   61.330279  16.211894  1.67492
16983 1   60.093635  16.909826  1.67492
16984 1   60.079740  18.329758  1.67492
16985 1   61.302490  19.051758  1.67492
16986 1   58.870885  16.187827  1.67492
16987 1   57.634240  16.885760  1.67492
16988 1   57.620345  18.305692  1.67492
16989 1   58.843095  19.027691  1.67492
16990 1   56.411491  16.163760  1.67492
16991 1   55.174846  16.861693  1.67492
16992 1   55.160951  18.281625  1.67492
16993 1   56.383701  19.003624  1.67492
16994 1   53.952096  16.139694  1.67492
16995 1   52.715452  16.837626  1.67492
16996 1   52.701557  18.257559  1.67492
16997 1   53.924306  18.979558  1.67492
16998 1   51.492702  16.115627  1.67492
16999 1   50.256057  16.813560  1.67492
17000 1   50.242162  18.233492  1.67492
17001 1   51.464912  18.955491  1.67492
17002 1   49.033307  16.091561  1.67492
17003 1   47.796663  16.789493  1.67492
17004 1   47.782768  18.209425  1.67492
17005 1   49.005518  18.931425  1.67492
17006 1   46.573913  16.067494  1.67492
17007 1   45.337268  16.765427  1.67492
17008 1   45.323374  18.185359  1.67492
17009 1   46.546123  18.907358  1.67492
17010 1   44.114519  16.043427  1.67492
17011 1   42.877874  16.741360  1.67492
17012 1   42.863979  18.161292  1.67492
17013 1   44.086729  18.883291  1.67492
17014 1   41.655124  16.019361  1.67492
17015 1   40.418480  16.717293  1.67492
17016 1   40.404585  18.137225  1.67492
17017 1   41.627334  18.859225  1.67492
17018 1   39.195730  15.995294  1.67492
17019 1   37.959085  16.693227  1.67492
17020 1   37.945190  18.113159  1.67492
17021 1   39.167940  18.835158  1.67492
17022 1   36.736335  15.971227  1.67492
17023 1   35.499691  16.669160  1.67492
17024 1   35.485796  18.089092  1.67492
17025 1   36.708546  18.811091  1.67492
17026 1   34.276941  15.947161  1.67492
17027 1   33.040296  16.645093  1.67492
17028 1   33.026402  18.065025  1.67492
17029 1   34.249151  18.787025  1.67492
17030 1   31.817547  15.923094  1.67492
17031 1   30.580902  16.621027  1.67492
17032 1   30.567007  18.040959  1.67492
17033 1   31.789757  18.762958  1.67492
17034 1   29.358152  15.899027  1.67492
17035 1   28.121508  16.596960  1.67492
17036 1   28.107613  18.016892  1.67492
17037 1   29.330362  18.738891  1.67492
17038 1   26.898758  15.874961  1.67492
17039 1   25.662113  16.572893  1.67492
17040 1   25.648218  17.992825  1.67492
17041 1   26.870968  18.714825  1.67492
17042 1   24.439363  15.850894  1.67492
17043 1   23.202719  16.548827  1.67492
17044 1   23.188824  17.968759  1.67492
17045 1   24.411574  18.690758  1.67492
17046 1   21.979969  15.826827  1.67492
17047 1   20.743324  16.524760  1.67492
17048 1   20.729430  17.944692  1.67492
17049 1   21.952179  18.666691  1.67492
17050 1   19.520575  15.802761  1.67492
17051 1   18.283930  16.500693  1.67492
17052 1   18.270035  17.920625  1.67492
17053 1   19.492785  18.642625  1.67492
17054 1   17.061180  15.778694  1.67492
17055 1   15.824536  16.476627  1.67492
17056 1   15.810641  17.896559  1.67492
17057 1   17.033391  18.618558  1.67492
17058 1   14.601786  15.754627  1.67492
17059 1   13.365141  16.452560  1.67492
17060 1   13.351246  17.872492  1.67492
17061 1   14.573996  18.594492  1.67492
17062 1   12.142391  15.730561  1.67492
17063 1   10.905747  16.428494  1.67492
17064 1   10.891852  17.848426  1.67492
17065 1   12.114602  18.570425  1.67492
17066 1    9.682997  15.706494  1.67492
17067 1    8.446352  16.404427  1.67492
17068 1    8.432458  17.824359  1.67492
17069 1    9.655207  18.546358  1.67492
17070 1    7.223603  15.682428  1.67492
17071 1    5.986958  16.380360  1.67492
17072 1    5.973063  17.800292  1.67492
17073 1    7.195813  18.522292  1.67492
17074 1    4.764208  15.658361  1.67492
17075 1    3.527564  16.356294  1.67492
17076 1    3.513669  17.776226  1.67492
17077 1    4.736419  18.498225  1.67492
17078 1    2.304814  15.634294  1.67492
17079 1    1.068169  16.332227  1.67492
17080 1    1.054274  17.752159  1.67492
17081 1    2.277024  18.474158  1.67492
17082 1   -0.154580  15.610228  1.67492
17083 1   -1.391225  16.308160  1.67492
17084 1   -1.405120  17.728092  1.67492
17085 1   -0.182370  18.450092  1.67492
17086 1   -2.613975  15.586161  1.67492
17087 1   -3.850620  16.284094  1.67492
17088 1   -3.864514  17.704026  1.67492
17089 1   -2.641765  18.426025  1.67492
17090 1   -5.073369  15.562094  1.67492
17091 1   -6.310014  16.260027  1.67492
17092 1   -6.323909  17.679959  1.67492
17093 1   -5.101159  18.401958  1.67492
17094 1   -7.532764  15.538028  1.67492
17095 1   -8.769408  16.235960  1.67492
17096 1   -8.783303  17.655892  1.67492
17097 1   -7.560553  18.377892  1.67492
17098 1   -9.992158  15.513961  1.67492
17099 1  -11.228803  16.211894  1.67492
17100 1  -11.242698  17.631826  1.67492
17101 1  -10.019948  18.353825  1.67492
17102 1  -12.451552  15.489894  1.67492
17103 1  -13.688197  16.187827  1.67492
17104 1  -13.702092  17.607759  1.67492
17105 1  -12.479342  18.329758  1.67492
17106 1  -14.910947  15.465828  1.67492
17107 1  -16.147592  16.163760  1.67492
17108 1  -16.161486  17.583692  1.67492
17109 1  -14.938737  18.305692  1.67492
17110 1  -17.370341  15.441761  1.67492
17111 1  -18.606986  16.139694  1.67492
17112 1  -18.620881  17.559626  1.67492
17113 1  -17.398131  18.281625  1.67492
17114 1  -19.829736  15.417694  1.67492
17115 1  -21.066380  16.115627  1.67492
17116 1  -21.080275  17.535559  1.67492
17117 1  -19.857525  18.257559  1.67492
17118 1  -22.289130  15.393628  1.67492
17119 1  -23.525775  16.091561  1.67492
17120 1  -23.539670  17.511493  1.67492
17121 1  -22.316920  18.233492  1.67492
17122 1  -24.748524  15.369561  1.67492
17123 1  -25.985169  16.067494  1.67492
17124 1  -25.999064  17.487426  1.67492
17125 1  -24.776314  18.209425  1.67492
17126 1  -27.207919  15.345495  1.67492
17127 1  -28.444563  16.043427  1.67492
17128 1  -28.458458  17.463359  1.67492
17129 1  -27.235709  18.185359  1.67492
17130 1  -29.667313  15.321428  1.67492
17131 1  -30.903958  16.019361  1.67492
17132 1  -30.917853  17.439293  1.67492
17133 1  -29.695103  18.161292  1.67492
17134 1  -32.126708  15.297361  1.67492
17135 1  -33.363352  15.995294  1.67492
17136 1  -33.377247  17.415226  1.67492
17137 1  -32.154497  18.137225  1.67492
17138 1  -34.586102  15.273295  1.67492
17139 1  -35.822747  15.971227  1.67492
17140 1  -35.836642  17.391159  1.67492
17141 1  -34.613892  18.113159  1.67492
17142 1  -37.045496  15.249228  1.67492
17143 1  -38.282141  15.947161  1.67492
17144 1  -38.296036  17.367093  1.67492
17145 1  -37.073286  18.089092  1.67492
17146 1  -39.504891  15.225161  1.67492
17147 1  -40.741535  15.923094  1.67492
17148 1  -40.755430  17.343026  1.67492
17149 1  -39.532681  18.065025  1.67492
17150 1  -41.964285  15.201095  1.67492
17151 1  -43.200930  15.899027  1.67492
17152 1  -43.214825  17.318959  1.67492
17153 1  -41.992075  18.040959  1.67492
17154 1  -44.423680  15.177028  1.67492
17155 1  -45.660324  15.874961  1.67492
17156 1  -45.674219  17.294893  1.67492
17157 1  -44.451469  18.016892  1.67492
17158 1  -46.883074  15.152961  1.67492
17159 1  -48.119719  15.850894  1.67492
17160 1  -48.133614  17.270826  1.67492
17161 1  -46.910864  17.992825  1.67492
17162 1  -49.342468  15.128895  1.67492
17163 1  -50.579113  15.826827  1.67492
17164 1  -50.593008  17.246759  1.67492
17165 1  -49.370258  17.968759  1.67492
17166 1  -51.801863  15.104828  1.67492
17167 1  -53.038507  15.802761  1.67492
17168 1  -53.052402  17.222693  1.67492
17169 1  -51.829653  17.944692  1.67492
17170 1  -54.261257  15.080761  1.67492
17171 1  -55.497902  15.778694  1.67492
17172 1  -55.511797  17.198626  1.67492
17173 1  -54.289047  17.920625  1.67492
17174 1  -56.720652  15.056695  1.67492
17175 1  -57.957296  15.754627  1.67492
17176 1  -57.971191  17.174560  1.67492
17177 1  -56.748441  17.896559  1.67492
17178 1  -59.180046  15.032628  1.67492
17179 1  -60.416691  15.730561  1.67492
17180 1  -60.430586  17.150493  1.67492
17181 1  -59.207836  17.872492  1.67492
17182 1  -61.639440  15.008562  1.67492
17183 1  -62.876085  15.706494  1.67492
17184 1  -62.889980  17.126426  1.67492
17185 1  -61.667230  17.848426  1.67492
17186 1  -64.098835  14.984495  1.67492
17187 1  -65.335479  15.682428  1.67492
17188 1  -65.349374  17.102360  1.67492
17189 1  -64.126625  17.824359  1.67492
17190 1  -66.558229  14.960428  1.67492
17191 1  -67.794874  15.658361  1.67492
17192 1  -67.808769  17.078293  1.67492
17193 1  -66.586019  17.800292  1.67492
17194 1  -69.017624  14.936362  1.67492
17195 1  -70.254268  15.634294  1.67492
17196 1  -70.268163  17.054226  1.67492
17197 1  -69.045413  17.776226  1.67492
17198 1  -71.477018  14.912295  1.67492
17199 1  -72.713663  15.610228  1.67492
17200 1  -72.727558  17.030160  1.67492
17201 1  -71.504808  17.752159  1.67492
17202 1  -73.936412  14.888228  1.67492
17203 1  -75.173057  15.586161  1.67492
17204 1  -75.186952  17.006093  1.67492
17205 1  -73.964202  17.728092  1.67492
17206 1  -76.395807  14.864162  1.67492
17207 1  -77.632451  15.562094  1.67492
17208 1  -77.646346  16.982026  1.67492
17209 1  -76.423597  17.704026  1.67492
17210 1  -78.855201  14.840095  1.67492
17211 1  -80.091846  15.538028  1.67492
17212 1  -80.105741  16.957960  1.67492
17213 1  -78.882991  17.679959  1.67492
17214 1  -81.314596  14.816028  1.67492
17215 1  -82.551240  15.513961  1.67492
17216 1  -82.565135  16.933893  1.67492
17217 1  -81.342385  17.655892  1.67492
17218 1  -83.773990  14.791962  1.67492
17219 1  -85.010635  15.489894  1.67492
17220 1  -85.024529  16.909826  1.67492
17221 1  -83.801780  17.631826  1.67492
17222 1  -86.233384  14.767895  1.67492
17223 1  -87.470029  15.465828  1.67492
17224 1  -87.483924  16.885760  1.67492
17225 1  -86.261174  17.607759  1.67492
17226 1  -88.692779  14.743828  1.67492
17227 1  -89.929423  15.441761  1.67492
17228 1  -89.943318  16.861693  1.67492
17229 1  -88.720569  17.583692  1.67492
17230 1  -91.152173  14.719762  1.67492
17231 1  -92.388818  15.417694  1.67492
17232 1  -92.402713  16.837626  1.67492
17233 1  -91.179963  17.559626  1.67492
17234 1  -93.611568  14.695695  1.67492
17235 1  -94.848212  15.393628  1.67492
17236 1  -94.862107  16.813560  1.67492
17237 1  -93.639357  17.535559  1.67492
17238 1  -96.070962  14.671628  1.67492
17239 1  -97.307607  15.369561  1.67492
17240 1  -97.321501  16.789493  1.67492
17241 1  -96.098752  17.511493  1.67492
17242 1  -98.530356  14.647562  1.67492
17243 1  -99.767001  15.345495  1.67492
17244 1  -99.780896  16.765427  1.67492
17245 1  -98.558146  17.487426  1.67492
17246 1 -100.989751  14.623495  1.67492
17247 1 -102.226395  15.321428  1.67492
17248 1 -102.240290  16.741360  1.67492
17249 1 -101.017541  17.463359  1.67492
17250 1 -103.449145  14.599429  1.67492
17251 1 -104.685790  15.297361  1.67492
17252 1 -104.699685  16.717293  1.67492
17253 1 -103.476935  17.439293  1.67492
17254 1 -105.908540  14.575362  1.67492
17255 1 -107.145184  15.273295  1.67492
17256 1 -107.159079  16.693227  1.67492
17257 1 -105.936329  17.415226  1.67492
17258 1 -108.367934  14.551295  1.67492
17259 1 -108.395724  17.391159  1.67492
17260 1  108.017088  20.928956  1.67492
17261 1  106.780444  21.626889  1.67492
17262 1  106.766549  23.046821  1.67492
17263 1  107.989299  23.768820  1.67492
17264 1  105.557694  20.904889  1.67492
17265 1  104.321049  21.602822  1.67492
17266 1  104.307154  23.022754  1.67492
17267 1  105.529904  23.744753  1.67492
17268 1  103.098299  20.880823  1.67492
17269 1  101.861655  21.578755  1.67492
17270 1  101.847760  22.998687  1.67492
17271 1  103.070510  23.720687  1.67492
17272 1  100.638905  20.856756  1.67492
17273 1   99.402260  21.554689  1.67492
17274 1   99.388366  22.974621  1.67492
17275 1  100.611115  23.696620  1.67492
17276 1   98.179511  20.832689  1.67492
17277 1   96.942866  21.530622  1.67492
17278 1   96.928971  22.950554  1.67492
17279 1   98.151721  23.672553  1.67492
17280 1   95.720116  20.808623  1.67492
17281 1   94.483472  21.506555  1.67492
17282 1   94.469577  22.926488  1.67492
17283 1   95.692327  23.648487  1.67492
17284 1   93.260722  20.784556  1.67492
17285 1   92.024077  21.482489  1.67492
17286 1   92.010182  22.902421  1.67492
17287 1   93.232932  23.624420  1.67492
17288 1   90.801328  20.760490  1.67492
17289 1   89.564683  21.458422  1.67492
17290 1   89.550788  22.878354  1.67492
17291 1   90.773538  23.600354  1.67492
17292 1   88.341933  20.736423  1.67492
17293 1   87.105288  21.434356  1.67492
17294 1   87.091394  22.854288  1.67492
17295 1   88.314143  23.576287  1.67492
17296 1   85.882539  20.712356  1.67492
17297 1   84.645894  21.410289  1.67492
17298 1   84.631999  22.830221  1.67492
17299 1   85.854749  23.552220  1.67492
17300 1   83.423144  20.688290  1.67492
17301 1   82.186500  21.386222  1.67492
17302 1   82.172605  22.806154  1.67492
17303 1   83.395355  23.528154  1.67492
17304 1   80.963750  20.664223  1.67492
17305 1   79.727105  21.362156  1.67492
17306 1   79.713210  22.782088  1.67492
17307 1   80.935960  23.504087  1.67492
17308 1   78.504356  20.640156  1.67492
17309 1   77.267711  21.338089  1.67492
17310 1   77.253816  22.758021  1.67492
17311 1   78.476566  23.480020  1.67492
17312 1   76.044961  20.616090  1.67492
17313 1   74.808316  21.314022  1.67492
17314 1   74.794422  22.733954  1.67492
17315 1   76.017171  23.455954  1.67492
17316 1   73.585567  20.592023  1.67492
17317 1   72.348922  21.289956  1.67492
17318 1   72.335027  22.709888  1.67492
17319 1   73.557777  23.431887  1.67492
17320 1   71.126172  20.567956  1.67492
17321 1   69.889528  21.265889  1.67492
17322 1   69.875633  22.685821  1.67492
17323 1   71.098383  23.407820  1.67492
17324 1   68.666778  20.543890  1.67492
17325 1   67.430133  21.241822  1.67492
17326 1   67.416238  22.661754  1.67492
17327 1   68.638988  23.383754  1.67492
17328 1   66.207384  20.519823  1.67492
17329 1   64.970739  21.217756  1.67492
17330 1   64.956844  22.637688  1.67492
17331 1   66.179594  23.359687  1.67492
17332 1   63.747989  20.495756  1.67492
17333 1   62.511345  21.193689  1.67492
17334 1   62.497450  22.613621  1.67492
17335 1   63.720199  23.335620  1.67492
17336 1   61.288595  20.471690  1.67492
17337 1   60.051950  21.169622  1.67492
17338 1   60.038055  22.589554  1.67492
17339 1   61.260805  23.311554  1.67492
17340 1   58.829200  20.447623  1.67492
17341 1   57.592556  21.145556  1.67492
17342 1   57.578661  22.565488  1.67492
17343 1   58.801411  23.287487  1.67492
17344 1   56.369806  20.423556  1.67492
17345 1   55.133161  21.121489  1.67492
17346 1   55.119266  22.541421  1.67492
17347 1   56.342016  23.263421  1.67492
17348 1   53.910412  20.399490  1.67492
17349 1   52.673767  21.097423  1.67492
17350 1   52.659872  22.517355  1.67492
17351 1   53.882622  23.239354  1.67492
17352 1   51.451017  20.375423  1.67492
17353 1   50.214373  21.073356  1.67492
17354 1   50.200478  22.493288  1.67492
17355 1   51.423227  23.215287  1.67492
17356 1   48.991623  20.351357  1.67492
17357 1   47.754978  21.049289  1.67492
17358 1   47.741083  22.469221  1.67492
17359 1   48.963833  23.191221  1.67492
17360 1   46.532228  20.327290  1.67492
17361 1   45.295584  21.025223  1.67492
17362 1   45.281689  22.445155  1.67492
17363 1   46.504439  23.167154  1.67492
17364 1   44.072834  20.303223  1.67492
17365 1   42.836189  21.001156  1.67492
17366 1   42.822294  22.421088  1.67492
17367 1   44.045044  23.143087  1.67492
17368 1   41.613440  20.279157  1.67492
17369 1   40.376795  20.977089  1.67492
17370 1   40.362900  22.397021  1.67492
17371 1   41.585650  23.119021  1.67492
17372 1   39.154045  20.255090  1.67492
17373 1   37.917401  20.953023  1.67492
17374 1   37.903506  22.372955  1.67492
17375 1   39.126255  23.094954  1.67492
17376 1   36.694651  20.231023  1.67492
17377 1   35.458006  20.928956  1.67492
17378 1   35.444111  22.348888  1.67492
17379 1   36.666861  23.070887  1.67492
17380 1   34.235256  20.206957  1.67492
17381 1   32.998612  20.904889  1.67492
17382 1   32.984717  22.324821  1.67492
17383 1   34.207467  23.046821  1.67492
17384 1   31.775862  20.182890  1.67492
17385 1   30.539217  20.880823  1.67492
17386 1   30.525322  22.300755  1.67492
17387 1   31.748072  23.022754  1.67492
17388 1   29.316468  20.158823  1.67492
17389 1   28.079823  20.856756  1.67492
17390 1   28.065928  22.276688  1.67492
17391 1   29.288678  22.998687  1.67492
17392 1   26.857073  20.134757  1.67492
17393 1   25.620429  20.832689  1.67492
17394 1   25.606534  22.252621  1.67492
17395 1   26.829283  22.974621  1.67492
17396 1   24.397679  20.110690  1.67492
17397 1   23.161034  20.808623  1.67492
17398 1   23.147139  22.228555  1.67492
17399 1   24.369889  22.950554  1.67492
17400 1   21.938284  20.086623  1.67492
17401 1   20.701640  20.784556  1.67492
17402 1   20.687745  22.204488  1.67492
17403 1   21.910495  22.926488  1.67492
17404 1   19.478890  20.062557  1.67492
17405 1   18.242245  20.760490  1.67492
17406 1   18.228350  22.180422  1.67492
17407 1   19.451100  22.902421  1.67492
17408 1   17.019496  20.038490  1.67492
17409 1   15.782851  20.736423  1.67492
17410 1   15.768956  22.156355  1.67492
17411 1   16.991706  22.878354  1.67492
17412 1   14.560101  20.014424  1.67492
17413 1   13.323457  20.712356  1.67492
17414 1   13.309562  22.132288  1.67492
17415 1   14.532311  22.854288  1.67492
17416 1   12.100707  19.990357  1.67492
17417 1   10.864062  20.688290  1.67492
17418 1   10.850167  22.108222  1.67492
17419 1   12.072917  22.830221  1.67492
17420 1    9.641312  19.966290  1.67492
17421 1    8.404668  20.664223  1.67492
17422 1    8.390773  22.084155  1.67492
17423 1    9.613523  22.806154  1.67492
17424 1    7.181918  19.942224  1.67492
17425 1    5.945273  20.640156  1.67492
17426 1    5.931379  22.060088  1.67492
17427 1    7.154128  22.782088  1.67492
17428 1    4.722524  19.918157  1.67492
17429 1    3.485879  20.616090  1.67492
17430 1    3.471984  22.036022  1.67492
17431 1    4.694734  22.758021  1.67492
17432 1    2.263129  19.894090  1.67492
17433 1    1.026485  20.592023  1.67492
17434 1    1.012590  22.011955  1.67492
17435 1    2.235339  22.733954  1.67492
17436 1   -0.196265  19.870024  1.67492
17437 1   -1.432910  20.567956  1.67492
17438 1   -1.446805  21.987888  1.67492
17439 1   -0.224055  22.709888  1.67492
17440 1   -2.655660  19.845957  1.67492
17441 1   -3.892304  20.543890  1.67492
17442 1   -3.906199  21.963822  1.67492
17443 1   -2.683449  22.685821  1.67492
17444 1   -5.115054  19.821890  1.67492
17445 1   -6.351699  20.519823  1.67492
17446 1   -6.365593  21.939755  1.67492
17447 1   -5.142844  22.661754  1.67492
17448 1   -7.574448  19.797824  1.67492
17449 1   -8.811093  20.495756  1.67492
17450 1   -8.824988  21.915688  1.67492
17451 1   -7.602238  22.637688  1.67492
17452 1  -10.033843  19.773757  1.67492
17453 1  -11.270487  20.471690  1.67492
17454 1  -11.284382  21.891622  1.67492
17455 1  -10.061633  22.613621  1.67492
17456 1  -12.493237  19.749690  1.67492
17457 1  -13.729882  20.447623  1.67492
17458 1  -13.743777  21.867555  1.67492
17459 1  -12.521027  22.589554  1.67492
17460 1  -14.952632  19.725624  1.67492
17461 1  -16.189276  20.423556  1.67492
17462 1  -16.203171  21.843489  1.67492
17463 1  -14.980421  22.565488  1.67492
17464 1  -17.412026  19.701557  1.67492
17465 1  -18.648671  20.399490  1.67492
17466 1  -18.662565  21.819422  1.67492
17467 1  -17.439816  22.541421  1.67492
17468 1  -19.871420  19.677491  1.67492
17469 1  -21.108065  20.375423  1.67492
17470 1  -21.121960  21.795355  1.67492
17471 1  -19.899210  22.517355  1.67492
17472 1  -22.330815  19.653424  1.67492
17473 1  -23.567459  20.351357  1.67492
17474 1  -23.581354  21.771289  1.67492
17475 1  -22.358604  22.493288  1.67492
17476 1  -24.790209  19.629357  1.67492
17477 1  -26.026854  20.327290  1.67492
17478 1  -26.040749  21.747222  1.67492
17479 1  -24.817999  22.469221  1.67492
17480 1  -27.249604  19.605291  1.67492
17481 1  -28.486248  20.303223  1.67492
17482 1  -28.500143  21.723155  1.67492
17483 1  -27.277393  22.445155  1.67492
17484 1  -29.708998  19.581224  1.67492
17485 1  -30.945643  20.279157  1.67492
17486 1  -30.959537  21.699089  1.67492
17487 1  -29.736788  22.421088  1.67492
17488 1  -32.168392  19.557157  1.67492
17489 1  -33.405037  20.255090  1.67492
17490 1  -33.418932  21.675022  1.67492
17491 1  -32.196182  22.397021  1.67492
17492 1  -34.627787  19.533091  1.67492
17493 1  -35.864431  20.231023  1.67492
17494 1  -35.878326  21.650955  1.67492
17495 1  -34.655576  22.372955  1.67492
17496 1  -37.087181  19.509024  1.67492
17497 1  -38.323826  20.206957  1.67492
17498 1  -38.337721  21.626889  1.67492
17499 1  -37.114971  22.348888  1.67492
17500 1  -39.546575  19.484957  1.67492
17501 1  -40.783220  20.182890  1.67492
17502 1  -40.797115  21.602822  1.67492
17503 1  -39.574365  22.324821  1.67492
17504 1  -42.005970  19.460891  1.67492
17505 1  -43.242615  20.158823  1.67492
17506 1  -43.256509  21.578755  1.67492
17507 1  -42.033760  22.300755  1.67492
17508 1  -44.465364  19.436824  1.67492
17509 1  -45.702009  20.134757  1.67492
17510 1  -45.715904  21.554689  1.67492
17511 1  -44.493154  22.276688  1.67492
17512 1  -46.924759  19.412757  1.67492
17513 1  -48.161403  20.110690  1.67492
17514 1  -48.175298  21.530622  1.67492
17515 1  -46.952548  22.252621  1.67492
17516 1  -49.384153  19.388691  1.67492
17517 1  -50.620798  20.086623  1.67492
17518 1  -50.634693  21.506555  1.67492
17519 1  -49.411943  22.228555  1.67492
17520 1  -51.843547  19.364624  1.67492
17521 1  -53.080192  20.062557  1.67492
17522 1  -53.094087  21.482489  1.67492
17523 1  -51.871337  22.204488  1.67492
17524 1  -54.302942  19.340557  1.67492
17525 1  -55.539587  20.038490  1.67492
17526 1  -55.553481  21.458422  1.67492
17527 1  -54.330732  22.180422  1.67492
17528 1  -56.762336  19.316491  1.67492
17529 1  -57.998981  20.014424  1.67492
17530 1  -58.012876  21.434356  1.67492
17531 1  -56.790126  22.156355  1.67492
17532 1  -59.221731  19.292424  1.67492
17533 1  -60.458375  19.990357  1.67492
17534 1  -60.472270  21.410289  1.67492
17535 1  -59.249520  22.132288  1.67492
17536 1  -61.681125  19.268358  1.67492
17537 1  -62.917770  19.966290  1.67492
17538 1  -62.931665  21.386222  1.67492
17539 1  -61.708915  22.108222  1.67492
17540 1  -64.140519  19.244291  1.67492
17541 1  -65.377164  19.942224  1.67492
17542 1  -65.391059  21.362156  1.67492
17543 1  -64.168309  22.084155  1.67492
17544 1  -66.599914  19.220224  1.67492
17545 1  -67.836558  19.918157  1.67492
17546 1  -67.850453  21.338089  1.67492
17547 1  -66.627704  22.060088  1.67492
17548 1  -69.059308  19.196158  1.67492
17549 1  -70.295953  19.894090  1.67492
17550 1  -70.309848  21.314022  1.67492
17551 1  -69.087098  22.036022  1.67492
17552 1  -71.518703  19.172091  1.67492
17553 1  -72.755347  19.870024  1.67492
17554 1  -72.769242  21.289956  1.67492
17555 1  -71.546492  22.011955  1.67492
17556 1  -73.978097  19.148024  1.67492
17557 1  -75.214742  19.845957  1.67492
17558 1  -75.228637  21.265889  1.67492
17559 1  -74.005887  21.987888  1.67492
17560 1  -76.437491  19.123958  1.67492
17561 1  -77.674136  19.821890  1.67492
17562 1  -77.688031  21.241822  1.67492
17563 1  -76.465281  21.963822  1.67492
17564 1  -78.896886  19.099891  1.67492
17565 1  -80.133530  19.797824  1.67492
17566 1  -80.147425  21.217756  1.67492
17567 1  -78.924676  21.939755  1.67492
17568 1  -81.356280  19.075824  1.67492
17569 1  -82.592925  19.773757  1.67492
17570 1  -82.606820  21.193689  1.67492
17571 1  -81.384070  21.915688  1.67492
17572 1  -83.815675  19.051758  1.67492
17573 1  -85.052319  19.749690  1.67492
17574 1  -85.066214  21.169622  1.67492
17575 1  -83.843464  21.891622  1.67492
17576 1  -86.275069  19.027691  1.67492
17577 1  -87.511714  19.725624  1.67492
17578 1  -87.525609  21.145556  1.67492
17579 1  -86.302859  21.867555  1.67492
17580 1  -88.734463  19.003624  1.67492
17581 1  -89.971108  19.701557  1.67492
17582 1  -89.985003  21.121489  1.67492
17583 1  -88.762253  21.843489  1.67492
17584 1  -91.193858  18.979558  1.67492
17585 1  -92.430502  19.677491  1.67492
17586 1  -92.444397  21.097423  1.67492
17587 1  -91.221648  21.819422  1.67492
17588 1  -93.653252  18.955491  1.67492
17589 1  -94.889897  19.653424  1.67492
17590 1  -94.903792  21.073356  1.67492
17591 1  -93.681042  21.795355  1.67492
17592 1  -96.112647  18.931425  1.67492
17593 1  -97.349291  19.629357  1.67492
17594 1  -97.363186  21.049289  1.67492
17595 1  -96.140436  21.771289  1.67492
17596 1  -98.572041  18.907358  1.67492
17597 1  -99.808686  19.605291  1.67492
17598 1  -99.822581  21.025223  1.67492
17599 1  -98.599831  21.747222  1.67492
17600 1 -101.031435  18.883291  1.67492
17601 1 -102.268080  19.581224  1.67492
17602 1 -102.281975  21.001156  1.67492
17603 1 -101.059225  21.723155  1.67492
17604 1 -103.490830  18.859225  1.67492
17605 1 -104.727474  19.557157  1.67492
17606 1 -104.741369  20.977089  1.67492
17607 1 -103.518620  21.699089  1.67492
17608 1 -105.950224  18.835158  1.67492
17609 1 -107.186869  19.533091  1.67492
17610 1 -107.200764  20.953023  1.67492
17611 1 -105.978014  21.675022  1.67492
17612 1 -108.409619  18.811091  1.67492
17613 1 -108.437408  21.650955  1.67492
17614 1  107.975404  25.188752  1.67492
17615 1  106.738759  25.886685  1.67492
17616 1  106.724864  27.306617  1.67492
17617 1  107.947614  28.028616  1.67492
17618 1  105.516009  25.164685  1.67492
17619 1  104.279365  25.862618  1.67492
17620 1  104.265470  27.282550  1.67492
17621 1  105.488219  28.004549  1.67492
17622 1  103.056615  25.140619  1.67492
17623 1  101.819970  25.838551  1.67492
17624 1  101.806075  27.258483  1.67492
17625 1  103.028825  27.980483  1.67492
17626 1  100.597220  25.116552  1.67492
17627 1   99.360576  25.814485  1.67492
17628 1   99.346681  27.234417  1.67492
17629 1  100.569431  27.956416  1.67492
17630 1   98.137826  25.092485  1.67492
17631 1   96.901181  25.790418  1.67492
17632 1   96.887287  27.210350  1.67492
17633 1   98.110036  27.932350  1.67492
17634 1   95.678432  25.068419  1.67492
17635 1   94.441787  25.766352  1.67492
17636 1   94.427892  27.186284  1.67492
17637 1   95.650642  27.908283  1.67492
17638 1   93.219037  25.044352  1.67492
17639 1   91.982393  25.742285  1.67492
17640 1   91.968498  27.162217  1.67492
17641 1   93.191247  27.884216  1.67492
17642 1   90.759643  25.020286  1.67492
17643 1   89.522998  25.718218  1.67492
17644 1   89.509103  27.138150  1.67492
17645 1   90.731853  27.860150  1.67492
17646 1   88.300248  24.996219  1.67492
17647 1   87.063604  25.694152  1.67492
17648 1   87.049709  27.114084  1.67492
17649 1   88.272459  27.836083  1.67492
17650 1   85.840854  24.972152  1.67492
17651 1   84.604209  25.670085  1.67492
17652 1   84.590315  27.090017  1.67492
17653 1   85.813064  27.812016  1.67492
17654 1   83.381460  24.948086  1.67492
17655 1   82.144815  25.646018  1.67492
17656 1   82.130920  27.065950  1.67492
17657 1   83.353670  27.787950  1.67492
17658 1   80.922065  24.924019  1.67492
17659 1   79.685421  25.621952  1.67492
17660 1   79.671526  27.041884  1.67492
17661 1   80.894276  27.763883  1.67492
17662 1   78.462671  24.899952  1.67492
17663 1   77.226026  25.597885  1.67492
17664 1   77.212131  27.017817  1.67492
17665 1   78.434881  27.739816  1.67492
17666 1   76.003276  24.875886  1.67492
17667 1   74.766632  25.573818  1.67492
17668 1   74.752737  26.993750  1.67492
17669 1   75.975487  27.715750  1.67492
17670 1   73.543882  24.851819  1.67492
17671 1   72.307237  25.549752  1.67492
17672 1   72.293343  26.969684  1.67492
17673 1   73.516092  27.691683  1.67492
17674 1   71.084488  24.827752  1.67492
17675 1   69.847843  25.525685  1.67492
17676 1   69.833948  26.945617  1.67492
17677 1   71.056698  27.667616  1.67492
17678 1   68.625093  24.803686  1.67492
17679 1   67.388449  25.501618  1.67492
17680 1   67.374554  26.921550  1.67492
17681 1   68.597304  27.643550  1.67492
17682 1   66.165699  24.779619  1.67492
17683 1   64.929054  25.477552  1.67492
17684 1   64.915159  26.897484  1.67492
17685 1   66.137909  27.619483  1.67492
17686 1   63.706305  24.755552  1.67492
17687 1   62.469660  25.453485  1.67492
17688 1   62.455765  26.873417  1.67492
17689 1   63.678515  27.595417  1.67492
17690 1   61.246910  24.731486  1.67492
17691 1   60.010265  25.429419  1.67492
17692 1   59.996371  26.849351  1.67492
17693 1   61.219120  27.571350  1.67492
17694 1   58.787516  24.707419  1.67492
17695 1   57.550871  25.405352  1.67492
17696 1   57.536976  26.825284  1.67492
17697 1   58.759726  27.547283  1.67492
17698 1   56.328121  24.683353  1.67492
17699 1   55.091477  25.381285  1.67492
17700 1   55.077582  26.801217  1.67492
17701 1   56.300332  27.523217  1.67492
17702 1   53.868727  24.659286  1.67492
17703 1   52.632082  25.357219  1.67492
17704 1   52.618187  26.777151  1.67492
17705 1   53.840937  27.499150  1.67492
17706 1   51.409333  24.635219  1.67492
17707 1   50.172688  25.333152  1.67492
17708 1   50.158793  26.753084  1.67492
17709 1   51.381543  27.475083  1.67492
17710 1   48.949938  24.611153  1.67492
17711 1   47.713293  25.309085  1.67492
17712 1   47.699399  26.729017  1.67492
17713 1   48.922148  27.451017  1.67492
17714 1   46.490544  24.587086  1.67492
17715 1   45.253899  25.285019  1.67492
17716 1   45.240004  26.704951  1.67492
17717 1   46.462754  27.426950  1.67492
17718 1   44.031149  24.563019  1.67492
17719 1   42.794505  25.260952  1.67492
17720 1   42.780610  26.680884  1.67492
17721 1   44.003360  27.402883  1.67492
17722 1   41.571755  24.538953  1.67492
17723 1   40.335110  25.236885  1.67492
17724 1   40.321215  26.656817  1.67492
17725 1   41.543965  27.378817  1.67492
17726 1   39.112361  24.514886  1.67492
17727 1   37.875716  25.212819  1.67492
17728 1   37.861821  26.632751  1.67492
17729 1   39.084571  27.354750  1.67492
17730 1   36.652966  24.490819  1.67492
17731 1   35.416322  25.188752  1.67492
17732 1   35.402427  26.608684  1.67492
17733 1   36.625176  27.330683  1.67492
17734 1   34.193572  24.466753  1.67492
17735 1   32.956927  25.164685  1.67492
17736 1   32.943032  26.584617  1.67492
17737 1   34.165782  27.306617  1.67492
17738 1   31.734177  24.442686  1.67492
17739 1   30.497533  25.140619  1.67492
17740 1   30.483638  26.560551  1.67492
17741 1   31.706388  27.282550  1.67492
17742 1   29.274783  24.418619  1.67492
17743 1   28.038138  25.116552  1.67492
17744 1   28.024243  26.536484  1.67492
17745 1   29.246993  27.258483  1.67492
17746 1   26.815389  24.394553  1.67492
17747 1   25.578744  25.092485  1.67492
17748 1   25.564849  26.512418  1.67492
17749 1   26.787599  27.234417  1.67492
17750 1   24.355994  24.370486  1.67492
17751 1   23.119350  25.068419  1.67492
17752 1   23.105455  26.488351  1.67492
17753 1   24.328204  27.210350  1.67492
17754 1   21.896600  24.346420  1.67492
17755 1   20.659955  25.044352  1.67492
17756 1   20.646060  26.464284  1.67492
17757 1   21.868810  27.186284  1.67492
17758 1   19.437205  24.322353  1.67492
17759 1   18.200561  25.020286  1.67492
17760 1   18.186666  26.440218  1.67492
17761 1   19.409416  27.162217  1.67492
17762 1   16.977811  24.298286  1.67492
17763 1   15.741166  24.996219  1.67492
17764 1   15.727271  26.416151  1.67492
17765 1   16.950021  27.138150  1.67492
17766 1   14.518417  24.274220  1.67492
17767 1   13.281772  24.972152  1.67492
17768 1   13.267877  26.392084  1.67492
17769 1   14.490627  27.114084  1.67492
17770 1   12.059022  24.250153  1.67492
17771 1   10.822378  24.948086  1.67492
17772 1   10.808483  26.368018  1.67492
17773 1   12.031232  27.090017  1.67492
17774 1    9.599628  24.226086  1.67492
17775 1    8.362983  24.924019  1.67492
17776 1    8.349088  26.343951  1.67492
17777 1    9.571838  27.065950  1.67492
17778 1    7.140233  24.202020  1.67492
17779 1    5.903589  24.899952  1.67492
17780 1    5.889694  26.319884  1.67492
17781 1    7.112444  27.041884  1.67492
17782 1    4.680839  24.177953  1.67492
17783 1    3.444194  24.875886  1.67492
17784 1    3.430299  26.295818  1.67492
17785 1    4.653049  27.017817  1.67492
17786 1    2.221445  24.153886  1.67492
17787 1    0.984800  24.851819  1.67492
17788 1    0.970905  26.271751  1.67492
17789 1    2.193655  26.993750  1.67492
17790 1   -0.237950  24.129820  1.67492
17791 1   -1.474594  24.827752  1.67492
17792 1   -1.488489  26.247684  1.67492
17793 1   -0.265740  26.969684  1.67492
17794 1   -2.697344  24.105753  1.67492
17795 1   -3.933989  24.803686  1.67492
17796 1   -3.947884  26.223618  1.67492
17797 1   -2.725134  26.945617  1.67492
17798 1   -5.156739  24.081686  1.67492
17799 1   -6.393383  24.779619  1.67492
17800 1   -6.407278  26.199551  1.67492
17801 1   -5.184528  26.921550  1.67492
17802 1   -7.616133  24.057620  1.67492
17803 1   -8.852778  24.755552  1.67492
17804 1   -8.866673  26.175484  1.67492
17805 1   -7.643923  26.897484  1.67492
17806 1  -10.075527  24.033553  1.67492
17807 1  -11.312172  24.731486  1.67492
17808 1  -11.326067  26.151418  1.67492
17809 1  -10.103317  26.873417  1.67492
17810 1  -12.534922  24.009487  1.67492
17811 1  -13.771566  24.707419  1.67492
17812 1  -13.785461  26.127351  1.67492
17813 1  -12.562712  26.849351  1.67492
17814 1  -14.994316  23.985420  1.67492
17815 1  -16.230961  24.683353  1.67492
17816 1  -16.244856  26.103285  1.67492
17817 1  -15.022106  26.825284  1.67492
17818 1  -17.453711  23.961353  1.67492
17819 1  -18.690355  24.659286  1.67492
17820 1  -18.704250  26.079218  1.67492
17821 1  -17.481500  26.801217  1.67492
17822 1  -19.913105  23.937287  1.67492
17823 1  -21.149750  24.635219  1.67492
17824 1  -21.163644  26.055151  1.67492
17825 1  -19.940895  26.777151  1.67492
17826 1  -22.372499  23.913220  1.67492
17827 1  -23.609144  24.611153  1.67492
17828 1  -23.623039  26.031085  1.67492
17829 1  -22.400289  26.753084  1.67492
17830 1  -24.831894  23.889153  1.67492
17831 1  -26.068538  24.587086  1.67492
17832 1  -26.082433  26.007018  1.67492
17833 1  -24.859684  26.729017  1.67492
17834 1  -27.291288  23.865087  1.67492
17835 1  -28.527933  24.563019  1.67492
17836 1  -28.541828  25.982951  1.67492
17837 1  -27.319078  26.704951  1.67492
17838 1  -29.750683  23.841020  1.67492
17839 1  -30.987327  24.538953  1.67492
17840 1  -31.001222  25.958885  1.67492
17841 1  -29.778472  26.680884  1.67492
17842 1  -32.210077  23.816953  1.67492
17843 1  -33.446722  24.514886  1.67492
17844 1  -33.460616  25.934818  1.67492
17845 1  -32.237867  26.656817  1.67492
17846 1  -34.669471  23.792887  1.67492
17847 1  -35.906116  24.490819  1.67492
17848 1  -35.920011  25.910751  1.67492
17849 1  -34.697261  26.632751  1.67492
17850 1  -37.128866  23.768820  1.67492
17851 1  -38.365510  24.466753  1.67492
17852 1  -38.379405  25.886685  1.67492
17853 1  -37.156656  26.608684  1.67492
17854 1  -39.588260  23.744753  1.67492
17855 1  -40.824905  24.442686  1.67492
17856 1  -40.838800  25.862618  1.67492
17857 1  -39.616050  26.584617  1.67492
17858 1  -42.047655  23.720687  1.67492
17859 1  -43.284299  24.418619  1.67492
17860 1  -43.298194  25.838551  1.67492
17861 1  -42.075444  26.560551  1.67492
17862 1  -44.507049  23.696620  1.67492
17863 1  -45.743694  24.394553  1.67492
17864 1  -45.757588  25.814485  1.67492
17865 1  -44.534839  26.536484  1.67492
17866 1  -46.966443  23.672553  1.67492
17867 1  -48.203088  24.370486  1.67492
17868 1  -48.216983  25.790418  1.67492
17869 1  -46.994233  26.512418  1.67492
17870 1  -49.425838  23.648487  1.67492
17871 1  -50.662482  24.346420  1.67492
17872 1  -50.676377  25.766352  1.67492
17873 1  -49.453627  26.488351  1.67492
17874 1  -51.885232  23.624420  1.67492
17875 1  -53.121877  24.322353  1.67492
17876 1  -53.135772  25.742285  1.67492
17877 1  -51.913022  26.464284  1.67492
17878 1  -54.344627  23.600354  1.67492
17879 1  -55.581271  24.298286  1.67492
17880 1  -55.595166  25.718218  1.67492
17881 1  -54.372416  26.440218  1.67492
17882 1  -56.804021  23.576287  1.67492
17883 1  -58.040666  24.274220  1.67492
17884 1  -58.054560  25.694152  1.67492
17885 1  -56.831811  26.416151  1.67492
17886 1  -59.263415  23.552220  1.67492
17887 1  -60.500060  24.250153  1.67492
17888 1  -60.513955  25.670085  1.67492
17889 1  -59.291205  26.392084  1.67492
17890 1  -61.722810  23.528154  1.67492
17891 1  -62.959454  24.226086  1.67492
17892 1  -62.973349  25.646018  1.67492
17893 1  -61.750599  26.368018  1.67492
17894 1  -64.182204  23.504087  1.67492
17895 1  -65.418849  24.202020  1.67492
17896 1  -65.432744  25.621952  1.67492
17897 1  -64.209994  26.343951  1.67492
17898 1  -66.641598  23.480020  1.67492
17899 1  -67.878243  24.177953  1.67492
17900 1  -67.892138  25.597885  1.67492
17901 1  -66.669388  26.319884  1.67492
17902 1  -69.100993  23.455954  1.67492
17903 1  -70.337638  24.153886  1.67492
17904 1  -70.351532  25.573818  1.67492
17905 1  -69.128783  26.295818  1.67492
17906 1  -71.560387  23.431887  1.67492
17907 1  -72.797032  24.129820  1.67492
17908 1  -72.810927  25.549752  1.67492
17909 1  -71.588177  26.271751  1.67492
17910 1  -74.019782  23.407820  1.67492
17911 1  -75.256426  24.105753  1.67492
17912 1  -75.270321  25.525685  1.67492
17913 1  -74.047571  26.247684  1.67492
17914 1  -76.479176  23.383754  1.67492
17915 1  -77.715821  24.081686  1.67492
17916 1  -77.729716  25.501618  1.67492
17917 1  -76.506966  26.223618  1.67492
17918 1  -78.938570  23.359687  1.67492
17919 1  -80.175215  24.057620  1.67492
17920 1  -80.189110  25.477552  1.67492
17921 1  -78.966360  26.199551  1.67492
17922 1  -81.397965  23.335620  1.67492
17923 1  -82.634610  24.033553  1.67492
17924 1  -82.648504  25.453485  1.67492
17925 1  -81.425755  26.175484  1.67492
17926 1  -83.857359  23.311554  1.67492
17927 1  -85.094004  24.009487  1.67492
17928 1  -85.107899  25.429419  1.67492
17929 1  -83.885149  26.151418  1.67492
17930 1  -86.316754  23.287487  1.67492
17931 1  -87.553398  23.985420  1.67492
17932 1  -87.567293  25.405352  1.67492
17933 1  -86.344543  26.127351  1.67492
17934 1  -88.776148  23.263421  1.67492
17935 1  -90.012793  23.961353  1.67492
17936 1  -90.026688  25.381285  1.67492
17937 1  -88.803938  26.103285  1.67492
17938 1  -91.235542  23.239354  1.67492
17939 1  -92.472187  23.937287  1.67492
17940 1  -92.486082  25.357219  1.67492
17941 1  -91.263332  26.079218  1.67492
17942 1  -93.694937  23.215287  1.67492
17943 1  -94.931581  23.913220  1.67492
17944 1  -94.945476  25.333152  1.67492
17945 1  -93.722727  26.055151  1.67492
17946 1  -96.154331  23.191221  1.67492
17947 1  -97.390976  23.889153  1.67492
17948 1  -97.404871  25.309085  1.67492
17949 1  -96.182121  26.031085  1.67492
17950 1  -98.613726  23.167154  1.67492
17951 1  -99.850370  23.865087  1.67492
17952 1  -99.864265  25.285019  1.67492
17953 1  -98.641515  26.007018  1.67492
17954 1 -101.073120  23.143087  1.67492
17955 1 -102.309765  23.841020  1.67492
17956 1 -102.323660  25.260952  1.67492
17957 1 -101.100910  25.982951  1.67492
17958 1 -103.532514  23.119021  1.67492
17959 1 -104.769159  23.816953  1.67492
17960 1 -104.783054  25.236885  1.67492
17961 1 -103.560304  25.958885  1.67492
17962 1 -105.991909  23.094954  1.67492
17963 1 -107.228553  23.792887  1.67492
17964 1 -107.242448  25.212819  1.67492
17965 1 -106.019699  25.934818  1.67492
17966 1 -108.451303  23.070887  1.67492
17967 1 -108.479093  25.910751  1.67492
17968 1  107.933719  29.448548  1.67492
17969 1  106.697074  30.146481  1.67492
17970 1  106.683179  31.566413  1.67492
17971 1  107.905929  32.288412  1.67492
17972 1  105.474325  29.424481  1.67492
17973 1  104.237680  30.122414  1.67492
17974 1  104.223785  31.542346  1.67492
17975 1  105.446535  32.264346  1.67492
17976 1  103.014930  29.400415  1.67492
17977 1  101.778286  30.098348  1.67492
17978 1  101.764391  31.518280  1.67492
17979 1  102.987140  32.240279  1.67492
17980 1  100.555536  29.376348  1.67492
17981 1   99.318891  30.074281  1.67492
17982 1   99.304996  31.494213  1.67492
17983 1  100.527746  32.216212  1.67492
17984 1   98.096141  29.352282  1.67492
17985 1   96.859497  30.050214  1.67492
17986 1   96.845602  31.470146  1.67492
17987 1   98.068352  32.192146  1.67492
17988 1   95.636747  29.328215  1.67492
17989 1   94.400102  30.026148  1.67492
17990 1   94.386207  31.446080  1.67492
17991 1   95.608957  32.168079  1.67492
17992 1   93.177353  29.304148  1.67492
17993 1   91.940708  30.002081  1.67492
17994 1   91.926813  31.422013  1.67492
17995 1   93.149563  32.144012  1.67492
17996 1   90.717958  29.280082  1.67492
17997 1   89.481314  29.978014  1.67492
17998 1   89.467419  31.397946  1.67492
17999 1   90.690168  32.119946  1.67492
18000 1   88.258564  29.256015  1.67492
18001 1   87.021919  29.953948  1.67492
18002 1   87.008024  31.373880  1.67492
18003 1   88.230774  32.095879  1.67492
18004 1   85.799169  29.231948  1.67492
18005 1   84.562525  29.929881  1.67492
18006 1   84.548630  31.349813  1.67492
18007 1   85.771380  32.071812  1.67492
18008 1   83.339775  29.207882  1.67492
18009 1   82.103130  29.905814  1.67492
18010 1   82.089236  31.325746  1.67492
18011 1   83.311985  32.047746  1.67492
18012 1   80.880381  29.183815  1.67492
18013 1   79.643736  29.881748  1.67492
18014 1   79.629841  31.301680  1.67492
18015 1   80.852591  32.023679  1.67492
18016 1   78.420986  29.159748  1.67492
18017 1   77.184342  29.857681  1.67492
18018 1   77.170447  31.277613  1.67492
18019 1   78.393196  31.999612  1.67492
18020 1   75.961592  29.135682  1.67492
18021 1   74.724947  29.833614  1.67492
18022 1   74.711052  31.253546  1.67492
18023 1   75.933802  31.975546  1.67492
18024 1   73.502197  29.111615  1.67492
18025 1   72.265553  29.809548  1.67492
18026 1   72.251658  31.229480  1.67492
18027 1   73.474408  31.951479  1.67492
18028 1   71.042803  29.087548  1.67492
18029 1   69.806158  29.785481  1.67492
18030 1   69.792264  31.205413  1.67492
18031 1   71.015013  31.927412  1.67492
18032 1   68.583409  29.063482  1.67492
18033 1   67.346764  29.761415  1.67492
18034 1   67.332869  31.181347  1.67492
18035 1   68.555619  31.903346  1.67492
18036 1   66.124014  29.039415  1.67492
18037 1   64.887370  29.737348  1.67492
18038 1   64.873475  31.157280  1.67492
18039 1   66.096224  31.879279  1.67492
18040 1   63.664620  29.015349  1.67492
18041 1   62.427975  29.713281  1.67492
18042 1   62.414080  31.133213  1.67492
18043 1   63.636830  31.855213  1.67492
18044 1   61.205225  28.991282  1.67492
18045 1   59.968581  29.689215  1.67492
18046 1   59.954686  31.109147  1.67492
18047 1   61.177436  31.831146  1.67492
18048 1   58.745831  28.967215  1.67492
18049 1   57.509186  29.665148  1.67492
18050 1   57.495292  31.085080  1.67492
18051 1   58.718041  31.807079  1.67492
18052 1   56.286437  28.943149  1.67492
18053 1   55.049792  29.641081  1.67492
18054 1   55.035897  31.061013  1.67492
18055 1   56.258647  31.783013  1.67492
18056 1   53.827042  28.919082  1.67492
18057 1   52.590398  29.617015  1.67492
18058 1   52.576503  31.036947  1.67492
18059 1   53.799253  31.758946  1.67492
18060 1   51.367648  28.895015  1.67492
18061 1   50.131003  29.592948  1.67492
18062 1   50.117108  31.012880  1.67492
18063 1   51.339858  31.734879  1.67492
18064 1   48.908253  28.870949  1.67492
18065 1   47.671609  29.568881  1.67492
18066 1   47.657714  30.988813  1.67492
18067 1   48.880464  31.710813  1.67492
18068 1   46.448859  28.846882  1.67492
18069 1   45.212214  29.544815  1.67492
18070 1   45.198320  30.964747  1.67492
18071 1   46.421069  31.686746  1.67492
18072 1   43.989465  28.822815  1.67492
18073 1   42.752820  29.520748  1.67492
18074 1   42.738925  30.940680  1.67492
18075 1   43.961675  31.662679  1.67492
18076 1   41.530070  28.798749  1.67492
18077 1   40.293426  29.496681  1.67492
18078 1   40.279531  30.916613  1.67492
18079 1   41.502281  31.638613  1.67492
18080 1   39.070676  28.774682  1.67492
18081 1   37.834031  29.472615  1.67492
18082 1   37.820136  30.892547  1.67492
18083 1   39.042886  31.614546  1.67492
18084 1   36.611281  28.750615  1.67492
18085 1   35.374637  29.448548  1.67492
18086 1   35.360742  30.868480  1.67492
18087 1   36.583492  31.590479  1.67492
18088 1   34.151887  28.726549  1.67492
18089 1   32.915242  29.424481  1.67492
18090 1   32.901348  30.844413  1.67492
18091 1   34.124097  31.566413  1.67492
18092 1   31.692493  28.702482  1.67492
18093 1   30.455848  29.400415  1.67492
18094 1   30.441953  30.820347  1.67492
18095 1   31.664703  31.542346  1.67492
18096 1   29.233098  28.678416  1.67492
18097 1   27.996454  29.376348  1.67492
18098 1   27.982559  30.796280  1.67492
18099 1   29.205309  31.518280  1.67492
18100 1   26.773704  28.654349  1.67492
18101 1   25.537059  29.352282  1.67492
18102 1   25.523164  30.772214  1.67492
18103 1   26.745914  31.494213  1.67492
18104 1   24.314310  28.630282  1.67492
18105 1   23.077665  29.328215  1.67492
18106 1   23.063770  30.748147  1.67492
18107 1   24.286520  31.470146  1.67492
18108 1   21.854915  28.606216  1.67492
18109 1   20.618270  29.304148  1.67492
18110 1   20.604376  30.724080  1.67492
18111 1   21.827125  31.446080  1.67492
18112 1   19.395521  28.582149  1.67492
18113 1   18.158876  29.280082  1.67492
18114 1   18.144981  30.700014  1.67492
18115 1   19.367731  31.422013  1.67492
18116 1   16.936126  28.558082  1.67492
18117 1   15.699482  29.256015  1.67492
18118 1   15.685587  30.675947  1.67492
18119 1   16.908337  31.397946  1.67492
18120 1   14.476732  28.534016  1.67492
18121 1   13.240087  29.231948  1.67492
18122 1   13.226192  30.651880  1.67492
18123 1   14.448942  31.373880  1.67492
18124 1   12.017338  28.509949  1.67492
18125 1   10.780693  29.207882  1.67492
18126 1   10.766798  30.627814  1.67492
18127 1   11.989548  31.349813  1.67492
18128 1    9.557943  28.485882  1.67492
18129 1    8.321298  29.183815  1.67492
18130 1    8.307404  30.603747  1.67492
18131 1    9.530153  31.325746  1.67492
18132 1    7.098549  28.461816  1.67492
18133 1    5.861904  29.159748  1.67492
18134 1    5.848009  30.579680  1.67492
18135 1    7.070759  31.301680  1.67492
18136 1    4.639154  28.437749  1.67492
18137 1    3.402510  29.135682  1.67492
18138 1    3.388615  30.555614  1.67492
18139 1    4.611365  31.277613  1.67492
18140 1    2.179760  28.413682  1.67492
18141 1    0.943115  29.111615  1.67492
18142 1    0.929220  30.531547  1.67492
18143 1    2.151970  31.253546  1.67492
18144 1   -0.279634  28.389616  1.67492
18145 1   -1.516279  29.087548  1.67492
18146 1   -1.530174  30.507480  1.67492
18147 1   -0.307424  31.229480  1.67492
18148 1   -2.739029  28.365549  1.67492
18149 1   -3.975673  29.063482  1.67492
18150 1   -3.989568  30.483414  1.67492
18151 1   -2.766819  31.205413  1.67492
18152 1   -5.198423  28.341482  1.67492
18153 1   -6.435068  29.039415  1.67492
18154 1   -6.448963  30.459347  1.67492
18155 1   -5.226213  31.181347  1.67492
18156 1   -7.657818  28.317416  1.67492
18157 1   -8.894462  29.015349  1.67492
18158 1   -8.908357  30.435281  1.67492
18159 1   -7.685607  31.157280  1.67492
18160 1  -10.117212  28.293349  1.67492
18161 1  -11.353857  28.991282  1.67492
18162 1  -11.367752  30.411214  1.67492
18163 1  -10.145002  31.133213  1.67492
18164 1  -12.576606  28.269283  1.67492
18165 1  -13.813251  28.967215  1.67492
18166 1  -13.827146  30.387147  1.67492
18167 1  -12.604396  31.109147  1.67492
18168 1  -15.036001  28.245216  1.67492
18169 1  -16.272645  28.943149  1.67492
18170 1  -16.286540  30.363081  1.67492
18171 1  -15.063791  31.085080  1.67492
18172 1  -17.495395  28.221149  1.67492
18173 1  -18.732040  28.919082  1.67492
18174 1  -18.745935  30.339014  1.67492
18175 1  -17.523185  31.061013  1.67492
18176 1  -19.954790  28.197083  1.67492
18177 1  -21.191434  28.895015  1.67492
18178 1  -21.205329  30.314947  1.67492
18179 1  -19.982579  31.036947  1.67492
18180 1  -22.414184  28.173016  1.67492
18181 1  -23.650829  28.870949  1.67492
18182 1  -23.664724  30.290881  1.67492
18183 1  -22.441974  31.012880  1.67492
18184 1  -24.873578  28.148949  1.67492
18185 1  -26.110223  28.846882  1.67492
18186 1  -26.124118  30.266814  1.67492
18187 1  -24.901368  30.988813  1.67492
18188 1  -27.332973  28.124883  1.67492
18189 1  -28.569617  28.822815  1.67492
18190 1  -28.583512  30.242747  1.67492
18191 1  -27.360763  30.964747  1.67492
18192 1  -29.792367  28.100816  1.67492
18193 1  -31.029012  28.798749  1.67492
18194 1  -31.042907  30.218681  1.67492
18195 1  -29.820157  30.940680  1.67492
18196 1  -32.251762  28.076749  1.67492
18197 1  -33.488406  28.774682  1.67492
18198 1  -33.502301  30.194614  1.67492
18199 1  -32.279551  30.916613  1.67492
18200 1  -34.711156  28.052683  1.67492
18201 1  -35.947801  28.750615  1.67492
18202 1  -35.961696  30.170547  1.67492
18203 1  -34.738946  30.892547  1.67492
18204 1  -37.170550  28.028616  1.67492
18205 1  -38.407195  28.726549  1.67492
18206 1  -38.421090  30.146481  1.67492
18207 1  -37.198340  30.868480  1.67492
18208 1  -39.629945  28.004549  1.67492
18209 1  -40.866589  28.702482  1.67492
18210 1  -40.880484  30.122414  1.67492
18211 1  -39.657735  30.844413  1.67492
18212 1  -42.089339  27.980483  1.67492
18213 1  -43.325984  28.678416  1.67492
18214 1  -43.339879  30.098348  1.67492
18215 1  -42.117129  30.820347  1.67492
18216 1  -44.548734  27.956416  1.67492
18217 1  -45.785378  28.654349  1.67492
18218 1  -45.799273  30.074281  1.67492
18219 1  -44.576523  30.796280  1.67492
18220 1  -47.008128  27.932350  1.67492
18221 1  -48.244773  28.630282  1.67492
18222 1  -48.258668  30.050214  1.67492
18223 1  -47.035918  30.772214  1.67492
18224 1  -49.467522  27.908283  1.67492
18225 1  -50.704167  28.606216  1.67492
18226 1  -50.718062  30.026148  1.67492
18227 1  -49.495312  30.748147  1.67492
18228 1  -51.926917  27.884216  1.67492
18229 1  -53.163561  28.582149  1.67492
18230 1  -53.177456  30.002081  1.67492
18231 1  -51.954707  30.724080  1.67492
18232 1  -54.386311  27.860150  1.67492
18233 1  -55.622956  28.558082  1.67492
18234 1  -55.636851  29.978014  1.67492
18235 1  -54.414101  30.700014  1.67492
18236 1  -56.845706  27.836083  1.67492
18237 1  -58.082350  28.534016  1.67492
18238 1  -58.096245  29.953948  1.67492
18239 1  -56.873495  30.675947  1.67492
18240 1  -59.305100  27.812016  1.67492
18241 1  -60.541745  28.509949  1.67492
18242 1  -60.555639  29.929881  1.67492
18243 1  -59.332890  30.651880  1.67492
18244 1  -61.764494  27.787950  1.67492
18245 1  -63.001139  28.485882  1.67492
18246 1  -63.015034  29.905814  1.67492
18247 1  -61.792284  30.627814  1.67492
18248 1  -64.223889  27.763883  1.67492
18249 1  -65.460533  28.461816  1.67492
18250 1  -65.474428  29.881748  1.67492
18251 1  -64.251679  30.603747  1.67492
18252 1  -66.683283  27.739816  1.67492
18253 1  -67.919928  28.437749  1.67492
18254 1  -67.933823  29.857681  1.67492
18255 1  -66.711073  30.579680  1.67492
18256 1  -69.142678  27.715750  1.67492
18257 1  -70.379322  28.413682  1.67492
18258 1  -70.393217  29.833614  1.67492
18259 1  -69.170467  30.555614  1.67492
18260 1  -71.602072  27.691683  1.67492
18261 1  -72.838717  28.389616  1.67492
18262 1  -72.852611  29.809548  1.67492
18263 1  -71.629862  30.531547  1.67492
18264 1  -74.061466  27.667616  1.67492
18265 1  -75.298111  28.365549  1.67492
18266 1  -75.312006  29.785481  1.67492
18267 1  -74.089256  30.507480  1.67492
18268 1  -76.520861  27.643550  1.67492
18269 1  -77.757505  28.341482  1.67492
18270 1  -77.771400  29.761415  1.67492
18271 1  -76.548651  30.483414  1.67492
18272 1  -78.980255  27.619483  1.67492
18273 1  -80.216900  28.317416  1.67492
18274 1  -80.230795  29.737348  1.67492
18275 1  -79.008045  30.459347  1.67492
18276 1  -81.439650  27.595417  1.67492
18277 1  -82.676294  28.293349  1.67492
18278 1  -82.690189  29.713281  1.67492
18279 1  -81.467439  30.435281  1.67492
18280 1  -83.899044  27.571350  1.67492
18281 1  -85.135689  28.269283  1.67492
18282 1  -85.149583  29.689215  1.67492
18283 1  -83.926834  30.411214  1.67492
18284 1  -86.358438  27.547283  1.67492
18285 1  -87.595083  28.245216  1.67492
18286 1  -87.608978  29.665148  1.67492
18287 1  -86.386228  30.387147  1.67492
18288 1  -88.817833  27.523217  1.67492
18289 1  -90.054477  28.221149  1.67492
18290 1  -90.068372  29.641081  1.67492
18291 1  -88.845622  30.363081  1.67492
18292 1  -91.277227  27.499150  1.67492
18293 1  -92.513872  28.197083  1.67492
18294 1  -92.527767  29.617015  1.67492
18295 1  -91.305017  30.339014  1.67492
18296 1  -93.736622  27.475083  1.67492
18297 1  -94.973266  28.173016  1.67492
18298 1  -94.987161  29.592948  1.67492
18299 1  -93.764411  30.314947  1.67492
18300 1  -96.196016  27.451017  1.67492
18301 1  -97.432661  28.148949  1.67492
18302 1  -97.446555  29.568881  1.67492
18303 1  -96.223806  30.290881  1.67492
18304 1  -98.655410  27.426950  1.67492
18305 1  -99.892055  28.124883  1.67492
18306 1  -99.905950  29.544815  1.67492
18307 1  -98.683200  30.266814  1.67492
18308 1 -101.114805  27.402883  1.67492
18309 1 -102.351449  28.100816  1.67492
18310 1 -102.365344  29.520748  1.67492
18311 1 -101.142594  30.242747  1.67492
18312 1 -103.574199  27.378817  1.67492
18313 1 -104.810844  28.076749  1.67492
18314 1 -104.824739  29.496681  1.67492
18315 1 -103.601989  30.218681  1.67492
18316 1 -106.033593  27.354750  1.67492
18317 1 -107.270238  28.052683  1.67492
18318 1 -107.284133  29.472615  1.67492
18319 1 -106.061383  30.194614  1.67492
18320 1 -108.492988  27.330683  1.67492
18321 1 -108.520778  30.170547  1.67492
18322 1  107.892034  33.708344  1.67492
18323 1  106.655390  34.406277  1.67492
18324 1  106.641495  35.826209  1.67492
18325 1  107.864245  36.548208  1.67492
18326 1  105.432640  33.684278  1.67492
18327 1  104.195995  34.382210  1.67492
18328 1  104.182100  35.802142  1.67492
18329 1  105.404850  36.524142  1.67492
18330 1  102.973246  33.660211  1.67492
18331 1  101.736601  34.358144  1.67492
18332 1  101.722706  35.778076  1.67492
18333 1  102.945456  36.500075  1.67492
18334 1  100.513851  33.636144  1.67492
18335 1   99.277207  34.334077  1.67492
18336 1   99.263312  35.754009  1.67492
18337 1  100.486061  36.476008  1.67492
18338 1   98.054457  33.612078  1.67492
18339 1   96.817812  34.310010  1.67492
18340 1   96.803917  35.729942  1.67492
18341 1   98.026667  36.451942  1.67492
18342 1   95.595062  33.588011  1.67492
18343 1   94.358418  34.285944  1.67492
18344 1   94.344523  35.705876  1.67492
18345 1   95.567273  36.427875  1.67492
18346 1   93.135668  33.563944  1.67492
18347 1   91.899023  34.261877  1.67492
18348 1   91.885128  35.681809  1.67492
18349 1   93.107878  36.403808  1.67492
18350 1   90.676274  33.539878  1.67492
18351 1   89.439629  34.237810  1.67492
18352 1   89.425734  35.657742  1.67492
18353 1   90.648484  36.379742  1.67492
18354 1   88.216879  33.515811  1.67492
18355 1   86.980235  34.213744  1.67492
18356 1   86.966340  35.633676  1.67492
18357 1   88.189089  36.355675  1.67492
18358 1   85.757485  33.491744  1.67492
18359 1   84.520840  34.189677  1.67492
18360 1   84.506945  35.609609  1.67492
18361 1   85.729695  36.331608  1.67492
18362 1   83.298090  33.467678  1.67492
18363 1   82.061446  34.165610  1.67492
18364 1   82.047551  35.585542  1.67492
18365 1   83.270301  36.307542  1.67492
18366 1   80.838696  33.443611  1.67492
18367 1   79.602051  34.141544  1.67492
18368 1   79.588156  35.561476  1.67492
18369 1   80.810906  36.283475  1.67492
18370 1   78.379302  33.419544  1.67492
18371 1   77.142657  34.117477  1.67492
18372 1   77.128762  35.537409  1.67492
18373 1   78.351512  36.259408  1.67492
18374 1   75.919907  33.395478  1.67492
18375 1   74.683263  34.093410  1.67492
18376 1   74.669368  35.513343  1.67492
18377 1   75.892117  36.235342  1.67492
18378 1   73.460513  33.371411  1.67492
18379 1   72.223868  34.069344  1.67492
18380 1   72.209973  35.489276  1.67492
18381 1   73.432723  36.211275  1.67492
18382 1   71.001118  33.347345  1.67492
18383 1   69.764474  34.045277  1.67492
18384 1   69.750579  35.465209  1.67492
18385 1   70.973329  36.187209  1.67492
18386 1   68.541724  33.323278  1.67492
18387 1   67.305079  34.021211  1.67492
18388 1   67.291184  35.441143  1.67492
18389 1   68.513934  36.163142  1.67492
18390 1   66.082330  33.299211  1.67492
18391 1   64.845685  33.997144  1.67492
18392 1   64.831790  35.417076  1.67492
18393 1   66.054540  36.139075  1.67492
18394 1   63.622935  33.275145  1.67492
18395 1   62.386291  33.973077  1.67492
18396 1   62.372396  35.393009  1.67492
18397 1   63.595145  36.115009  1.67492
18398 1   61.163541  33.251078  1.67492
18399 1   59.926896  33.949011  1.67492
18400 1   59.913001  35.368943  1.67492
18401 1   61.135751  36.090942  1.67492
18402 1   58.704146  33.227011  1.67492
18403 1   57.467502  33.924944  1.67492
18404 1   57.453607  35.344876  1.67492
18405 1   58.676357  36.066875  1.67492
18406 1   56.244752  33.202945  1.67492
18407 1   55.008107  33.900877  1.67492
18408 1   54.994212  35.320809  1.67492
18409 1   56.216962  36.042809  1.67492
18410 1   53.785358  33.178878  1.67492
18411 1   52.548713  33.876811  1.67492
18412 1   52.534818  35.296743  1.67492
18413 1   53.757568  36.018742  1.67492
18414 1   51.325963  33.154811  1.67492
18415 1   50.089319  33.852744  1.67492
18416 1   50.075424  35.272676  1.67492
18417 1   51.298173  35.994675  1.67492
18418 1   48.866569  33.130745  1.67492
18419 1   47.629924  33.828677  1.67492
18420 1   47.616029  35.248609  1.67492
18421 1   48.838779  35.970609  1.67492
18422 1   46.407174  33.106678  1.67492
18423 1   45.170530  33.804611  1.67492
18424 1   45.156635  35.224543  1.67492
18425 1   46.379385  35.946542  1.67492
18426 1   43.947780  33.082611  1.67492
18427 1   42.711135  33.780544  1.67492
18428 1   42.697241  35.200476  1.67492
18429 1   43.919990  35.922475  1.67492
18430 1   41.488386  33.058545  1.67492
18431 1   40.251741  33.756477  1.67492
18432 1   40.237846  35.176409  1.67492
18433 1   41.460596  35.898409  1.67492
18434 1   39.028991  33.034478  1.67492
18435 1   37.792347  33.732411  1.67492
18436 1   37.778452  35.152343  1.67492
18437 1   39.001201  35.874342  1.67492
18438 1   36.569597  33.010411  1.67492
18439 1   35.332952  33.708344  1.67492
18440 1   35.319057  35.128276  1.67492
18441 1   36.541807  35.850276  1.67492
18442 1   34.110202  32.986345  1.67492
18443 1   32.873558  33.684278  1.67492
18444 1   32.859663  35.104210  1.67492
18445 1   34.082413  35.826209  1.67492
18446 1   31.650808  32.962278  1.67492
18447 1   30.414163  33.660211  1.67492
18448 1   30.400269  35.080143  1.67492
18449 1   31.623018  35.802142  1.67492
18450 1   29.191414  32.938212  1.67492
18451 1   27.954769  33.636144  1.67492
18452 1   27.940874  35.056076  1.67492
18453 1   29.163624  35.778076  1.67492
18454 1   26.732019  32.914145  1.67492
18455 1   25.495375  33.612078  1.67492
18456 1   25.481480  35.032010  1.67492
18457 1   26.704229  35.754009  1.67492
18458 1   24.272625  32.890078  1.67492
18459 1   23.035980  33.588011  1.67492
18460 1   23.022085  35.007943  1.67492
18461 1   24.244835  35.729942  1.67492
18462 1   21.813230  32.866012  1.67492
18463 1   20.576586  33.563944  1.67492
18464 1   20.562691  34.983876  1.67492
18465 1   21.785441  35.705876  1.67492
18466 1   19.353836  32.841945  1.67492
18467 1   18.117191  33.539878  1.67492
18468 1   18.103297  34.959810  1.67492
18469 1   19.326046  35.681809  1.67492
18470 1   16.894442  32.817878  1.67492
18471 1   15.657797  33.515811  1.67492
18472 1   15.643902  34.935743  1.67492
18473 1   16.866652  35.657742  1.67492
18474 1   14.435047  32.793812  1.67492
18475 1   13.198403  33.491744  1.67492
18476 1   13.184508  34.911676  1.67492
18477 1   14.407258  35.633676  1.67492
18478 1   11.975653  32.769745  1.67492
18479 1   10.739008  33.467678  1.67492
18480 1   10.725113  34.887610  1.67492
18481 1   11.947863  35.609609  1.67492
18482 1    9.516258  32.745678  1.67492
18483 1    8.279614  33.443611  1.67492
18484 1    8.265719  34.863543  1.67492
18485 1    9.488469  35.585542  1.67492
18486 1    7.056864  32.721612  1.67492
18487 1    5.820219  33.419544  1.67492
18488 1    5.806325  34.839476  1.67492
18489 1    7.029074  35.561476  1.67492
18490 1    4.597470  32.697545  1.67492
18491 1    3.360825  33.395478  1.67492
18492 1    3.346930  34.815410  1.67492
18493 1    4.569680  35.537409  1.67492
18494 1    2.138075  32.673478  1.67492
18495 1    0.901431  33.371411  1.67492
18496 1    0.887536  34.791343  1.67492
18497 1    2.110286  35.513343  1.67492
18498 1   -0.321319  32.649412  1.67492
18499 1   -1.557964  33.347345  1.67492
18500 1   -1.571859  34.767277  1.67492
18501 1   -0.349109  35.489276  1.67492
18502 1   -2.780713  32.625345  1.67492
18503 1   -4.017358  33.323278  1.67492
18504 1   -4.031253  34.743210  1.67492
18505 1   -2.808503  35.465209  1.67492
18506 1   -5.240108  32.601279  1.67492
18507 1   -6.476753  33.299211  1.67492
18508 1   -6.490647  34.719143  1.67492
18509 1   -5.267898  35.441143  1.67492
18510 1   -7.699502  32.577212  1.67492
18511 1   -8.936147  33.275145  1.67492
18512 1   -8.950042  34.695077  1.67492
18513 1   -7.727292  35.417076  1.67492
18514 1  -10.158897  32.553145  1.67492
18515 1  -11.395541  33.251078  1.67492
18516 1  -11.409436  34.671010  1.67492
18517 1  -10.186686  35.393009  1.67492
18518 1  -12.618291  32.529079  1.67492
18519 1  -13.854936  33.227011  1.67492
18520 1  -13.868831  34.646943  1.67492
18521 1  -12.646081  35.368943  1.67492
18522 1  -15.077685  32.505012  1.67492
18523 1  -16.314330  33.202945  1.67492
18524 1  -16.328225  34.622877  1.67492
18525 1  -15.105475  35.344876  1.67492
18526 1  -17.537080  32.480945  1.67492
18527 1  -18.773725  33.178878  1.67492
18528 1  -18.787619  34.598810  1.67492
18529 1  -17.564870  35.320809  1.67492
18530 1  -19.996474  32.456879  1.67492
18531 1  -21.233119  33.154811  1.67492
18532 1  -21.247014  34.574743  1.67492
18533 1  -20.024264  35.296743  1.67492
18534 1  -22.455869  32.432812  1.67492
18535 1  -23.692513  33.130745  1.67492
18536 1  -23.706408  34.550677  1.67492
18537 1  -22.483658  35.272676  1.67492
18538 1  -24.915263  32.408745  1.67492
18539 1  -26.151908  33.106678  1.67492
18540 1  -26.165803  34.526610  1.67492
18541 1  -24.943053  35.248609  1.67492
18542 1  -27.374657  32.384679  1.67492
18543 1  -28.611302  33.082611  1.67492
18544 1  -28.625197  34.502543  1.67492
18545 1  -27.402447  35.224543  1.67492
18546 1  -29.834052  32.360612  1.67492
18547 1  -31.070696  33.058545  1.67492
18548 1  -31.084591  34.478477  1.67492
18549 1  -29.861842  35.200476  1.67492
18550 1  -32.293446  32.336545  1.67492
18551 1  -33.530091  33.034478  1.67492
18552 1  -33.543986  34.454410  1.67492
18553 1  -32.321236  35.176409  1.67492
18554 1  -34.752841  32.312479  1.67492
18555 1  -35.989485  33.010411  1.67492
18556 1  -36.003380  34.430344  1.67492
18557 1  -34.780630  35.152343  1.67492
18558 1  -37.212235  32.288412  1.67492
18559 1  -38.448880  32.986345  1.67492
18560 1  -38.462775  34.406277  1.67492
18561 1  -37.240025  35.128276  1.67492
18562 1  -39.671629  32.264346  1.67492
18563 1  -40.908274  32.962278  1.67492
18564 1  -40.922169  34.382210  1.67492
18565 1  -39.699419  35.104210  1.67492
18566 1  -42.131024  32.240279  1.67492
18567 1  -43.367668  32.938212  1.67492
18568 1  -43.381563  34.358144  1.67492
18569 1  -42.158814  35.080143  1.67492
18570 1  -44.590418  32.216212  1.67492
18571 1  -45.827063  32.914145  1.67492
18572 1  -45.840958  34.334077  1.67492
18573 1  -44.618208  35.056076  1.67492
18574 1  -47.049813  32.192146  1.67492
18575 1  -48.286457  32.890078  1.67492
18576 1  -48.300352  34.310010  1.67492
18577 1  -47.077602  35.032010  1.67492
18578 1  -49.509207  32.168079  1.67492
18579 1  -50.745852  32.866012  1.67492
18580 1  -50.759747  34.285944  1.67492
18581 1  -49.536997  35.007943  1.67492
18582 1  -51.968601  32.144012  1.67492
18583 1  -53.205246  32.841945  1.67492
18584 1  -53.219141  34.261877  1.67492
18585 1  -51.996391  34.983876  1.67492
18586 1  -54.427996  32.119946  1.67492
18587 1  -55.664640  32.817878  1.67492
18588 1  -55.678535  34.237810  1.67492
18589 1  -54.455786  34.959810  1.67492
18590 1  -56.887390  32.095879  1.67492
18591 1  -58.124035  32.793812  1.67492
18592 1  -58.137930  34.213744  1.67492
18593 1  -56.915180  34.935743  1.67492
18594 1  -59.346785  32.071812  1.67492
18595 1  -60.583429  32.769745  1.67492
18596 1  -60.597324  34.189677  1.67492
18597 1  -59.374574  34.911676  1.67492
18598 1  -61.806179  32.047746  1.67492
18599 1  -63.042824  32.745678  1.67492
18600 1  -63.056719  34.165610  1.67492
18601 1  -61.833969  34.887610  1.67492
18602 1  -64.265573  32.023679  1.67492
18603 1  -65.502218  32.721612  1.67492
18604 1  -65.516113  34.141544  1.67492
18605 1  -64.293363  34.863543  1.67492
18606 1  -66.724968  31.999612  1.67492
18607 1  -67.961612  32.697545  1.67492
18608 1  -67.975507  34.117477  1.67492
18609 1  -66.752758  34.839476  1.67492
18610 1  -69.184362  31.975546  1.67492
18611 1  -70.421007  32.673478  1.67492
18612 1  -70.434902  34.093410  1.67492
18613 1  -69.212152  34.815410  1.67492
18614 1  -71.643757  31.951479  1.67492
18615 1  -72.880401  32.649412  1.67492
18616 1  -72.894296  34.069344  1.67492
18617 1  -71.671546  34.791343  1.67492
18618 1  -74.103151  31.927412  1.67492
18619 1  -75.339796  32.625345  1.67492
18620 1  -75.353691  34.045277  1.67492
18621 1  -74.130941  34.767277  1.67492
18622 1  -76.562545  31.903346  1.67492
18623 1  -77.799190  32.601279  1.67492
18624 1  -77.813085  34.021211  1.67492
18625 1  -76.590335  34.743210  1.67492
18626 1  -79.021940  31.879279  1.67492
18627 1  -80.258584  32.577212  1.67492
18628 1  -80.272479  33.997144  1.67492
18629 1  -79.049730  34.719143  1.67492
18630 1  -81.481334  31.855213  1.67492
18631 1  -82.717979  32.553145  1.67492
18632 1  -82.731874  33.973077  1.67492
18633 1  -81.509124  34.695077  1.67492
18634 1  -83.940729  31.831146  1.67492
18635 1  -85.177373  32.529079  1.67492
18636 1  -85.191268  33.949011  1.67492
18637 1  -83.968518  34.671010  1.67492
18638 1  -86.400123  31.807079  1.67492
18639 1  -87.636768  32.505012  1.67492
18640 1  -87.650662  33.924944  1.67492
18641 1  -86.427913  34.646943  1.67492
18642 1  -88.859517  31.783013  1.67492
18643 1  -90.096162  32.480945  1.67492
18644 1  -90.110057  33.900877  1.67492
18645 1  -88.887307  34.622877  1.67492
18646 1  -91.318912  31.758946  1.67492
18647 1  -92.555556  32.456879  1.67492
18648 1  -92.569451  33.876811  1.67492
18649 1  -91.346702  34.598810  1.67492
18650 1  -93.778306  31.734879  1.67492
18651 1  -95.014951  32.432812  1.67492
18652 1  -95.028846  33.852744  1.67492
18653 1  -93.806096  34.574743  1.67492
18654 1  -96.237701  31.710813  1.67492
18655 1  -97.474345  32.408745  1.67492
18656 1  -97.488240  33.828677  1.67492
18657 1  -96.265490  34.550677  1.67492
18658 1  -98.697095  31.686746  1.67492
18659 1  -99.933740  32.384679  1.67492
18660 1  -99.947634  33.804611  1.67492
18661 1  -98.724885  34.526610  1.67492
18662 1 -101.156489  31.662679  1.67492
18663 1 -102.393134  32.360612  1.67492
18664 1 -102.407029  33.780544  1.67492
18665 1 -101.184279  34.502543  1.67492
18666 1 -103.615884  31.638613  1.67492
18667 1 -104.852528  32.336545  1.67492
18668 1 -104.866423  33.756477  1.67492
18669 1 -103.643674  34.478477  1.67492
18670 1 -106.075278  31.614546  1.67492
18671 1 -107.311923  32.312479  1.67492
18672 1 -107.325818  33.732411  1.67492
18673 1 -106.103068  34.454410  1.67492
18674 1 -108.534673  31.590479  1.67492
18675 1 -108.562462  34.430344  1.67492
18676 1  107.850350  37.968140  1.67492
18677 1  106.613705  38.666073  1.67492
18678 1  106.599810  40.086005  1.67492
18679 1  107.822560  40.808004  1.67492
18680 1  105.390955  37.944074  1.67492
18681 1  104.154311  38.642006  1.67492
18682 1  104.140416  40.061938  1.67492
18683 1  105.363166  40.783938  1.67492
18684 1  102.931561  37.920007  1.67492
18685 1  101.694916  38.617940  1.67492
18686 1  101.681021  40.037872  1.67492
18687 1  102.903771  40.759871  1.67492
18688 1  100.472166  37.895940  1.67492
18689 1   99.235522  38.593873  1.67492
18690 1   99.221627  40.013805  1.67492
18691 1  100.444377  40.735804  1.67492
18692 1   98.012772  37.871874  1.67492
18693 1   96.776127  38.569806  1.67492
18694 1   96.762233  39.989738  1.67492
18695 1   97.984982  40.711738  1.67492
18696 1   95.553378  37.847807  1.67492
18697 1   94.316733  38.545740  1.67492
18698 1   94.302838  39.965672  1.67492
18699 1   95.525588  40.687671  1.67492
18700 1   93.093983  37.823740  1.67492
18701 1   91.857339  38.521673  1.67492
18702 1   91.843444  39.941605  1.67492
18703 1   93.066194  40.663604  1.67492
18704 1   90.634589  37.799674  1.67492
18705 1   89.397944  38.497606  1.67492
18706 1   89.384049  39.917538  1.67492
18707 1   90.606799  40.639538  1.67492
18708 1   88.175195  37.775607  1.67492
18709 1   86.938550  38.473540  1.67492
18710 1   86.924655  39.893472  1.67492
18711 1   88.147405  40.615471  1.67492
18712 1   85.715800  37.751540  1.67492
18713 1   84.479155  38.449473  1.67492
18714 1   84.465261  39.869405  1.67492
18715 1   85.688010  40.591404  1.67492
18716 1   83.256406  37.727474  1.67492
18717 1   82.019761  38.425406  1.67492
18718 1   82.005866  39.845338  1.67492
18719 1   83.228616  40.567338  1.67492
18720 1   80.797011  37.703407  1.67492
18721 1   79.560367  38.401340  1.67492
18722 1   79.546472  39.821272  1.67492
18723 1   80.769222  40.543271  1.67492
18724 1   78.337617  37.679340  1.67492
18725 1   77.100972  38.377273  1.67492
18726 1   77.087077  39.797205  1.67492
18727 1   78.309827  40.519205  1.67492
18728 1   75.878223  37.655274  1.67492
18729 1   74.641578  38.353207  1.67492
18730 1   74.627683  39.773139  1.67492
18731 1   75.850433  40.495138  1.67492
18732 1   73.418828  37.631207  1.67492
18733 1   72.182183  38.329140  1.67492
18734 1   72.168289  39.749072  1.67492
18735 1   73.391038  40.471071  1.67492
18736 1   70.959434  37.607141  1.67492
18737 1   69.722789  38.305073  1.67492
18738 1   69.708894  39.725005  1.67492
18739 1   70.931644  40.447005  1.67492
18740 1   68.500039  37.583074  1.67492
18741 1   67.263395  38.281007  1.67492
18742 1   67.249500  39.700939  1.67492
18743 1   68.472250  40.422938  1.67492
18744 1   66.040645  37.559007  1.67492
18745 1   64.804000  38.256940  1.67492
18746 1   64.790105  39.676872  1.67492
18747 1   66.012855  40.398871  1.67492
18748 1   63.581251  37.534941  1.67492
18749 1   62.344606  38.232873  1.67492
18750 1   62.330711  39.652805  1.67492
18751 1   63.553461  40.374805  1.67492
18752 1   61.121856  37.510874  1.67492
18753 1   59.885212  38.208807  1.67492
18754 1   59.871317  39.628739  1.67492
18755 1   61.094066  40.350738  1.67492
18756 1   58.662462  37.486807  1.67492
18757 1   57.425817  38.184740  1.67492
18758 1   57.411922  39.604672  1.67492
18759 1   58.634672  40.326671  1.67492
18760 1   56.203067  37.462741  1.67492
18761 1   54.966423  38.160673  1.67492
18762 1   54.952528  39.580605  1.67492
18763 1   56.175278  40.302605  1.67492
18764 1   53.743673  37.438674  1.67492
18765 1   52.507028  38.136607  1.67492
18766 1   52.493133  39.556539  1.67492
18767 1   53.715883  40.278538  1.67492
18768 1   51.284279  37.414607  1.67492
18769 1   50.047634  38.112540  1.67492
18770 1   50.033739  39.532472  1.67492
18771 1   51.256489  40.254471  1.67492
18772 1   48.824884  37.390541  1.67492
18773 1   47.588240  38.088473  1.67492
18774 1   47.574345  39.508405  1.67492
18775 1   48.797094  40.230405  1.67492
18776 1   46.365490  37.366474  1.67492
18777 1   45.128845  38.064407  1.67492
18778 1   45.114950  39.484339  1.67492
18779 1   46.337700  40.206338  1.67492
18780 1   43.906095  37.342407  1.67492
18781 1   42.669451  38.040340  1.67492
18782 1   42.655556  39.460272  1.67492
18783 1   43.878306  40.182272  1.67492
18784 1   41.446701  37.318341  1.67492
18785 1   40.210056  38.016274  1.67492
18786 1   40.196161  39.436206  1.67492
18787 1   41.418911  40.158205  1.67492
18788 1   38.987307  37.294274  1.67492
18789 1   37.750662  37.992207  1.67492
18790 1   37.736767  39.412139  1.67492
18791 1   38.959517  40.134138  1.67492
18792 1   36.527912  37.270208  1.67492
18793 1   35.291268  37.968140  1.67492
18794 1   35.277373  39.388072  1.67492
18795 1   36.500122  40.110072  1.67492
18796 1   34.068518  37.246141  1.67492
18797 1   32.831873  37.944074  1.67492
18798 1   32.817978  39.364006  1.67492
18799 1   34.040728  40.086005  1.67492
18800 1   31.609123  37.222074  1.67492
18801 1   30.372479  37.920007  1.67492
18802 1   30.358584  39.339939  1.67492
18803 1   31.581334  40.061938  1.67492
18804 1   29.149729  37.198008  1.67492
18805 1   27.913084  37.895940  1.67492
18806 1   27.899189  39.315872  1.67492
18807 1   29.121939  40.037872  1.67492
18808 1   26.690335  37.173941  1.67492
18809 1   25.453690  37.871874  1.67492
18810 1   25.439795  39.291806  1.67492
18811 1   26.662545  40.013805  1.67492
18812 1   24.230940  37.149874  1.67492
18813 1   22.994296  37.847807  1.67492
18814 1   22.980401  39.267739  1.67492
18815 1   24.203150  39.989738  1.67492
18816 1   21.771546  37.125808  1.67492
18817 1   20.534901  37.823740  1.67492
18818 1   20.521006  39.243672  1.67492
18819 1   21.743756  39.965672  1.67492
18820 1   19.312151  37.101741  1.67492
18821 1   18.075507  37.799674  1.67492
18822 1   18.061612  39.219606  1.67492
18823 1   19.284362  39.941605  1.67492
18824 1   16.852757  37.077674  1.67492
18825 1   15.616112  37.775607  1.67492
18826 1   15.602217  39.195539  1.67492
18827 1   16.824967  39.917538  1.67492
18828 1   14.393363  37.053608  1.67492
18829 1   13.156718  37.751540  1.67492
18830 1   13.142823  39.171472  1.67492
18831 1   14.365573  39.893472  1.67492
18832 1   11.933968  37.029541  1.67492
18833 1   10.697324  37.727474  1.67492
18834 1   10.683429  39.147406  1.67492
18835 1   11.906178  39.869405  1.67492
18836 1    9.474574  37.005474  1.67492
18837 1    8.237929  37.703407  1.67492
18838 1    8.224034  39.123339  1.67492
18839 1    9.446784  39.845338  1.67492
18840 1    7.015179  36.981408  1.67492
18841 1    5.778535  37.679340  1.67492
18842 1    5.764640  39.099273  1.67492
18843 1    6.987390  39.821272  1.67492
18844 1    4.555785  36.957341  1.67492
18845 1    3.319140  37.655274  1.67492
18846 1    3.305246  39.075206  1.67492
18847 1    4.527995  39.797205  1.67492
18848 1    2.096391  36.933275  1.67492
18849 1    0.859746  37.631207  1.67492
18850 1    0.845851  39.051139  1.67492
18851 1    2.068601  39.773139  1.67492
18852 1   -0.363004  36.909208  1.67492
18853 1   -1.599648  37.607141  1.67492
18854 1   -1.613543  39.027073  1.67492
18855 1   -0.390794  39.749072  1.67492
18856 1   -2.822398  36.885141  1.67492
18857 1   -4.059043  37.583074  1.67492
18858 1   -4.072938  39.003006  1.67492
18859 1   -2.850188  39.725005  1.67492
18860 1   -5.281793  36.861075  1.67492
18861 1   -6.518437  37.559007  1.67492
18862 1   -6.532332  38.978939  1.67492
18863 1   -5.309582  39.700939  1.67492
18864 1   -7.741187  36.837008  1.67492
18865 1   -8.977832  37.534941  1.67492
18866 1   -8.991726  38.954873  1.67492
18867 1   -7.768977  39.676872  1.67492
18868 1  -10.200581  36.812941  1.67492
18869 1  -11.437226  37.510874  1.67492
18870 1  -11.451121  38.930806  1.67492
18871 1  -10.228371  39.652805  1.67492
18872 1  -12.659976  36.788875  1.67492
18873 1  -13.896620  37.486807  1.67492
18874 1  -13.910515  38.906739  1.67492
18875 1  -12.687765  39.628739  1.67492
18876 1  -15.119370  36.764808  1.67492
18877 1  -16.356015  37.462741  1.67492
18878 1  -16.369910  38.882673  1.67492
18879 1  -15.147160  39.604672  1.67492
18880 1  -17.578765  36.740741  1.67492
18881 1  -18.815409  37.438674  1.67492
18882 1  -18.829304  38.858606  1.67492
18883 1  -17.606554  39.580605  1.67492
18884 1  -20.038159  36.716675  1.67492
18885 1  -21.274804  37.414607  1.67492
18886 1  -21.288698  38.834539  1.67492
18887 1  -20.065949  39.556539  1.67492
18888 1  -22.497553  36.692608  1.67492
18889 1  -23.734198  37.390541  1.67492
18890 1  -23.748093  38.810473  1.67492
18891 1  -22.525343  39.532472  1.67492
18892 1  -24.956948  36.668541  1.67492
18893 1  -26.193592  37.366474  1.67492
18894 1  -26.207487  38.786406  1.67492
18895 1  -24.984737  39.508405  1.67492
18896 1  -27.416342  36.644475  1.67492
18897 1  -28.652987  37.342407  1.67492
18898 1  -28.666882  38.762339  1.67492
18899 1  -27.444132  39.484339  1.67492
18900 1  -29.875737  36.620408  1.67492
18901 1  -31.112381  37.318341  1.67492
18902 1  -31.126276  38.738273  1.67492
18903 1  -29.903526  39.460272  1.67492
18904 1  -32.335131  36.596341  1.67492
18905 1  -33.571776  37.294274  1.67492
18906 1  -33.585670  38.714206  1.67492
18907 1  -32.362921  39.436206  1.67492
18908 1  -34.794525  36.572275  1.67492
18909 1  -36.031170  37.270208  1.67492
18910 1  -36.045065  38.690140  1.67492
18911 1  -34.822315  39.412139  1.67492
18912 1  -37.253920  36.548208  1.67492
18913 1  -38.490564  37.246141  1.67492
18914 1  -38.504459  38.666073  1.67492
18915 1  -37.281709  39.388072  1.67492
18916 1  -39.713314  36.524142  1.67492
18917 1  -40.949959  37.222074  1.67492
18918 1  -40.963854  38.642006  1.67492
18919 1  -39.741104  39.364006  1.67492
18920 1  -42.172708  36.500075  1.67492
18921 1  -43.409353  37.198008  1.67492
18922 1  -43.423248  38.617940  1.67492
18923 1  -42.200498  39.339939  1.67492
18924 1  -44.632103  36.476008  1.67492
18925 1  -45.868748  37.173941  1.67492
18926 1  -45.882642  38.593873  1.67492
18927 1  -44.659893  39.315872  1.67492
18928 1  -47.091497  36.451942  1.67492
18929 1  -48.328142  37.149874  1.67492
18930 1  -48.342037  38.569806  1.67492
18931 1  -47.119287  39.291806  1.67492
18932 1  -49.550892  36.427875  1.67492
18933 1  -50.787536  37.125808  1.67492
18934 1  -50.801431  38.545740  1.67492
18935 1  -49.578681  39.267739  1.67492
18936 1  -52.010286  36.403808  1.67492
18937 1  -53.246931  37.101741  1.67492
18938 1  -53.260826  38.521673  1.67492
18939 1  -52.038076  39.243672  1.67492
18940 1  -54.469680  36.379742  1.67492
18941 1  -55.706325  37.077674  1.67492
18942 1  -55.720220  38.497606  1.67492
18943 1  -54.497470  39.219606  1.67492
18944 1  -56.929075  36.355675  1.67492
18945 1  -58.165720  37.053608  1.67492
18946 1  -58.179614  38.473540  1.67492
18947 1  -56.956865  39.195539  1.67492
18948 1  -59.388469  36.331608  1.67492
18949 1  -60.625114  37.029541  1.67492
18950 1  -60.639009  38.449473  1.67492
18951 1  -59.416259  39.171472  1.67492
18952 1  -61.847864  36.307542  1.67492
18953 1  -63.084508  37.005474  1.67492
18954 1  -63.098403  38.425406  1.67492
18955 1  -61.875653  39.147406  1.67492
18956 1  -64.307258  36.283475  1.67492
18957 1  -65.543903  36.981408  1.67492
18958 1  -65.557798  38.401340  1.67492
18959 1  -64.335048  39.123339  1.67492
18960 1  -66.766652  36.259408  1.67492
18961 1  -68.003297  36.957341  1.67492
18962 1  -68.017192  38.377273  1.67492
18963 1  -66.794442  39.099273  1.67492
18964 1  -69.226047  36.235342  1.67492
18965 1  -70.462691  36.933275  1.67492
18966 1  -70.476586  38.353207  1.67492
18967 1  -69.253837  39.075206  1.67492
18968 1  -71.685441  36.211275  1.67492
18969 1  -72.922086  36.909208  1.67492
18970 1  -72.935981  38.329140  1.67492
18971 1  -71.713231  39.051139  1.67492
18972 1  -74.144836  36.187209  1.67492
18973 1  -75.381480  36.885141  1.67492
18974 1  -75.395375  38.305073  1.67492
18975 1  -74.172625  39.027073  1.67492
18976 1  -76.604230  36.163142  1.67492
18977 1  -77.840875  36.861075  1.67492
18978 1  -77.854770  38.281007  1.67492
18979 1  -76.632020  39.003006  1.67492
18980 1  -79.063624  36.139075  1.67492
18981 1  -80.300269  36.837008  1.67492
18982 1  -80.314164  38.256940  1.67492
18983 1  -79.091414  38.978939  1.67492
18984 1  -81.523019  36.115009  1.67492
18985 1  -82.759663  36.812941  1.67492
18986 1  -82.773558  38.232873  1.67492
18987 1  -81.550809  38.954873  1.67492
18988 1  -83.982413  36.090942  1.67492
18989 1  -85.219058  36.788875  1.67492
18990 1  -85.232953  38.208807  1.67492
18991 1  -84.010203  38.930806  1.67492
18992 1  -86.441808  36.066875  1.67492
18993 1  -87.678452  36.764808  1.67492
18994 1  -87.692347  38.184740  1.67492
18995 1  -86.469597  38.906739  1.67492
18996 1  -88.901202  36.042809  1.67492
18997 1  -90.137847  36.740741  1.67492
18998 1  -90.151742  38.160673  1.67492
18999 1  -88.928992  38.882673  1.67492
19000 1  -91.360596  36.018742  1.67492
19001 1  -92.597241  36.716675  1.67492
19002 1  -92.611136  38.136607  1.67492
19003 1  -91.388386  38.858606  1.67492
19004 1  -93.819991  35.994675  1.67492
19005 1  -95.056635  36.692608  1.67492
19006 1  -95.070530  38.112540  1.67492
19007 1  -93.847781  38.834539  1.67492
19008 1  -96.279385  35.970609  1.67492
19009 1  -97.516030  36.668541  1.67492
19010 1  -97.529925  38.088473  1.67492
19011 1  -96.307175  38.810473  1.67492
19012 1  -98.738780  35.946542  1.67492
19013 1  -99.975424  36.644475  1.67492
19014 1  -99.989319  38.064407  1.67492
19015 1  -98.766569  38.786406  1.67492
19016 1 -101.198174  35.922475  1.67492
19017 1 -102.434819  36.620408  1.67492
19018 1 -102.448714  38.040340  1.67492
19019 1 -101.225964  38.762339  1.67492
19020 1 -103.657568  35.898409  1.67492
19021 1 -104.894213  36.596341  1.67492
19022 1 -104.908108  38.016274  1.67492
19023 1 -103.685358  38.738273  1.67492
19024 1 -106.116963  35.874342  1.67492
19025 1 -107.353607  36.572275  1.67492
19026 1 -107.367502  37.992207  1.67492
19027 1 -106.144753  38.714206  1.67492
19028 1 -108.576357  35.850276  1.67492
19029 1 -108.604147  38.690140  1.67492
19030 1  107.808665  42.227936  1.67492
19031 1  106.572020  42.925869  1.67492
19032 1  106.558126  44.345801  1.67492
19033 1  107.780875  45.067800  1.67492
19034 1  105.349271  42.203870  1.67492
19035 1  104.112626  42.901802  1.67492
19036 1  104.098731  44.321734  1.67492
19037 1  105.321481  45.043734  1.67492
19038 1  102.889876  42.179803  1.67492
19039 1  101.653232  42.877736  1.67492
19040 1  101.639337  44.297668  1.67492
19041 1  102.862086  45.019667  1.67492
19042 1  100.430482  42.155736  1.67492
19043 1   99.193837  42.853669  1.67492
19044 1   99.179942  44.273601  1.67492
19045 1  100.402692  44.995600  1.67492
19046 1   97.971087  42.131670  1.67492
19047 1   96.734443  42.829602  1.67492
19048 1   96.720548  44.249534  1.67492
19049 1   97.943298  44.971534  1.67492
19050 1   95.511693  42.107603  1.67492
19051 1   94.275048  42.805536  1.67492
19052 1   94.261154  44.225468  1.67492
19053 1   95.483903  44.947467  1.67492
19054 1   93.052299  42.083536  1.67492
19055 1   91.815654  42.781469  1.67492
19056 1   91.801759  44.201401  1.67492
19057 1   93.024509  44.923400  1.67492
19058 1   90.592904  42.059470  1.67492
19059 1   89.356260  42.757402  1.67492
19060 1   89.342365  44.177334  1.67492
19061 1   90.565114  44.899334  1.67492
19062 1   88.133510  42.035403  1.67492
19063 1   86.896865  42.733336  1.67492
19064 1   86.882970  44.153268  1.67492
19065 1   88.105720  44.875267  1.67492
19066 1   85.674115  42.011336  1.67492
19067 1   84.437471  42.709269  1.67492
19068 1   84.423576  44.129201  1.67492
19069 1   85.646326  44.851201  1.67492
19070 1   83.214721  41.987270  1.67492
19071 1   81.978076  42.685203  1.67492
19072 1   81.964182  44.105135  1.67492
19073 1   83.186931  44.827134  1.67492
19074 1   80.755327  41.963203  1.67492
19075 1   79.518682  42.661136  1.67492
19076 1   79.504787  44.081068  1.67492
19077 1   80.727537  44.803067  1.67492
19078 1   78.295932  41.939137  1.67492
19079 1   77.059288  42.637069  1.67492
19080 1   77.045393  44.057001  1.67492
19081 1   78.268143  44.779001  1.67492
19082 1   75.836538  41.915070  1.67492
19083 1   74.599893  42.613003  1.67492
19084 1   74.585998  44.032935  1.67492
19085 1   75.808748  44.754934  1.67492
19086 1   73.377143  41.891003  1.67492
19087 1   72.140499  42.588936  1.67492
19088 1   72.126604  44.008868  1.67492
19089 1   73.349354  44.730867  1.67492
19090 1   70.917749  41.866937  1.67492
19091 1   69.681104  42.564869  1.67492
19092 1   69.667210  43.984801  1.67492
19093 1   70.889959  44.706801  1.67492
19094 1   68.458355  41.842870  1.67492
19095 1   67.221710  42.540803  1.67492
19096 1   67.207815  43.960735  1.67492
19097 1   68.430565  44.682734  1.67492
19098 1   65.998960  41.818803  1.67492
19099 1   64.762316  42.516736  1.67492
19100 1   64.748421  43.936668  1.67492
19101 1   65.971171  44.658667  1.67492
19102 1   63.539566  41.794737  1.67492
19103 1   62.302921  42.492669  1.67492
19104 1   62.289026  43.912601  1.67492
19105 1   63.511776  44.634601  1.67492
19106 1   61.080172  41.770670  1.67492
19107 1   59.843527  42.468603  1.67492
19108 1   59.829632  43.888535  1.67492
19109 1   61.052382  44.610534  1.67492
19110 1   58.620777  41.746603  1.67492
19111 1   57.384132  42.444536  1.67492
19112 1   57.370238  43.864468  1.67492
19113 1   58.592987  44.586467  1.67492
19114 1   56.161383  41.722537  1.67492
19115 1   54.924738  42.420469  1.67492
19116 1   54.910843  43.840401  1.67492
19117 1   56.133593  44.562401  1.67492
19118 1   53.701988  41.698470  1.67492
19119 1   52.465344  42.396403  1.67492
19120 1   52.451449  43.816335  1.67492
19121 1   53.674199  44.538334  1.67492
19122 1   51.242594  41.674403  1.67492
19123 1   50.005949  42.372336  1.67492
19124 1   49.992054  43.792268  1.67492
19125 1   51.214804  44.514267  1.67492
19126 1   48.783200  41.650337  1.67492
19127 1   47.546555  42.348269  1.67492
19128 1   47.532660  43.768202  1.67492
19129 1   48.755410  44.490201  1.67492
19130 1   46.323805  41.626270  1.67492
19131 1   45.087160  42.324203  1.67492
19132 1   45.073266  43.744135  1.67492
19133 1   46.296015  44.466134  1.67492
19134 1   43.864411  41.602204  1.67492
19135 1   42.627766  42.300136  1.67492
19136 1   42.613871  43.720068  1.67492
19137 1   43.836621  44.442068  1.67492
19138 1   41.405016  41.578137  1.67492
19139 1   40.168372  42.276070  1.67492
19140 1   40.154477  43.696002  1.67492
19141 1   41.377227  44.418001  1.67492
19142 1   38.945622  41.554070  1.67492
19143 1   37.708977  42.252003  1.67492
19144 1   37.695082  43.671935  1.67492
19145 1   38.917832  44.393934  1.67492
19146 1   36.486228  41.530004  1.67492
19147 1   35.249583  42.227936  1.67492
19148 1   35.235688  43.647868  1.67492
19149 1   36.458438  44.369868  1.67492
19150 1   34.026833  41.505937  1.67492
19151 1   32.790189  42.203870  1.67492
19152 1   32.776294  43.623802  1.67492
19153 1   33.999043  44.345801  1.67492
19154 1   31.567439  41.481870  1.67492
19155 1   30.330794  42.179803  1.67492
19156 1   30.316899  43.599735  1.67492
19157 1   31.539649  44.321734  1.67492
19158 1   29.108044  41.457804  1.67492
19159 1   27.871400  42.155736  1.67492
19160 1   27.857505  43.575668  1.67492
19161 1   29.080255  44.297668  1.67492
19162 1   26.648650  41.433737  1.67492
19163 1   25.412005  42.131670  1.67492
19164 1   25.398110  43.551602  1.67492
19165 1   26.620860  44.273601  1.67492
19166 1   24.189256  41.409670  1.67492
19167 1   22.952611  42.107603  1.67492
19168 1   22.938716  43.527535  1.67492
19169 1   24.161466  44.249534  1.67492
19170 1   21.729861  41.385604  1.67492
19171 1   20.493217  42.083536  1.67492
19172 1   20.479322  43.503468  1.67492
19173 1   21.702071  44.225468  1.67492
19174 1   19.270467  41.361537  1.67492
19175 1   18.033822  42.059470  1.67492
19176 1   18.019927  43.479402  1.67492
19177 1   19.242677  44.201401  1.67492
19178 1   16.811072  41.337470  1.67492
19179 1   15.574428  42.035403  1.67492
19180 1   15.560533  43.455335  1.67492
19181 1   16.783283  44.177334  1.67492
19182 1   14.351678  41.313404  1.67492
19183 1   13.115033  42.011336  1.67492
19184 1   13.101138  43.431268  1.67492
19185 1   14.323888  44.153268  1.67492
19186 1   11.892284  41.289337  1.67492
19187 1   10.655639  41.987270  1.67492
19188 1   10.641744  43.407202  1.67492
19189 1   11.864494  44.129201  1.67492
19190 1    9.432889  41.265271  1.67492
19191 1    8.196245  41.963203  1.67492
19192 1    8.182350  43.383135  1.67492
19193 1    9.405099  44.105135  1.67492
19194 1    6.973495  41.241204  1.67492
19195 1    5.736850  41.939137  1.67492
19196 1    5.722955  43.359069  1.67492
19197 1    6.945705  44.081068  1.67492
19198 1    4.514100  41.217137  1.67492
19199 1    3.277456  41.915070  1.67492
19200 1    3.263561  43.335002  1.67492
19201 1    4.486311  44.057001  1.67492
19202 1    2.054706  41.193071  1.67492
19203 1    0.818061  41.891003  1.67492
19204 1    0.804166  43.310935  1.67492
19205 1    2.026916  44.032935  1.67492
19206 1   -0.404688  41.169004  1.67492
19207 1   -1.641333  41.866937  1.67492
19208 1   -1.655228  43.286869  1.67492
19209 1   -0.432478  44.008868  1.67492
19210 1   -2.864083  41.144937  1.67492
19211 1   -4.100727  41.842870  1.67492
19212 1   -4.114622  43.262802  1.67492
19213 1   -2.891873  43.984801  1.67492
19214 1   -5.323477  41.120871  1.67492
19215 1   -6.560122  41.818803  1.67492
19216 1   -6.574017  43.238735  1.67492
19217 1   -5.351267  43.960735  1.67492
19218 1   -7.782872  41.096804  1.67492
19219 1   -9.019516  41.794737  1.67492
19220 1   -9.033411  43.214669  1.67492
19221 1   -7.810661  43.936668  1.67492
19222 1  -10.242266  41.072737  1.67492
19223 1  -11.478911  41.770670  1.67492
19224 1  -11.492806  43.190602  1.67492
19225 1  -10.270056  43.912601  1.67492
19226 1  -12.701660  41.048671  1.67492
19227 1  -13.938305  41.746603  1.67492
19228 1  -13.952200  43.166535  1.67492
19229 1  -12.729450  43.888535  1.67492
19230 1  -15.161055  41.024604  1.67492
19231 1  -16.397699  41.722537  1.67492
19232 1  -16.411594  43.142469  1.67492
19233 1  -15.188845  43.864468  1.67492
19234 1  -17.620449  41.000537  1.67492
19235 1  -18.857094  41.698470  1.67492
19236 1  -18.870989  43.118402  1.67492
19237 1  -17.648239  43.840401  1.67492
19238 1  -20.079844  40.976471  1.67492
19239 1  -21.316488  41.674403  1.67492
19240 1  -21.330383  43.094335  1.67492
19241 1  -20.107633  43.816335  1.67492
19242 1  -22.539238  40.952404  1.67492
19243 1  -23.775883  41.650337  1.67492
19244 1  -23.789777  43.070269  1.67492
19245 1  -22.567028  43.792268  1.67492
19246 1  -24.998632  40.928337  1.67492
19247 1  -26.235277  41.626270  1.67492
19248 1  -26.249172  43.046202  1.67492
19249 1  -25.026422  43.768202  1.67492
19250 1  -27.458027  40.904271  1.67492
19251 1  -28.694671  41.602204  1.67492
19252 1  -28.708566  43.022136  1.67492
19253 1  -27.485817  43.744135  1.67492
19254 1  -29.917421  40.880204  1.67492
19255 1  -31.154066  41.578137  1.67492
19256 1  -31.167961  42.998069  1.67492
19257 1  -29.945211  43.720068  1.67492
19258 1  -32.376816  40.856138  1.67492
19259 1  -33.613460  41.554070  1.67492
19260 1  -33.627355  42.974002  1.67492
19261 1  -32.404605  43.696002  1.67492
19262 1  -34.836210  40.832071  1.67492
19263 1  -36.072855  41.530004  1.67492
19264 1  -36.086749  42.949936  1.67492
19265 1  -34.864000  43.671935  1.67492
19266 1  -37.295604  40.808004  1.67492
19267 1  -38.532249  41.505937  1.67492
19268 1  -38.546144  42.925869  1.67492
19269 1  -37.323394  43.647868  1.67492
19270 1  -39.754999  40.783938  1.67492
19271 1  -40.991643  41.481870  1.67492
19272 1  -41.005538  42.901802  1.67492
19273 1  -39.782789  43.623802  1.67492
19274 1  -42.214393  40.759871  1.67492
19275 1  -43.451038  41.457804  1.67492
19276 1  -43.464933  42.877736  1.67492
19277 1  -42.242183  43.599735  1.67492
19278 1  -44.673788  40.735804  1.67492
19279 1  -45.910432  41.433737  1.67492
19280 1  -45.924327  42.853669  1.67492
19281 1  -44.701577  43.575668  1.67492
19282 1  -47.133182  40.711738  1.67492
19283 1  -48.369827  41.409670  1.67492
19284 1  -48.383721  42.829602  1.67492
19285 1  -47.160972  43.551602  1.67492
19286 1  -49.592576  40.687671  1.67492
19287 1  -50.829221  41.385604  1.67492
19288 1  -50.843116  42.805536  1.67492
19289 1  -49.620366  43.527535  1.67492
19290 1  -52.051971  40.663604  1.67492
19291 1  -53.288615  41.361537  1.67492
19292 1  -53.302510  42.781469  1.67492
19293 1  -52.079760  43.503468  1.67492
19294 1  -54.511365  40.639538  1.67492
19295 1  -55.748010  41.337470  1.67492
19296 1  -55.761905  42.757402  1.67492
19297 1  -54.539155  43.479402  1.67492
19298 1  -56.970760  40.615471  1.67492
19299 1  -58.207404  41.313404  1.67492
19300 1  -58.221299  42.733336  1.67492
19301 1  -56.998549  43.455335  1.67492
19302 1  -59.430154  40.591404  1.67492
19303 1  -60.666799  41.289337  1.67492
19304 1  -60.680693  42.709269  1.67492
19305 1  -59.457944  43.431268  1.67492
19306 1  -61.889548  40.567338  1.67492
19307 1  -63.126193  41.265271  1.67492
19308 1  -63.140088  42.685203  1.67492
19309 1  -61.917338  43.407202  1.67492
19310 1  -64.348943  40.543271  1.67492
19311 1  -65.585587  41.241204  1.67492
19312 1  -65.599482  42.661136  1.67492
19313 1  -64.376732  43.383135  1.67492
19314 1  -66.808337  40.519205  1.67492
19315 1  -68.044982  41.217137  1.67492
19316 1  -68.058877  42.637069  1.67492
19317 1  -66.836127  43.359069  1.67492
19318 1  -69.267731  40.495138  1.67492
19319 1  -70.504376  41.193071  1.67492
19320 1  -70.518271  42.613003  1.67492
19321 1  -69.295521  43.335002  1.67492
19322 1  -71.727126  40.471071  1.67492
19323 1  -72.963771  41.169004  1.67492
19324 1  -72.977665  42.588936  1.67492
19325 1  -71.754916  43.310935  1.67492
19326 1  -74.186520  40.447005  1.67492
19327 1  -75.423165  41.144937  1.67492
19328 1  -75.437060  42.564869  1.67492
19329 1  -74.214310  43.286869  1.67492
19330 1  -76.645915  40.422938  1.67492
19331 1  -77.882559  41.120871  1.67492
19332 1  -77.896454  42.540803  1.67492
19333 1  -76.673704  43.262802  1.67492
19334 1  -79.105309  40.398871  1.67492
19335 1  -80.341954  41.096804  1.67492
19336 1  -80.355849  42.516736  1.67492
19337 1  -79.133099  43.238735  1.67492
19338 1  -81.564703  40.374805  1.67492
19339 1  -82.801348  41.072737  1.67492
19340 1  -82.815243  42.492669  1.67492
19341 1  -81.592493  43.214669  1.67492
19342 1  -84.024098  40.350738  1.67492
19343 1  -85.260743  41.048671  1.67492
19344 1  -85.274637  42.468603  1.67492
19345 1  -84.051888  43.190602  1.67492
19346 1  -86.483492  40.326671  1.67492
19347 1  -87.720137  41.024604  1.67492
19348 1  -87.734032  42.444536  1.67492
19349 1  -86.511282  43.166535  1.67492
19350 1  -88.942887  40.302605  1.67492
19351 1  -90.179531  41.000537  1.67492
19352 1  -90.193426  42.420469  1.67492
19353 1  -88.970676  43.142469  1.67492
19354 1  -91.402281  40.278538  1.67492
19355 1  -92.638926  40.976471  1.67492
19356 1  -92.652821  42.396403  1.67492
19357 1  -91.430071  43.118402  1.67492
19358 1  -93.861675  40.254471  1.67492
19359 1  -95.098320  40.952404  1.67492
19360 1  -95.112215  42.372336  1.67492
19361 1  -93.889465  43.094335  1.67492
19362 1  -96.321070  40.230405  1.67492
19363 1  -97.557714  40.928337  1.67492
19364 1  -97.571609  42.348269  1.67492
19365 1  -96.348860  43.070269  1.67492
19366 1  -98.780464  40.206338  1.67492
19367 1 -100.017109  40.904271  1.67492
19368 1 -100.031004  42.324203  1.67492
19369 1  -98.808254  43.046202  1.67492
19370 1 -101.239859  40.182272  1.67492
19371 1 -102.476503  40.880204  1.67492
19372 1 -102.490398  42.300136  1.67492
19373 1 -101.267648  43.022136  1.67492
19374 1 -103.699253  40.158205  1.67492
19375 1 -104.935898  40.856138  1.67492
19376 1 -104.949793  42.276070  1.67492
19377 1 -103.727043  42.998069  1.67492
19378 1 -106.158647  40.134138  1.67492
19379 1 -107.395292  40.832071  1.67492
19380 1 -107.409187  42.252003  1.67492
19381 1 -106.186437  42.974002  1.67492
19382 1 -108.618042  40.110072  1.67492
19383 1 -108.645832  42.949936  1.67492
19384 1  107.766980  46.487732  1.67492
19385 1  106.530336  47.185665  1.67492
19386 1  106.516441  48.605597  1.67492
19387 1  107.739191  49.327596  1.67492
19388 1  105.307586  46.463666  1.67492
19389 1  104.070941  47.161598  1.67492
19390 1  104.057046  48.581530  1.67492
19391 1  105.279796  49.303530  1.67492
19392 1  102.848192  46.439599  1.67492
19393 1  101.611547  47.137532  1.67492
19394 1  101.597652  48.557464  1.67492
19395 1  102.820402  49.279463  1.67492
19396 1  100.388797  46.415532  1.67492
19397 1   99.152153  47.113465  1.67492
19398 1   99.138258  48.533397  1.67492
19399 1  100.361007  49.255396  1.67492
19400 1   97.929403  46.391466  1.67492
19401 1   96.692758  47.089398  1.67492
19402 1   96.678863  48.509330  1.67492
19403 1   97.901613  49.231330  1.67492
19404 1   95.470008  46.367399  1.67492
19405 1   94.233364  47.065332  1.67492
19406 1   94.219469  48.485264  1.67492
19407 1   95.442219  49.207263  1.67492
19408 1   93.010614  46.343332  1.67492
19409 1   91.773969  47.041265  1.67492
19410 1   91.760074  48.461197  1.67492
19411 1   92.982824  49.183196  1.67492
19412 1   90.551220  46.319266  1.67492
19413 1   89.314575  47.017199  1.67492
19414 1   89.300680  48.437131  1.67492
19415 1   90.523430  49.159130  1.67492
19416 1   88.091825  46.295199  1.67492
19417 1   86.855181  46.993132  1.67492
19418 1   86.841286  48.413064  1.67492
19419 1   88.064035  49.135063  1.67492
19420 1   85.632431  46.271133  1.67492
19421 1   84.395786  46.969065  1.67492
19422 1   84.381891  48.388997  1.67492
19423 1   85.604641  49.110997  1.67492
19424 1   83.173036  46.247066  1.67492
19425 1   81.936392  46.944999  1.67492
19426 1   81.922497  48.364931  1.67492
19427 1   83.145247  49.086930  1.67492
19428 1   80.713642  46.222999  1.67492
19429 1   79.476997  46.920932  1.67492
19430 1   79.463103  48.340864  1.67492
19431 1   80.685852  49.062863  1.67492
19432 1   78.254248  46.198933  1.67492
19433 1   77.017603  46.896865  1.67492
19434 1   77.003708  48.316797  1.67492
19435 1   78.226458  49.038797  1.67492
19436 1   75.794853  46.174866  1.67492
19437 1   74.558209  46.872799  1.67492
19438 1   74.544314  48.292731  1.67492
19439 1   75.767063  49.014730  1.67492
19440 1   73.335459  46.150799  1.67492
19441 1   72.098814  46.848732  1.67492
19442 1   72.084919  48.268664  1.67492
19443 1   73.307669  48.990663  1.67492
19444 1   70.876064  46.126733  1.67492
19445 1   69.639420  46.824665  1.67492
19446 1   69.625525  48.244597  1.67492
19447 1   70.848275  48.966597  1.67492
19448 1   68.416670  46.102666  1.67492
19449 1   67.180025  46.800599  1.67492
19450 1   67.166131  48.220531  1.67492
19451 1   68.388880  48.942530  1.67492
19452 1   65.957276  46.078599  1.67492
19453 1   64.720631  46.776532  1.67492
19454 1   64.706736  48.196464  1.67492
19455 1   65.929486  48.918463  1.67492
19456 1   63.497881  46.054533  1.67492
19457 1   62.261237  46.752465  1.67492
19458 1   62.247342  48.172397  1.67492
19459 1   63.470091  48.894397  1.67492
19460 1   61.038487  46.030466  1.67492
19461 1   59.801842  46.728399  1.67492
19462 1   59.787947  48.148331  1.67492
19463 1   61.010697  48.870330  1.67492
19464 1   58.579092  46.006399  1.67492
19465 1   57.342448  46.704332  1.67492
19466 1   57.328553  48.124264  1.67492
19467 1   58.551303  48.846263  1.67492
19468 1   56.119698  45.982333  1.67492
19469 1   54.883053  46.680265  1.67492
19470 1   54.869159  48.100197  1.67492
19471 1   56.091908  48.822197  1.67492
19472 1   53.660304  45.958266  1.67492
19473 1   52.423659  46.656199  1.67492
19474 1   52.409764  48.076131  1.67492
19475 1   53.632514  48.798130  1.67492
19476 1   51.200909  45.934200  1.67492
19477 1   49.964265  46.632132  1.67492
19478 1   49.950370  48.052064  1.67492
19479 1   51.173120  48.774064  1.67492
19480 1   48.741515  45.910133  1.67492
19481 1   47.504870  46.608066  1.67492
19482 1   47.490975  48.027998  1.67492
19483 1   48.713725  48.749997  1.67492
19484 1   46.282120  45.886066  1.67492
19485 1   45.045476  46.583999  1.67492
19486 1   45.031581  48.003931  1.67492
19487 1   46.254331  48.725930  1.67492
19488 1   43.822726  45.862000  1.67492
19489 1   42.586081  46.559932  1.67492
19490 1   42.572187  47.979864  1.67492
19491 1   43.794936  48.701864  1.67492
19492 1   41.363332  45.837933  1.67492
19493 1   40.126687  46.535866  1.67492
19494 1   40.112792  47.955798  1.67492
19495 1   41.335542  48.677797  1.67492
19496 1   38.903937  45.813866  1.67492
19497 1   37.667293  46.511799  1.67492
19498 1   37.653398  47.931731  1.67492
19499 1   38.876148  48.653730  1.67492
19500 1   36.444543  45.789800  1.67492
19501 1   35.207898  46.487732  1.67492
19502 1   35.194003  47.907664  1.67492
19503 1   36.416753  48.629664  1.67492
19504 1   33.985148  45.765733  1.67492
19505 1   32.748504  46.463666  1.67492
19506 1   32.734609  47.883598  1.67492
19507 1   33.957359  48.605597  1.67492
19508 1   31.525754  45.741666  1.67492
19509 1   30.289109  46.439599  1.67492
19510 1   30.275215  47.859531  1.67492
19511 1   31.497964  48.581530  1.67492
19512 1   29.066360  45.717600  1.67492
19513 1   27.829715  46.415532  1.67492
19514 1   27.815820  47.835464  1.67492
19515 1   29.038570  48.557464  1.67492
19516 1   26.606965  45.693533  1.67492
19517 1   25.370321  46.391466  1.67492
19518 1   25.356426  47.811398  1.67492
19519 1   26.579176  48.533397  1.67492
19520 1   24.147571  45.669466  1.67492
19521 1   22.910926  46.367399  1.67492
19522 1   22.897031  47.787331  1.67492
19523 1   24.119781  48.509330  1.67492
19524 1   21.688177  45.645400  1.67492
19525 1   20.451532  46.343332  1.67492
19526 1   20.437637  47.763264  1.67492
19527 1   21.660387  48.485264  1.67492
19528 1   19.228782  45.621333  1.67492
19529 1   17.992137  46.319266  1.67492
19530 1   17.978243  47.739198  1.67492
19531 1   19.200992  48.461197  1.67492
19532 1   16.769388  45.597266  1.67492
19533 1   15.532743  46.295199  1.67492
19534 1   15.518848  47.715131  1.67492
19535 1   16.741598  48.437131  1.67492
19536 1   14.309993  45.573200  1.67492
19537 1   13.073349  46.271133  1.67492
19538 1   13.059454  47.691065  1.67492
19539 1   14.282204  48.413064  1.67492
19540 1   11.850599  45.549133  1.67492
19541 1   10.613954  46.247066  1.67492
19542 1   10.600059  47.666998  1.67492
19543 1   11.822809  48.388997  1.67492
19544 1    9.391205  45.525067  1.67492
19545 1    8.154560  46.222999  1.67492
19546 1    8.140665  47.642931  1.67492
19547 1    9.363415  48.364931  1.67492
19548 1    6.931810  45.501000  1.67492
19549 1    5.695165  46.198933  1.67492
19550 1    5.681271  47.618865  1.67492
19551 1    6.904020  48.340864  1.67492
19552 1    4.472416  45.476933  1.67492
19553 1    3.235771  46.174866  1.67492
19554 1    3.221876  47.594798  1.67492
19555 1    4.444626  48.316797  1.67492
19556 1    2.013021  45.452867  1.67492
19557 1    0.776377  46.150799  1.67492
19558 1    0.762482  47.570731  1.67492
19559 1    1.985232  48.292731  1.67492
19560 1   -0.446373  45.428800  1.67492
19561 1   -1.683018  46.126733  1.67492
19562 1   -1.696913  47.546665  1.67492
19563 1   -0.474163  48.268664  1.67492
19564 1   -2.905767  45.404733  1.67492
19565 1   -4.142412  46.102666  1.67492
19566 1   -4.156307  47.522598  1.67492
19567 1   -2.933557  48.244597  1.67492
19568 1   -5.365162  45.380667  1.67492
19569 1   -6.601806  46.078599  1.67492
19570 1   -6.615701  47.498531  1.67492
19571 1   -5.392952  48.220531  1.67492
19572 1   -7.824556  45.356600  1.67492
19573 1   -9.061201  46.054533  1.67492
19574 1   -9.075096  47.474465  1.67492
19575 1   -7.852346  48.196464  1.67492
19576 1  -10.283951  45.332533  1.67492
19577 1  -11.520595  46.030466  1.67492
19578 1  -11.534490  47.450398  1.67492
19579 1  -10.311740  48.172397  1.67492
19580 1  -12.743345  45.308467  1.67492
19581 1  -13.979990  46.006399  1.67492
19582 1  -13.993885  47.426331  1.67492
19583 1  -12.771135  48.148331  1.67492
19584 1  -15.202739  45.284400  1.67492
19585 1  -16.439384  45.982333  1.67492
19586 1  -16.453279  47.402265  1.67492
19587 1  -15.230529  48.124264  1.67492
19588 1  -17.662134  45.260333  1.67492
19589 1  -18.898778  45.958266  1.67492
19590 1  -18.912673  47.378198  1.67492
19591 1  -17.689924  48.100197  1.67492
19592 1  -20.121528  45.236267  1.67492
19593 1  -21.358173  45.934200  1.67492
19594 1  -21.372068  47.354132  1.67492
19595 1  -20.149318  48.076131  1.67492
19596 1  -22.580923  45.212200  1.67492
19597 1  -23.817567  45.910133  1.67492
19598 1  -23.831462  47.330065  1.67492
19599 1  -22.608712  48.052064  1.67492
19600 1  -25.040317  45.188134  1.67492
19601 1  -26.276962  45.886066  1.67492
19602 1  -26.290857  47.305998  1.67492
19603 1  -25.068107  48.027998  1.67492
19604 1  -27.499711  45.164067  1.67492
19605 1  -28.736356  45.862000  1.67492
19606 1  -28.750251  47.281932  1.67492
19607 1  -27.527501  48.003931  1.67492
19608 1  -29.959106  45.140000  1.67492
19609 1  -31.195750  45.837933  1.67492
19610 1  -31.209645  47.257865  1.67492
19611 1  -29.986896  47.979864  1.67492
19612 1  -32.418500  45.115934  1.67492
19613 1  -33.655145  45.813866  1.67492
19614 1  -33.669040  47.233798  1.67492
19615 1  -32.446290  47.955798  1.67492
19616 1  -34.877895  45.091867  1.67492
19617 1  -36.114539  45.789800  1.67492
19618 1  -36.128434  47.209732  1.67492
19619 1  -34.905684  47.931731  1.67492
19620 1  -37.337289  45.067800  1.67492
19621 1  -38.573934  45.765733  1.67492
19622 1  -38.587829  47.185665  1.67492
19623 1  -37.365079  47.907664  1.67492
19624 1  -39.796683  45.043734  1.67492
19625 1  -41.033328  45.741666  1.67492
19626 1  -41.047223  47.161598  1.67492
19627 1  -39.824473  47.883598  1.67492
19628 1  -42.256078  45.019667  1.67492
19629 1  -43.492722  45.717600  1.67492
19630 1  -43.506617  47.137532  1.67492
19631 1  -42.283868  47.859531  1.67492
19632 1  -44.715472  44.995600  1.67492
19633 1  -45.952117  45.693533  1.67492
19634 1  -45.966012  47.113465  1.67492
19635 1  -44.743262  47.835464  1.67492
19636 1  -47.174867  44.971534  1.67492
19637 1  -48.411511  45.669466  1.67492
19638 1  -48.425406  47.089398  1.67492
19639 1  -47.202656  47.811398  1.67492
19640 1  -49.634261  44.947467  1.67492
19641 1  -50.870906  45.645400  1.67492
19642 1  -50.884801  47.065332  1.67492
19643 1  -49.662051  47.787331  1.67492
19644 1  -52.093655  44.923400  1.67492
19645 1  -53.330300  45.621333  1.67492
19646 1  -53.344195  47.041265  1.67492
19647 1  -52.121445  47.763264  1.67492
19648 1  -54.553050  44.899334  1.67492
19649 1  -55.789694  45.597266  1.67492
19650 1  -55.803589  47.017199  1.67492
19651 1  -54.580840  47.739198  1.67492
19652 1  -57.012444  44.875267  1.67492
19653 1  -58.249089  45.573200  1.67492
19654 1  -58.262984  46.993132  1.67492
19655 1  -57.040234  47.715131  1.67492
19656 1  -59.471839  44.851201  1.67492
19657 1  -60.708483  45.549133  1.67492
19658 1  -60.722378  46.969065  1.67492
19659 1  -59.499628  47.691065  1.67492
19660 1  -61.931233  44.827134  1.67492
19661 1  -63.167878  45.525067  1.67492
19662 1  -63.181772  46.944999  1.67492
19663 1  -61.959023  47.666998  1.67492
19664 1  -64.390627  44.803067  1.67492
19665 1  -65.627272  45.501000  1.67492
19666 1  -65.641167  46.920932  1.67492
19667 1  -64.418417  47.642931  1.67492
19668 1  -66.850022  44.779001  1.67492
19669 1  -68.086666  45.476933  1.67492
19670 1  -68.100561  46.896865  1.67492
19671 1  -66.877812  47.618865  1.67492
19672 1  -69.309416  44.754934  1.67492
19673 1  -70.546061  45.452867  1.67492
19674 1  -70.559956  46.872799  1.67492
19675 1  -69.337206  47.594798  1.67492
19676 1  -71.768811  44.730867  1.67492
19677 1  -73.005455  45.428800  1.67492
19678 1  -73.019350  46.848732  1.67492
19679 1  -71.796600  47.570731  1.67492
19680 1  -74.228205  44.706801  1.67492
19681 1  -75.464850  45.404733  1.67492
19682 1  -75.478744  46.824665  1.67492
19683 1  -74.255995  47.546665  1.67492
19684 1  -76.687599  44.682734  1.67492
19685 1  -77.924244  45.380667  1.67492
19686 1  -77.938139  46.800599  1.67492
19687 1  -76.715389  47.522598  1.67492
19688 1  -79.146994  44.658667  1.67492
19689 1  -80.383638  45.356600  1.67492
19690 1  -80.397533  46.776532  1.67492
19691 1  -79.174784  47.498531  1.67492
19692 1  -81.606388  44.634601  1.67492
19693 1  -82.843033  45.332533  1.67492
19694 1  -82.856928  46.752465  1.67492
19695 1  -81.634178  47.474465  1.67492
19696 1  -84.065783  44.610534  1.67492
19697 1  -85.302427  45.308467  1.67492
19698 1  -85.316322  46.728399  1.67492
19699 1  -84.093572  47.450398  1.67492
19700 1  -86.525177  44.586467  1.67492
19701 1  -87.761822  45.284400  1.67492
19702 1  -87.775716  46.704332  1.67492
19703 1  -86.552967  47.426331  1.67492
19704 1  -88.984571  44.562401  1.67492
19705 1  -90.221216  45.260333  1.67492
19706 1  -90.235111  46.680265  1.67492
19707 1  -89.012361  47.402265  1.67492
19708 1  -91.443966  44.538334  1.67492
19709 1  -92.680610  45.236267  1.67492
19710 1  -92.694505  46.656199  1.67492
19711 1  -91.471755  47.378198  1.67492
19712 1  -93.903360  44.514267  1.67492
19713 1  -95.140005  45.212200  1.67492
19714 1  -95.153900  46.632132  1.67492
19715 1  -93.931150  47.354132  1.67492
19716 1  -96.362755  44.490201  1.67492
19717 1  -97.599399  45.188134  1.67492
19718 1  -97.613294  46.608066  1.67492
19719 1  -96.390544  47.330065  1.67492
19720 1  -98.822149  44.466134  1.67492
19721 1 -100.058794  45.164067  1.67492
19722 1 -100.072688  46.583999  1.67492
19723 1  -98.849939  47.305998  1.67492
19724 1 -101.281543  44.442068  1.67492
19725 1 -102.518188  45.140000  1.67492
19726 1 -102.532083  46.559932  1.67492
19727 1 -101.309333  47.281932  1.67492
19728 1 -103.740938  44.418001  1.67492
19729 1 -104.977582  45.115934  1.67492
19730 1 -104.991477  46.535866  1.67492
19731 1 -103.768727  47.257865  1.67492
19732 1 -106.200332  44.393934  1.67492
19733 1 -107.436977  45.091867  1.67492
19734 1 -107.450872  46.511799  1.67492
19735 1 -106.228122  47.233798  1.67492
19736 1 -108.659726  44.369868  1.67492
19737 1 -108.687516  47.209732  1.67492
19738 1  107.725296  50.747528  1.67492
19739 1  106.488651  51.445461  1.67492
19740 1  106.474756  52.865393  1.67492
19741 1  107.697506  53.587392  1.67492
19742 1  105.265901  50.723462  1.67492
19743 1  104.029257  51.421394  1.67492
19744 1  104.015362  52.841326  1.67492
19745 1  105.238112  53.563326  1.67492
19746 1  102.806507  50.699395  1.67492
19747 1  101.569862  51.397328  1.67492
19748 1  101.555967  52.817260  1.67492
19749 1  102.778717  53.539259  1.67492
19750 1  100.347113  50.675328  1.67492
19751 1   99.110468  51.373261  1.67492
19752 1   99.096573  52.793193  1.67492
19753 1  100.319323  53.515192  1.67492
19754 1   97.887718  50.651262  1.67492
19755 1   96.651074  51.349194  1.67492
19756 1   96.637179  52.769127  1.67492
19757 1   97.859928  53.491126  1.67492
19758 1   95.428324  50.627195  1.67492
19759 1   94.191679  51.325128  1.67492
19760 1   94.177784  52.745060  1.67492
19761 1   95.400534  53.467059  1.67492
19762 1   92.968929  50.603129  1.67492
19763 1   91.732285  51.301061  1.67492
19764 1   91.718390  52.720993  1.67492
19765 1   92.941140  53.442993  1.67492
19766 1   90.509535  50.579062  1.67492
19767 1   89.272890  51.276995  1.67492
19768 1   89.258995  52.696927  1.67492
19769 1   90.481745  53.418926  1.67492
19770 1   88.050141  50.554995  1.67492
19771 1   86.813496  51.252928  1.67492
19772 1   86.799601  52.672860  1.67492
19773 1   88.022351  53.394859  1.67492
19774 1   85.590746  50.530929  1.67492
19775 1   84.354102  51.228861  1.67492
19776 1   84.340207  52.648793  1.67492
19777 1   85.562956  53.370793  1.67492
19778 1   83.131352  50.506862  1.67492
19779 1   81.894707  51.204795  1.67492
19780 1   81.880812  52.624727  1.67492
19781 1   83.103562  53.346726  1.67492
19782 1   80.671957  50.482795  1.67492
19783 1   79.435313  51.180728  1.67492
19784 1   79.421418  52.600660  1.67492
19785 1   80.644168  53.322659  1.67492
19786 1   78.212563  50.458729  1.67492
19787 1   76.975918  51.156661  1.67492
19788 1   76.962023  52.576593  1.67492
19789 1   78.184773  53.298593  1.67492
19790 1   75.753169  50.434662  1.67492
19791 1   74.516524  51.132595  1.67492
19792 1   74.502629  52.552527  1.67492
19793 1   75.725379  53.274526  1.67492
19794 1   73.293774  50.410595  1.67492
19795 1   72.057130  51.108528  1.67492
19796 1   72.043235  52.528460  1.67492
19797 1   73.265984  53.250459  1.67492
19798 1   70.834380  50.386529  1.67492
19799 1   69.597735  51.084461  1.67492
19800 1   69.583840  52.504393  1.67492
19801 1   70.806590  53.226393  1.67492
19802 1   68.374985  50.362462  1.67492
19803 1   67.138341  51.060395  1.67492
19804 1   67.124446  52.480327  1.67492
19805 1   68.347196  53.202326  1.67492
19806 1   65.915591  50.338395  1.67492
19807 1   64.678946  51.036328  1.67492
19808 1   64.665051  52.456260  1.67492
19809 1   65.887801  53.178259  1.67492
19810 1   63.456197  50.314329  1.67492
19811 1   62.219552  51.012261  1.67492
19812 1   62.205657  52.432193  1.67492
19813 1   63.428407  53.154193  1.67492
19814 1   60.996802  50.290262  1.67492
19815 1   59.760158  50.988195  1.67492
19816 1   59.746263  52.408127  1.67492
19817 1   60.969012  53.130126  1.67492
19818 1   58.537408  50.266195  1.67492
19819 1   57.300763  50.964128  1.67492
19820 1   57.286868  52.384060  1.67492
19821 1   58.509618  53.106060  1.67492
19822 1   56.078013  50.242129  1.67492
19823 1   54.841369  50.940062  1.67492
19824 1   54.827474  52.359994  1.67492
19825 1   56.050224  53.081993  1.67492
19826 1   53.618619  50.218062  1.67492
19827 1   52.381974  50.915995  1.67492
19828 1   52.368079  52.335927  1.67492
19829 1   53.590829  53.057926  1.67492
19830 1   51.159225  50.193996  1.67492
19831 1   49.922580  50.891928  1.67492
19832 1   49.908685  52.311860  1.67492
19833 1   51.131435  53.033860  1.67492
19834 1   48.699830  50.169929  1.67492
19835 1   47.463186  50.867862  1.67492
19836 1   47.449291  52.287794  1.67492
19837 1   48.672040  53.009793  1.67492
19838 1   46.240436  50.145862  1.67492
19839 1   45.003791  50.843795  1.67492
19840 1   44.989896  52.263727  1.67492
19841 1   46.212646  52.985726  1.67492
19842 1   43.781041  50.121796  1.67492
19843 1   42.544397  50.819728  1.67492
19844 1   42.530502  52.239660  1.67492
19845 1   43.753252  52.961660  1.67492
19846 1   41.321647  50.097729  1.67492
19847 1   40.085002  50.795662  1.67492
19848 1   40.071108  52.215594  1.67492
19849 1   41.293857  52.937593  1.67492
19850 1   38.862253  50.073662  1.67492
19851 1   37.625608  50.771595  1.67492
19852 1   37.611713  52.191527  1.67492
19853 1   38.834463  52.913526  1.67492
19854 1   36.402858  50.049596  1.67492
19855 1   35.166214  50.747528  1.67492
19856 1   35.152319  52.167460  1.67492
19857 1   36.375068  52.889460  1.67492
19858 1   33.943464  50.025529  1.67492
19859 1   32.706819  50.723462  1.67492
19860 1   32.692924  52.143394  1.67492
19861 1   33.915674  52.865393  1.67492
19862 1   31.484069  50.001462  1.67492
19863 1   30.247425  50.699395  1.67492
19864 1   30.233530  52.119327  1.67492
19865 1   31.456280  52.841326  1.67492
19866 1   29.024675  49.977396  1.67492
19867 1   27.788030  50.675328  1.67492
19868 1   27.774136  52.095260  1.67492
19869 1   28.996885  52.817260  1.67492
19870 1   26.565281  49.953329  1.67492
19871 1   25.328636  50.651262  1.67492
19872 1   25.314741  52.071194  1.67492
19873 1   26.537491  52.793193  1.67492
19874 1   24.105886  49.929262  1.67492
19875 1   22.869242  50.627195  1.67492
19876 1   22.855347  52.047127  1.67492
19877 1   24.078096  52.769127  1.67492
19878 1   21.646492  49.905196  1.67492
19879 1   20.409847  50.603129  1.67492
19880 1   20.395952  52.023061  1.67492
19881 1   21.618702  52.745060  1.67492
19882 1   19.187097  49.881129  1.67492
19883 1   17.950453  50.579062  1.67492
19884 1   17.936558  51.998994  1.67492
19885 1   19.159308  52.720993  1.67492
19886 1   16.727703  49.857063  1.67492
19887 1   15.491058  50.554995  1.67492
19888 1   15.477164  51.974927  1.67492
19889 1   16.699913  52.696927  1.67492
19890 1   14.268309  49.832996  1.67492
19891 1   13.031664  50.530929  1.67492
19892 1   13.017769  51.950861  1.67492
19893 1   14.240519  52.672860  1.67492
19894 1   11.808914  49.808929  1.67492
19895 1   10.572270  50.506862  1.67492
19896 1   10.558375  51.926794  1.67492
19897 1   11.781125  52.648793  1.67492
19898 1    9.349520  49.784863  1.67492
19899 1    8.112875  50.482795  1.67492
19900 1    8.098980  51.902727  1.67492
19901 1    9.321730  52.624727  1.67492
19902 1    6.890125  49.760796  1.67492
19903 1    5.653481  50.458729  1.67492
19904 1    5.639586  51.878661  1.67492
19905 1    6.862336  52.600660  1.67492
19906 1    4.430731  49.736729  1.67492
19907 1    3.194086  50.434662  1.67492
19908 1    3.180192  51.854594  1.67492
19909 1    4.402941  52.576593  1.67492
19910 1    1.971337  49.712663  1.67492
19911 1    0.734692  50.410595  1.67492
19912 1    0.720797  51.830527  1.67492
19913 1    1.943547  52.552527  1.67492
19914 1   -0.488058  49.688596  1.67492
19915 1   -1.724702  50.386529  1.67492
19916 1   -1.738597  51.806461  1.67492
19917 1   -0.515847  52.528460  1.67492
19918 1   -2.947452  49.664529  1.67492
19919 1   -4.184097  50.362462  1.67492
19920 1   -4.197992  51.782394  1.67492
19921 1   -2.975242  52.504393  1.67492
19922 1   -5.406846  49.640463  1.67492
19923 1   -6.643491  50.338395  1.67492
19924 1   -6.657386  51.758327  1.67492
19925 1   -5.434636  52.480327  1.67492
19926 1   -7.866241  49.616396  1.67492
19927 1   -9.102886  50.314329  1.67492
19928 1   -9.116780  51.734261  1.67492
19929 1   -7.894031  52.456260  1.67492
19930 1  -10.325635  49.592329  1.67492
19931 1  -11.562280  50.290262  1.67492
19932 1  -11.576175  51.710194  1.67492
19933 1  -10.353425  52.432193  1.67492
19934 1  -12.785030  49.568263  1.67492
19935 1  -14.021674  50.266195  1.67492
19936 1  -14.035569  51.686128  1.67492
19937 1  -12.812819  52.408127  1.67492
19938 1  -15.244424  49.544196  1.67492
19939 1  -16.481069  50.242129  1.67492
19940 1  -16.494964  51.662061  1.67492
19941 1  -15.272214  52.384060  1.67492
19942 1  -17.703818  49.520130  1.67492
19943 1  -18.940463  50.218062  1.67492
19944 1  -18.954358  51.637994  1.67492
19945 1  -17.731608  52.359994  1.67492
19946 1  -20.163213  49.496063  1.67492
19947 1  -21.399858  50.193996  1.67492
19948 1  -21.413752  51.613928  1.67492
19949 1  -20.191003  52.335927  1.67492
19950 1  -22.622607  49.471996  1.67492
19951 1  -23.859252  50.169929  1.67492
19952 1  -23.873147  51.589861  1.67492
19953 1  -22.650397  52.311860  1.67492
19954 1  -25.082002  49.447930  1.67492
19955 1  -26.318646  50.145862  1.67492
19956 1  -26.332541  51.565794  1.67492
19957 1  -25.109791  52.287794  1.67492
19958 1  -27.541396  49.423863  1.67492
19959 1  -28.778041  50.121796  1.67492
19960 1  -28.791936  51.541728  1.67492
19961 1  -27.569186  52.263727  1.67492
19962 1  -30.000790  49.399796  1.67492
19963 1  -31.237435  50.097729  1.67492
19964 1  -31.251330  51.517661  1.67492
19965 1  -30.028580  52.239660  1.67492
19966 1  -32.460185  49.375730  1.67492
19967 1  -33.696829  50.073662  1.67492
19968 1  -33.710724  51.493594  1.67492
19969 1  -32.487975  52.215594  1.67492
19970 1  -34.919579  49.351663  1.67492
19971 1  -36.156224  50.049596  1.67492
19972 1  -36.170119  51.469528  1.67492
19973 1  -34.947369  52.191527  1.67492
19974 1  -37.378974  49.327596  1.67492
19975 1  -38.615618  50.025529  1.67492
19976 1  -38.629513  51.445461  1.67492
19977 1  -37.406763  52.167460  1.67492
19978 1  -39.838368  49.303530  1.67492
19979 1  -41.075013  50.001462  1.67492
19980 1  -41.088908  51.421394  1.67492
19981 1  -39.866158  52.143394  1.67492
19982 1  -42.297762  49.279463  1.67492
19983 1  -43.534407  49.977396  1.67492
19984 1  -43.548302  51.397328  1.67492
19985 1  -42.325552  52.119327  1.67492
19986 1  -44.757157  49.255396  1.67492
19987 1  -45.993801  49.953329  1.67492
19988 1  -46.007696  51.373261  1.67492
19989 1  -44.784947  52.095260  1.67492
19990 1  -47.216551  49.231330  1.67492
19991 1  -48.453196  49.929262  1.67492
19992 1  -48.467091  51.349194  1.67492
19993 1  -47.244341  52.071194  1.67492
19994 1  -49.675946  49.207263  1.67492
19995 1  -50.912590  49.905196  1.67492
19996 1  -50.926485  51.325128  1.67492
19997 1  -49.703735  52.047127  1.67492
19998 1  -52.135340  49.183196  1.67492
19999 1  -53.371985  49.881129  1.67492
20000 1  -53.385880  51.301061  1.67492
20001 1  -52.163130  52.023061  1.67492
20002 1  -54.594734  49.159130  1.67492
20003 1  -55.831379  49.857063  1.67492
20004 1  -55.845274  51.276995  1.67492
20005 1  -54.622524  51.998994  1.67492
20006 1  -57.054129  49.135063  1.67492
20007 1  -58.290773  49.832996  1.67492
20008 1  -58.304668  51.252928  1.67492
20009 1  -57.081919  51.974927  1.67492
20010 1  -59.513523  49.110997  1.67492
20011 1  -60.750168  49.808929  1.67492
20012 1  -60.764063  51.228861  1.67492
20013 1  -59.541313  51.950861  1.67492
20014 1  -61.972918  49.086930  1.67492
20015 1  -63.209562  49.784863  1.67492
20016 1  -63.223457  51.204795  1.67492
20017 1  -62.000707  51.926794  1.67492
20018 1  -64.432312  49.062863  1.67492
20019 1  -65.668957  49.760796  1.67492
20020 1  -65.682852  51.180728  1.67492
20021 1  -64.460102  51.902727  1.67492
20022 1  -66.891706  49.038797  1.67492
20023 1  -68.128351  49.736729  1.67492
20024 1  -68.142246  51.156661  1.67492
20025 1  -66.919496  51.878661  1.67492
20026 1  -69.351101  49.014730  1.67492
20027 1  -70.587745  49.712663  1.67492
20028 1  -70.601640  51.132595  1.67492
20029 1  -69.378891  51.854594  1.67492
20030 1  -71.810495  48.990663  1.67492
20031 1  -73.047140  49.688596  1.67492
20032 1  -73.061035  51.108528  1.67492
20033 1  -71.838285  51.830527  1.67492
20034 1  -74.269890  48.966597  1.67492
20035 1  -75.506534  49.664529  1.67492
20036 1  -75.520429  51.084461  1.67492
20037 1  -74.297679  51.806461  1.67492
20038 1  -76.729284  48.942530  1.67492
20039 1  -77.965929  49.640463  1.67492
20040 1  -77.979824  51.060395  1.67492
20041 1  -76.757074  51.782394  1.67492
20042 1  -79.188678  48.918463  1.67492
20043 1  -80.425323  49.616396  1.67492
20044 1  -80.439218  51.036328  1.67492
20045 1  -79.216468  51.758327  1.67492
20046 1  -81.648073  48.894397  1.67492
20047 1  -82.884717  49.592329  1.67492
20048 1  -82.898612  51.012261  1.67492
20049 1  -81.675863  51.734261  1.67492
20050 1  -84.107467  48.870330  1.67492
20051 1  -85.344112  49.568263  1.67492
20052 1  -85.358007  50.988195  1.67492
20053 1  -84.135257  51.710194  1.67492
20054 1  -86.566862  48.846263  1.67492
20055 1  -87.803506  49.544196  1.67492
20056 1  -87.817401  50.964128  1.67492
20057 1  -86.594651  51.686128  1.67492
20058 1  -89.026256  48.822197  1.67492
20059 1  -90.262901  49.520130  1.67492
20060 1  -90.276795  50.940062  1.67492
20061 1  -89.054046  51.662061  1.67492
20062 1  -91.485650  48.798130  1.67492
20063 1  -92.722295  49.496063  1.67492
20064 1  -92.736190  50.915995  1.67492
20065 1  -91.513440  51.637994  1.67492
20066 1  -93.945045  48.774064  1.67492
20067 1  -95.181689  49.471996  1.67492
20068 1  -95.195584  50.891928  1.67492
20069 1  -93.972835  51.613928  1.67492
20070 1  -96.404439  48.749997  1.67492
20071 1  -97.641084  49.447930  1.67492
20072 1  -97.654979  50.867862  1.67492
20073 1  -96.432229  51.589861  1.67492
20074 1  -98.863834  48.725930  1.67492
20075 1 -100.100478  49.423863  1.67492
20076 1 -100.114373  50.843795  1.67492
20077 1  -98.891623  51.565794  1.67492
20078 1 -101.323228  48.701864  1.67492
20079 1 -102.559873  49.399796  1.67492
20080 1 -102.573767  50.819728  1.67492
20081 1 -101.351018  51.541728  1.67492
20082 1 -103.782622  48.677797  1.67492
20083 1 -105.019267  49.375730  1.67492
20084 1 -105.033162  50.795662  1.67492
20085 1 -103.810412  51.517661  1.67492
20086 1 -106.242017  48.653730  1.67492
20087 1 -107.478661  49.351663  1.67492
20088 1 -107.492556  50.771595  1.67492
20089 1 -106.269807  51.493594  1.67492
20090 1 -108.701411  48.629664  1.67492
20091 1 -108.729201  51.469528  1.67492
20092 1  107.683611  55.007324  1.67492
20093 1  106.446966  55.705257  1.67492
20094 1  106.433072  57.125189  1.67492
20095 1  107.655821  57.847188  1.67492
20096 1  105.224217  54.983258  1.67492
20097 1  103.987572  55.681190  1.67492
20098 1  103.973677  57.101122  1.67492
20099 1  105.196427  57.823122  1.67492
20100 1  102.764822  54.959191  1.67492
20101 1  101.528178  55.657124  1.67492
20102 1  101.514283  57.077056  1.67492
20103 1  102.737033  57.799055  1.67492
20104 1  100.305428  54.935124  1.67492
20105 1   99.068783  55.633057  1.67492
20106 1   99.054888  57.052989  1.67492
20107 1  100.277638  57.774989  1.67492
20108 1   97.846033  54.911058  1.67492
20109 1   96.609389  55.608991  1.67492
20110 1   96.595494  57.028923  1.67492
20111 1   97.818244  57.750922  1.67492
20112 1   95.386639  54.886991  1.67492
20113 1   94.149994  55.584924  1.67492
20114 1   94.136100  57.004856  1.67492
20115 1   95.358849  57.726855  1.67492
20116 1   92.927245  54.862925  1.67492
20117 1   91.690600  55.560857  1.67492
20118 1   91.676705  56.980789  1.67492
20119 1   92.899455  57.702789  1.67492
20120 1   90.467850  54.838858  1.67492
20121 1   89.231206  55.536791  1.67492
20122 1   89.217311  56.956723  1.67492
20123 1   90.440061  57.678722  1.67492
20124 1   88.008456  54.814791  1.67492
20125 1   86.771811  55.512724  1.67492
20126 1   86.757916  56.932656  1.67492
20127 1   87.980666  57.654655  1.67492
20128 1   85.549062  54.790725  1.67492
20129 1   84.312417  55.488657  1.67492
20130 1   84.298522  56.908589  1.67492
20131 1   85.521272  57.630589  1.67492
20132 1   83.089667  54.766658  1.67492
20133 1   81.853022  55.464591  1.67492
20134 1   81.839128  56.884523  1.67492
20135 1   83.061877  57.606522  1.67492
20136 1   80.630273  54.742591  1.67492
20137 1   79.393628  55.440524  1.67492
20138 1   79.379733  56.860456  1.67492
20139 1   80.602483  57.582455  1.67492
20140 1   78.170878  54.718525  1.67492
20141 1   76.934234  55.416457  1.67492
20142 1   76.920339  56.836389  1.67492
20143 1   78.143089  57.558389  1.67492
20144 1   75.711484  54.694458  1.67492
20145 1   74.474839  55.392391  1.67492
20146 1   74.460944  56.812323  1.67492
20147 1   75.683694  57.534322  1.67492
20148 1   73.252090  54.670391  1.67492
20149 1   72.015445  55.368324  1.67492
20150 1   72.001550  56.788256  1.67492
20151 1   73.224300  57.510255  1.67492
20152 1   70.792695  54.646325  1.67492
20153 1   69.556050  55.344257  1.67492
20154 1   69.542156  56.764189  1.67492
20155 1   70.764905  57.486189  1.67492
20156 1   68.333301  54.622258  1.67492
20157 1   67.096656  55.320191  1.67492
20158 1   67.082761  56.740123  1.67492
20159 1   68.305511  57.462122  1.67492
20160 1   65.873906  54.598191  1.67492
20161 1   64.637262  55.296124  1.67492
20162 1   64.623367  56.716056  1.67492
20163 1   65.846117  57.438056  1.67492
20164 1   63.414512  54.574125  1.67492
20165 1   62.177867  55.272058  1.67492
20166 1   62.163972  56.691990  1.67492
20167 1   63.386722  57.413989  1.67492
20168 1   60.955118  54.550058  1.67492
20169 1   59.718473  55.247991  1.67492
20170 1   59.704578  56.667923  1.67492
20171 1   60.927328  57.389922  1.67492
20172 1   58.495723  54.525992  1.67492
20173 1   57.259079  55.223924  1.67492
20174 1   57.245184  56.643856  1.67492
20175 1   58.467933  57.365856  1.67492
20176 1   56.036329  54.501925  1.67492
20177 1   54.799684  55.199858  1.67492
20178 1   54.785789  56.619790  1.67492
20179 1   56.008539  57.341789  1.67492
20180 1   53.576934  54.477858  1.67492
20181 1   52.340290  55.175791  1.67492
20182 1   52.326395  56.595723  1.67492
20183 1   53.549145  57.317722  1.67492
20184 1   51.117540  54.453792  1.67492
20185 1   49.880895  55.151724  1.67492
20186 1   49.867000  56.571656  1.67492
20187 1   51.089750  57.293656  1.67492
20188 1   48.658146  54.429725  1.67492
20189 1   47.421501  55.127658  1.67492
20190 1   47.407606  56.547590  1.67492
20191 1   48.630356  57.269589  1.67492
20192 1   46.198751  54.405658  1.67492
20193 1   44.962107  55.103591  1.67492
20194 1   44.948212  56.523523  1.67492
20195 1   46.170961  57.245522  1.67492
20196 1   43.739357  54.381592  1.67492
20197 1   42.502712  55.079524  1.67492
20198 1   42.488817  56.499456  1.67492
20199 1   43.711567  57.221456  1.67492
20200 1   41.279962  54.357525  1.67492
20201 1   40.043318  55.055458  1.67492
20202 1   40.029423  56.475390  1.67492
20203 1   41.252173  57.197389  1.67492
20204 1   38.820568  54.333458  1.67492
20205 1   37.583923  55.031391  1.67492
20206 1   37.570028  56.451323  1.67492
20207 1   38.792778  57.173322  1.67492
20208 1   36.361174  54.309392  1.67492
20209 1   35.124529  55.007324  1.67492
20210 1   35.110634  56.427256  1.67492
20211 1   36.333384  57.149256  1.67492
20212 1   33.901779  54.285325  1.67492
20213 1   32.665135  54.983258  1.67492
20214 1   32.651240  56.403190  1.67492
20215 1   33.873989  57.125189  1.67492
20216 1   31.442385  54.261258  1.67492
20217 1   30.205740  54.959191  1.67492
20218 1   30.191845  56.379123  1.67492
20219 1   31.414595  57.101122  1.67492
20220 1   28.982990  54.237192  1.67492
20221 1   27.746346  54.935124  1.67492
20222 1   27.732451  56.355057  1.67492
20223 1   28.955201  57.077056  1.67492
20224 1   26.523596  54.213125  1.67492
20225 1   25.286951  54.911058  1.67492
20226 1   25.273056  56.330990  1.67492
20227 1   26.495806  57.052989  1.67492
20228 1   24.064202  54.189059  1.67492
20229 1   22.827557  54.886991  1.67492
20230 1   22.813662  56.306923  1.67492
20231 1   24.036412  57.028923  1.67492
20232 1   21.604807  54.164992  1.67492
20233 1   20.368163  54.862925  1.67492
20234 1   20.354268  56.282857  1.67492
20235 1   21.577017  57.004856  1.67492
20236 1   19.145413  54.140925  1.67492
20237 1   17.908768  54.838858  1.67492
20238 1   17.894873  56.258790  1.67492
20239 1   19.117623  56.980789  1.67492
20240 1   16.686018  54.116859  1.67492
20241 1   15.449374  54.814791  1.67492
20242 1   15.435479  56.234723  1.67492
20243 1   16.658229  56.956723  1.67492
20244 1   14.226624  54.092792  1.67492
20245 1   12.989979  54.790725  1.67492
20246 1   12.976085  56.210657  1.67492
20247 1   14.198834  56.932656  1.67492
20248 1   11.767230  54.068725  1.67492
20249 1   10.530585  54.766658  1.67492
20250 1   10.516690  56.186590  1.67492
20251 1   11.739440  56.908589  1.67492
20252 1    9.307835  54.044659  1.67492
20253 1    8.071191  54.742591  1.67492
20254 1    8.057296  56.162523  1.67492
20255 1    9.280045  56.884523  1.67492
20256 1    6.848441  54.020592  1.67492
20257 1    5.611796  54.718525  1.67492
20258 1    5.597901  56.138457  1.67492
20259 1    6.820651  56.860456  1.67492
20260 1    4.389046  53.996525  1.67492
20261 1    3.152402  54.694458  1.67492
20262 1    3.138507  56.114390  1.67492
20263 1    4.361257  56.836389  1.67492
20264 1    1.929652  53.972459  1.67492
20265 1    0.693007  54.670391  1.67492
20266 1    0.679113  56.090323  1.67492
20267 1    1.901862  56.812323  1.67492
20268 1   -0.529742  53.948392  1.67492
20269 1   -1.766387  54.646325  1.67492
20270 1   -1.780282  56.066257  1.67492
20271 1   -0.557532  56.788256  1.67492
20272 1   -2.989137  53.924325  1.67492
20273 1   -4.225781  54.622258  1.67492
20274 1   -4.239676  56.042190  1.67492
20275 1   -3.016927  56.764189  1.67492
20276 1   -5.448531  53.900259  1.67492
20277 1   -6.685176  54.598191  1.67492
20278 1   -6.699071  56.018123  1.67492
20279 1   -5.476321  56.740123  1.67492
20280 1   -7.907926  53.876192  1.67492
20281 1   -9.144570  54.574125  1.67492
20282 1   -9.158465  55.994057  1.67492
20283 1   -7.935715  56.716056  1.67492
20284 1  -10.367320  53.852125  1.67492
20285 1  -11.603965  54.550058  1.67492
20286 1  -11.617859  55.969990  1.67492
20287 1  -10.395110  56.691990  1.67492
20288 1  -12.826714  53.828059  1.67492
20289 1  -14.063359  54.525992  1.67492
20290 1  -14.077254  55.945924  1.67492
20291 1  -12.854504  56.667923  1.67492
20292 1  -15.286109  53.803992  1.67492
20293 1  -16.522753  54.501925  1.67492
20294 1  -16.536648  55.921857  1.67492
20295 1  -15.313898  56.643856  1.67492
20296 1  -17.745503  53.779926  1.67492
20297 1  -18.982148  54.477858  1.67492
20298 1  -18.996043  55.897790  1.67492
20299 1  -17.773293  56.619790  1.67492
20300 1  -20.204898  53.755859  1.67492
20301 1  -21.441542  54.453792  1.67492
20302 1  -21.455437  55.873724  1.67492
20303 1  -20.232687  56.595723  1.67492
20304 1  -22.664292  53.731792  1.67492
20305 1  -23.900937  54.429725  1.67492
20306 1  -23.914831  55.849657  1.67492
20307 1  -22.692082  56.571656  1.67492
20308 1  -25.123686  53.707726  1.67492
20309 1  -26.360331  54.405658  1.67492
20310 1  -26.374226  55.825590  1.67492
20311 1  -25.151476  56.547590  1.67492
20312 1  -27.583081  53.683659  1.67492
20313 1  -28.819725  54.381592  1.67492
20314 1  -28.833620  55.801524  1.67492
20315 1  -27.610870  56.523523  1.67492
20316 1  -30.042475  53.659592  1.67492
20317 1  -31.279120  54.357525  1.67492
20318 1  -31.293015  55.777457  1.67492
20319 1  -30.070265  56.499456  1.67492
20320 1  -32.501870  53.635526  1.67492
20321 1  -33.738514  54.333458  1.67492
20322 1  -33.752409  55.753390  1.67492
20323 1  -32.529659  56.475390  1.67492
20324 1  -34.961264  53.611459  1.67492
20325 1  -36.197909  54.309392  1.67492
20326 1  -36.211803  55.729324  1.67492
20327 1  -34.989054  56.451323  1.67492
20328 1  -37.420658  53.587392  1.67492
20329 1  -38.657303  54.285325  1.67492
20330 1  -38.671198  55.705257  1.67492
20331 1  -37.448448  56.427256  1.67492
20332 1  -39.880053  53.563326  1.67492
20333 1  -41.116697  54.261258  1.67492
20334 1  -41.130592  55.681190  1.67492
20335 1  -39.907842  56.403190  1.67492
20336 1  -42.339447  53.539259  1.67492
20337 1  -43.576092  54.237192  1.67492
20338 1  -43.589987  55.657124  1.67492
20339 1  -42.367237  56.379123  1.67492
20340 1  -44.798841  53.515192  1.67492
20341 1  -46.035486  54.213125  1.67492
20342 1  -46.049381  55.633057  1.67492
20343 1  -44.826631  56.355057  1.67492
20344 1  -47.258236  53.491126  1.67492
20345 1  -48.494881  54.189059  1.67492
20346 1  -48.508775  55.608991  1.67492
20347 1  -47.286026  56.330990  1.67492
20348 1  -49.717630  53.467059  1.67492
20349 1  -50.954275  54.164992  1.67492
20350 1  -50.968170  55.584924  1.67492
20351 1  -49.745420  56.306923  1.67492
20352 1  -52.177025  53.442993  1.67492
20353 1  -53.413669  54.140925  1.67492
20354 1  -53.427564  55.560857  1.67492
20355 1  -52.204814  56.282857  1.67492
20356 1  -54.636419  53.418926  1.67492
20357 1  -55.873064  54.116859  1.67492
20358 1  -55.886959  55.536791  1.67492
20359 1  -54.664209  56.258790  1.67492
20360 1  -57.095813  53.394859  1.67492
20361 1  -58.332458  54.092792  1.67492
20362 1  -58.346353  55.512724  1.67492
20363 1  -57.123603  56.234723  1.67492
20364 1  -59.555208  53.370793  1.67492
20365 1  -60.791853  54.068725  1.67492
20366 1  -60.805747  55.488657  1.67492
20367 1  -59.582998  56.210657  1.67492
20368 1  -62.014602  53.346726  1.67492
20369 1  -63.251247  54.044659  1.67492
20370 1  -63.265142  55.464591  1.67492
20371 1  -62.042392  56.186590  1.67492
20372 1  -64.473997  53.322659  1.67492
20373 1  -65.710641  54.020592  1.67492
20374 1  -65.724536  55.440524  1.67492
20375 1  -64.501786  56.162523  1.67492
20376 1  -66.933391  53.298593  1.67492
20377 1  -68.170036  53.996525  1.67492
20378 1  -68.183931  55.416457  1.67492
20379 1  -66.961181  56.138457  1.67492
20380 1  -69.392785  53.274526  1.67492
20381 1  -70.629430  53.972459  1.67492
20382 1  -70.643325  55.392391  1.67492
20383 1  -69.420575  56.114390  1.67492
20384 1  -71.852180  53.250459  1.67492
20385 1  -73.088824  53.948392  1.67492
20386 1  -73.102719  55.368324  1.67492
20387 1  -71.879970  56.090323  1.67492
20388 1  -74.311574  53.226393  1.67492
20389 1  -75.548219  53.924325  1.67492
20390 1  -75.562114  55.344257  1.67492
20391 1  -74.339364  56.066257  1.67492
20392 1  -76.770969  53.202326  1.67492
20393 1  -78.007613  53.900259  1.67492
20394 1  -78.021508  55.320191  1.67492
20395 1  -76.798758  56.042190  1.67492
20396 1  -79.230363  53.178259  1.67492
20397 1  -80.467008  53.876192  1.67492
20398 1  -80.480903  55.296124  1.67492
20399 1  -79.258153  56.018123  1.67492
20400 1  -81.689757  53.154193  1.67492
20401 1  -82.926402  53.852125  1.67492
20402 1  -82.940297  55.272058  1.67492
20403 1  -81.717547  55.994057  1.67492
20404 1  -84.149152  53.130126  1.67492
20405 1  -85.385796  53.828059  1.67492
20406 1  -85.399691  55.247991  1.67492
20407 1  -84.176942  55.969990  1.67492
20408 1  -86.608546  53.106060  1.67492
20409 1  -87.845191  53.803992  1.67492
20410 1  -87.859086  55.223924  1.67492
20411 1  -86.636336  55.945924  1.67492
20412 1  -89.067941  53.081993  1.67492
20413 1  -90.304585  53.779926  1.67492
20414 1  -90.318480  55.199858  1.67492
20415 1  -89.095730  55.921857  1.67492
20416 1  -91.527335  53.057926  1.67492
20417 1  -92.763980  53.755859  1.67492
20418 1  -92.777875  55.175791  1.67492
20419 1  -91.555125  55.897790  1.67492
20420 1  -93.986729  53.033860  1.67492
20421 1  -95.223374  53.731792  1.67492
20422 1  -95.237269  55.151724  1.67492
20423 1  -94.014519  55.873724  1.67492
20424 1  -96.446124  53.009793  1.67492
20425 1  -97.682768  53.707726  1.67492
20426 1  -97.696663  55.127658  1.67492
20427 1  -96.473914  55.849657  1.67492
20428 1  -98.905518  52.985726  1.67492
20429 1 -100.142163  53.683659  1.67492
20430 1 -100.156058  55.103591  1.67492
20431 1  -98.933308  55.825590  1.67492
20432 1 -101.364913  52.961660  1.67492
20433 1 -102.601557  53.659592  1.67492
20434 1 -102.615452  55.079524  1.67492
20435 1 -101.392702  55.801524  1.67492
20436 1 -103.824307  52.937593  1.67492
20437 1 -105.060952  53.635526  1.67492
20438 1 -105.074847  55.055458  1.67492
20439 1 -103.852097  55.777457  1.67492
20440 1 -106.283701  52.913526  1.67492
20441 1 -107.520346  53.611459  1.67492
20442 1 -107.534241  55.031391  1.67492
20443 1 -106.311491  55.753390  1.67492
20444 1 -108.743096  52.889460  1.67492
20445 1 -108.770886  55.729324  1.67492
20446 1  107.641926  59.267120  1.67492
20447 1  106.405282  59.965053  1.67492
20448 1  106.391387  61.384985  1.67492
20449 1  107.614137  62.106985  1.67492
20450 1  105.182532  59.243054  1.67492
20451 1  103.945887  59.940987  1.67492
20452 1  103.931993  61.360919  1.67492
20453 1  105.154742  62.082918  1.67492
20454 1  102.723138  59.218987  1.67492
20455 1  101.486493  59.916920  1.67492
20456 1  101.472598  61.336852  1.67492
20457 1  102.695348  62.058851  1.67492
20458 1  100.263743  59.194921  1.67492
20459 1   99.027099  59.892853  1.67492
20460 1   99.013204  61.312785  1.67492
20461 1  100.235953  62.034785  1.67492
20462 1   97.804349  59.170854  1.67492
20463 1   96.567704  59.868787  1.67492
20464 1   96.553809  61.288719  1.67492
20465 1   97.776559  62.010718  1.67492
20466 1   95.344954  59.146787  1.67492
20467 1   94.108310  59.844720  1.67492
20468 1   94.094415  61.264652  1.67492
20469 1   95.317165  61.986651  1.67492
20470 1   92.885560  59.122721  1.67492
20471 1   91.648915  59.820653  1.67492
20472 1   91.635021  61.240585  1.67492
20473 1   92.857770  61.962585  1.67492
20474 1   90.426166  59.098654  1.67492
20475 1   89.189521  59.796587  1.67492
20476 1   89.175626  61.216519  1.67492
20477 1   90.398376  61.938518  1.67492
20478 1   87.966771  59.074587  1.67492
20479 1   86.730127  59.772520  1.67492
20480 1   86.716232  61.192452  1.67492
20481 1   87.938981  61.914451  1.67492
20482 1   85.507377  59.050521  1.67492
20483 1   84.270732  59.748453  1.67492
20484 1   84.256837  61.168385  1.67492
20485 1   85.479587  61.890385  1.67492
20486 1   83.047982  59.026454  1.67492
20487 1   81.811338  59.724387  1.67492
20488 1   81.797443  61.144319  1.67492
20489 1   83.020193  61.866318  1.67492
20490 1   80.588588  59.002387  1.67492
20491 1   79.351943  59.700320  1.67492
20492 1   79.338049  61.120252  1.67492
20493 1   80.560798  61.842251  1.67492
20494 1   78.129194  58.978321  1.67492
20495 1   76.892549  59.676253  1.67492
20496 1   76.878654  61.096185  1.67492
20497 1   78.101404  61.818185  1.67492
20498 1   75.669799  58.954254  1.67492
20499 1   74.433155  59.652187  1.67492
20500 1   74.419260  61.072119  1.67492
20501 1   75.642010  61.794118  1.67492
20502 1   73.210405  58.930187  1.67492
20503 1   71.973760  59.628120  1.67492
20504 1   71.959865  61.048052  1.67492
20505 1   73.182615  61.770051  1.67492
20506 1   70.751010  58.906121  1.67492
20507 1   69.514366  59.604053  1.67492
20508 1   69.500471  61.023986  1.67492
20509 1   70.723221  61.745985  1.67492
20510 1   68.291616  58.882054  1.67492
20511 1   67.054971  59.579987  1.67492
20512 1   67.041077  60.999919  1.67492
20513 1   68.263826  61.721918  1.67492
20514 1   65.832222  58.857988  1.67492
20515 1   64.595577  59.555920  1.67492
20516 1   64.581682  60.975852  1.67492
20517 1   65.804432  61.697852  1.67492
20518 1   63.372827  58.833921  1.67492
20519 1   62.136183  59.531854  1.67492
20520 1   62.122288  60.951786  1.67492
20521 1   63.345038  61.673785  1.67492
20522 1   60.913433  58.809854  1.67492
20523 1   59.676788  59.507787  1.67492
20524 1   59.662893  60.927719  1.67492
20525 1   60.885643  61.649718  1.67492
20526 1   58.454039  58.785788  1.67492
20527 1   57.217394  59.483720  1.67492
20528 1   57.203499  60.903652  1.67492
20529 1   58.426249  61.625652  1.67492
20530 1   55.994644  58.761721  1.67492
20531 1   54.757999  59.459654  1.67492
20532 1   54.744105  60.879586  1.67492
20533 1   55.966854  61.601585  1.67492
20534 1   53.535250  58.737654  1.67492
20535 1   52.298605  59.435587  1.67492
20536 1   52.284710  60.855519  1.67492
20537 1   53.507460  61.577518  1.67492
20538 1   51.075855  58.713588  1.67492
20539 1   49.839211  59.411520  1.67492
20540 1   49.825316  60.831452  1.67492
20541 1   51.048066  61.553452  1.67492
20542 1   48.616461  58.689521  1.67492
20543 1   47.379816  59.387454  1.67492
20544 1   47.365921  60.807386  1.67492
20545 1   48.588671  61.529385  1.67492
20546 1   46.157067  58.665454  1.67492
20547 1   44.920422  59.363387  1.67492
20548 1   44.906527  60.783319  1.67492
20549 1   46.129277  61.505318  1.67492
20550 1   43.697672  58.641388  1.67492
20551 1   42.461027  59.339320  1.67492
20552 1   42.447133  60.759252  1.67492
20553 1   43.669882  61.481252  1.67492
20554 1   41.238278  58.617321  1.67492
20555 1   40.001633  59.315254  1.67492
20556 1   39.987738  60.735186  1.67492
20557 1   41.210488  61.457185  1.67492
20558 1   38.778883  58.593254  1.67492
20559 1   37.542239  59.291187  1.67492
20560 1   37.528344  60.711119  1.67492
20561 1   38.751094  61.433118  1.67492
20562 1   36.319489  58.569188  1.67492
20563 1   35.082844  59.267120  1.67492
20564 1   35.068949  60.687052  1.67492
20565 1   36.291699  61.409052  1.67492
20566 1   33.860095  58.545121  1.67492
20567 1   32.623450  59.243054  1.67492
20568 1   32.609555  60.662986  1.67492
20569 1   33.832305  61.384985  1.67492
20570 1   31.400700  58.521055  1.67492
20571 1   30.164056  59.218987  1.67492
20572 1   30.150161  60.638919  1.67492
20573 1   31.372910  61.360919  1.67492
20574 1   28.941306  58.496988  1.67492
20575 1   27.704661  59.194921  1.67492
20576 1   27.690766  60.614853  1.67492
20577 1   28.913516  61.336852  1.67492
20578 1   26.481911  58.472921  1.67492
20579 1   25.245267  59.170854  1.67492
20580 1   25.231372  60.590786  1.67492
20581 1   26.454122  61.312785  1.67492
20582 1   24.022517  58.448855  1.67492
20583 1   22.785872  59.146787  1.67492
20584 1   22.771977  60.566719  1.67492
20585 1   23.994727  61.288719  1.67492
20586 1   21.563123  58.424788  1.67492
20587 1   20.326478  59.122721  1.67492
20588 1   20.312583  60.542653  1.67492
20589 1   21.535333  61.264652  1.67492
20590 1   19.103728  58.400721  1.67492
20591 1   17.867084  59.098654  1.67492
20592 1   17.853189  60.518586  1.67492
20593 1   19.075938  61.240585  1.67492
20594 1   16.644334  58.376655  1.67492
20595 1   15.407689  59.074587  1.67492
20596 1   15.393794  60.494519  1.67492
20597 1   16.616544  61.216519  1.67492
20598 1   14.184939  58.352588  1.67492
20599 1   12.948295  59.050521  1.67492
20600 1   12.934400  60.470453  1.67492
20601 1   14.157150  61.192452  1.67492
20602 1   11.725545  58.328521  1.67492
20603 1   10.488900  59.026454  1.67492
20604 1   10.475005  60.446386  1.67492
20605 1   11.697755  61.168385  1.67492
20606 1    9.266151  58.304455  1.67492
20607 1    8.029506  59.002387  1.67492
20608 1    8.015611  60.422319  1.67492
20609 1    9.238361  61.144319  1.67492
20610 1    6.806756  58.280388  1.67492
20611 1    5.570112  58.978321  1.67492
20612 1    5.556217  60.398253  1.67492
20613 1    6.778966  61.120252  1.67492
20614 1    4.347362  58.256321  1.67492
20615 1    3.110717  58.954254  1.67492
20616 1    3.096822  60.374186  1.67492
20617 1    4.319572  61.096185  1.67492
20618 1    1.887967  58.232255  1.67492
20619 1    0.651323  58.930187  1.67492
20620 1    0.637428  60.350119  1.67492
20621 1    1.860178  61.072119  1.67492
20622 1   -0.571427  58.208188  1.67492
20623 1   -1.808072  58.906121  1.67492
20624 1   -1.821967  60.326053  1.67492
20625 1   -0.599217  61.048052  1.67492
20626 1   -3.030821  58.184121  1.67492
20627 1   -4.267466  58.882054  1.67492
20628 1   -4.281361  60.301986  1.67492
20629 1   -3.058611  61.023986  1.67492
20630 1   -5.490216  58.160055  1.67492
20631 1   -6.726860  58.857988  1.67492
20632 1   -6.740755  60.277920  1.67492
20633 1   -5.518006  60.999919  1.67492
20634 1   -7.949610  58.135988  1.67492
20635 1   -9.186255  58.833921  1.67492
20636 1   -9.200150  60.253853  1.67492
20637 1   -7.977400  60.975852  1.67492
20638 1  -10.409005  58.111922  1.67492
20639 1  -11.645649  58.809854  1.67492
20640 1  -11.659544  60.229786  1.67492
20641 1  -10.436794  60.951786  1.67492
20642 1  -12.868399  58.087855  1.67492
20643 1  -14.105044  58.785788  1.67492
20644 1  -14.118939  60.205720  1.67492
20645 1  -12.896189  60.927719  1.67492
20646 1  -15.327793  58.063788  1.67492
20647 1  -16.564438  58.761721  1.67492
20648 1  -16.578333  60.181653  1.67492
20649 1  -15.355583  60.903652  1.67492
20650 1  -17.787188  58.039722  1.67492
20651 1  -19.023832  58.737654  1.67492
20652 1  -19.037727  60.157586  1.67492
20653 1  -17.814978  60.879586  1.67492
20654 1  -20.246582  58.015655  1.67492
20655 1  -21.483227  58.713588  1.67492
20656 1  -21.497122  60.133520  1.67492
20657 1  -20.274372  60.855519  1.67492
20658 1  -22.705977  57.991588  1.67492
20659 1  -23.942621  58.689521  1.67492
20660 1  -23.956516  60.109453  1.67492
20661 1  -22.733766  60.831452  1.67492
20662 1  -25.165371  57.967522  1.67492
20663 1  -26.402016  58.665454  1.67492
20664 1  -26.415910  60.085386  1.67492
20665 1  -25.193161  60.807386  1.67492
20666 1  -27.624765  57.943455  1.67492
20667 1  -28.861410  58.641388  1.67492
20668 1  -28.875305  60.061320  1.67492
20669 1  -27.652555  60.783319  1.67492
20670 1  -30.084160  57.919388  1.67492
20671 1  -31.320804  58.617321  1.67492
20672 1  -31.334699  60.037253  1.67492
20673 1  -30.111950  60.759252  1.67492
20674 1  -32.543554  57.895322  1.67492
20675 1  -33.780199  58.593254  1.67492
20676 1  -33.794094  60.013186  1.67492
20677 1  -32.571344  60.735186  1.67492
20678 1  -35.002949  57.871255  1.67492
20679 1  -36.239593  58.569188  1.67492
20680 1  -36.253488  59.989120  1.67492
20681 1  -35.030738  60.711119  1.67492
20682 1  -37.462343  57.847188  1.67492
20683 1  -38.698988  58.545121  1.67492
20684 1  -38.712882  59.965053  1.67492
20685 1  -37.490133  60.687052  1.67492
20686 1  -39.921737  57.823122  1.67492
20687 1  -41.158382  58.521055  1.67492
20688 1  -41.172277  59.940987  1.67492
20689 1  -39.949527  60.662986  1.67492
20690 1  -42.381132  57.799055  1.67492
20691 1  -43.617776  58.496988  1.67492
20692 1  -43.631671  59.916920  1.67492
20693 1  -42.408922  60.638919  1.67492
20694 1  -44.840526  57.774989  1.67492
20695 1  -46.077171  58.472921  1.67492
20696 1  -46.091066  59.892853  1.67492
20697 1  -44.868316  60.614853  1.67492
20698 1  -47.299921  57.750922  1.67492
20699 1  -48.536565  58.448855  1.67492
20700 1  -48.550460  59.868787  1.67492
20701 1  -47.327710  60.590786  1.67492
20702 1  -49.759315  57.726855  1.67492
20703 1  -50.995960  58.424788  1.67492
20704 1  -51.009854  59.844720  1.67492
20705 1  -49.787105  60.566719  1.67492
20706 1  -52.218709  57.702789  1.67492
20707 1  -53.455354  58.400721  1.67492
20708 1  -53.469249  59.820653  1.67492
20709 1  -52.246499  60.542653  1.67492
20710 1  -54.678104  57.678722  1.67492
20711 1  -55.914748  58.376655  1.67492
20712 1  -55.928643  59.796587  1.67492
20713 1  -54.705893  60.518586  1.67492
20714 1  -57.137498  57.654655  1.67492
20715 1  -58.374143  58.352588  1.67492
20716 1  -58.388038  59.772520  1.67492
20717 1  -57.165288  60.494519  1.67492
20718 1  -59.596893  57.630589  1.67492
20719 1  -60.833537  58.328521  1.67492
20720 1  -60.847432  59.748453  1.67492
20721 1  -59.624682  60.470453  1.67492
20722 1  -62.056287  57.606522  1.67492
20723 1  -63.292932  58.304455  1.67492
20724 1  -63.306826  59.724387  1.67492
20725 1  -62.084077  60.446386  1.67492
20726 1  -64.515681  57.582455  1.67492
20727 1  -65.752326  58.280388  1.67492
20728 1  -65.766221  59.700320  1.67492
20729 1  -64.543471  60.422319  1.67492
20730 1  -66.975076  57.558389  1.67492
20731 1  -68.211720  58.256321  1.67492
20732 1  -68.225615  59.676253  1.67492
20733 1  -67.002865  60.398253  1.67492
20734 1  -69.434470  57.534322  1.67492
20735 1  -70.671115  58.232255  1.67492
20736 1  -70.685010  59.652187  1.67492
20737 1  -69.462260  60.374186  1.67492
20738 1  -71.893864  57.510255  1.67492
20739 1  -73.130509  58.208188  1.67492
20740 1  -73.144404  59.628120  1.67492
20741 1  -71.921654  60.350119  1.67492
20742 1  -74.353259  57.486189  1.67492
20743 1  -75.589904  58.184121  1.67492
20744 1  -75.603798  59.604053  1.67492
20745 1  -74.381049  60.326053  1.67492
20746 1  -76.812653  57.462122  1.67492
20747 1  -78.049298  58.160055  1.67492
20748 1  -78.063193  59.579987  1.67492
20749 1  -76.840443  60.301986  1.67492
20750 1  -79.272048  57.438056  1.67492
20751 1  -80.508692  58.135988  1.67492
20752 1  -80.522587  59.555920  1.67492
20753 1  -79.299837  60.277920  1.67492
20754 1  -81.731442  57.413989  1.67492
20755 1  -82.968087  58.111922  1.67492
20756 1  -82.981982  59.531854  1.67492
20757 1  -81.759232  60.253853  1.67492
20758 1  -84.190836  57.389922  1.67492
20759 1  -85.427481  58.087855  1.67492
20760 1  -85.441376  59.507787  1.67492
20761 1  -84.218626  60.229786  1.67492
20762 1  -86.650231  57.365856  1.67492
20763 1  -87.886876  58.063788  1.67492
20764 1  -87.900770  59.483720  1.67492
20765 1  -86.678021  60.205720  1.67492
20766 1  -89.109625  57.341789  1.67492
20767 1  -90.346270  58.039722  1.67492
20768 1  -90.360165  59.459654  1.67492
20769 1  -89.137415  60.181653  1.67492
20770 1  -91.569020  57.317722  1.67492
20771 1  -92.805664  58.015655  1.67492
20772 1  -92.819559  59.435587  1.67492
20773 1  -91.596809  60.157586  1.67492
20774 1  -94.028414  57.293656  1.67492
20775 1  -95.265059  57.991588  1.67492
20776 1  -95.278954  59.411520  1.67492
20777 1  -94.056204  60.133520  1.67492
20778 1  -96.487808  57.269589  1.67492
20779 1  -97.724453  57.967522  1.67492
20780 1  -97.738348  59.387454  1.67492
20781 1  -96.515598  60.109453  1.67492
20782 1  -98.947203  57.245522  1.67492
20783 1 -100.183847  57.943455  1.67492
20784 1 -100.197742  59.363387  1.67492
20785 1  -98.974993  60.085386  1.67492
20786 1 -101.406597  57.221456  1.67492
20787 1 -102.643242  57.919388  1.67492
20788 1 -102.657137  59.339320  1.67492
20789 1 -101.434387  60.061320  1.67492
20790 1 -103.865992  57.197389  1.67492
20791 1 -105.102636  57.895322  1.67492
20792 1 -105.116531  59.315254  1.67492
20793 1 -103.893781  60.037253  1.67492
20794 1 -106.325386  57.173322  1.67492
20795 1 -107.562031  57.871255  1.67492
20796 1 -107.575926  59.291187  1.67492
20797 1 -106.353176  60.013186  1.67492
20798 1 -108.784780  57.149256  1.67492
20799 1 -108.812570  59.989120  1.67492
20800 1   36.277804  62.828984  1.67492
20801 1   33.818410  62.804917  1.67492
20802 1   31.359015  62.780851  1.67492
20803 1   28.899621  62.756784  1.67492
20804 1   26.440227  62.732717  1.67492
20805 1   23.980832  62.708651  1.67492
20806 1   21.521438  62.684584  1.67492
20807 1   19.062044  62.660517  1.67492
20808 1   16.602649  62.636451  1.67492
20809 1   14.143255  62.612384  1.67492
20810 1   11.683860  62.588317  1.67492
20811 1    9.224466  62.564251  1.67492
20812 1    6.765072  62.540184  1.67492
20813 1    4.305677  62.516117  1.67492
20814 1    1.846283  62.492051  1.67492
20815 1   -0.613112  62.467984  1.67492
20816 1   -3.072506  62.443918  1.67492
20817 1   -5.531900  62.419851  1.67492
20818 1   -7.991295  62.395784  1.67492
20819 1  -10.450689  62.371718  1.67492
20820 1  -12.910084  62.347651  1.67492
20821 1  -15.369478  62.323584  1.67492
20822 1  -17.828872  62.299518  1.67492
20823 1  -20.288267  62.275451  1.67492
20824 1  -22.747661  62.251384  1.67492
20825 1  -25.207056  62.227318  1.67492
20826 1  -27.666450  62.203251  1.67492
20827 1  -30.125844  62.179184  1.67492
20828 1  -32.585239  62.155118  1.67492
20829 1  -35.044633  62.131051  1.67492
20830 1  -36.281278  62.828984  1.67492
20831 1  -37.504028  62.106985  1.67492
20832 1  -38.740672  62.804917  1.67492
20833 1  -39.963422  62.082918  1.67492
20834 1  -41.200067  62.780851  1.67492
20835 1  -42.422816  62.058851  1.67492
20836 1  -43.659461  62.756784  1.67492
20837 1  -44.882211  62.034785  1.67492
20838 1  -46.118855  62.732717  1.67492
20839 1  -47.341605  62.010718  1.67492
20840 1  -48.578250  62.708651  1.67492
20841 1  -49.801000  61.986651  1.67492
20842 1  -51.037644  62.684584  1.67492
20843 1  -52.260394  61.962585  1.67492
20844 1  -53.497039  62.660517  1.67492
20845 1  -54.719788  61.938518  1.67492
20846 1  -55.956433  62.636451  1.67492
20847 1  -57.179183  61.914451  1.67492
20848 1  -58.415827  62.612384  1.67492
20849 1  -59.638577  61.890385  1.67492
20850 1  -60.875222  62.588317  1.67492
20851 1  -62.097972  61.866318  1.67492
20852 1  -63.334616  62.564251  1.67492
20853 1  -64.557366  61.842251  1.67492
20854 1  -65.794011  62.540184  1.67492
20855 1  -67.016760  61.818185  1.67492
20856 1  -68.253405  62.516117  1.67492
20857 1  -69.476155  61.794118  1.67492
20858 1  -70.712799  62.492051  1.67492
20859 1  -71.935549  61.770051  1.67492
20860 1  -73.172194  62.467984  1.67492
20861 1  -74.394944  61.745985  1.67492
20862 1  -75.631588  62.443918  1.67492
20863 1  -76.854338  61.721918  1.67492
20864 1  -78.090983  62.419851  1.67492
20865 1  -79.313732  61.697852  1.67492
20866 1  -80.550377  62.395784  1.67492
20867 1  -81.773127  61.673785  1.67492
20868 1  -83.009771  62.371718  1.67492
20869 1  -84.232521  61.649718  1.67492
20870 1  -85.469166  62.347651  1.67492
20871 1  -86.691916  61.625652  1.67492
20872 1  -87.928560  62.323584  1.67492
20873 1  -89.151310  61.601585  1.67492
20874 1  -90.387955  62.299518  1.67492
20875 1  -91.610704  61.577518  1.67492
20876 1  -92.847349  62.275451  1.67492
20877 1  -94.070099  61.553452  1.67492
20878 1  -95.306743  62.251384  1.67492
20879 1  -96.529493  61.529385  1.67492
20880 1  -97.766138  62.227318  1.67492
20881 1  -98.988888  61.505318  1.67492
20882 1 -100.225532  62.203251  1.67492
20883 1 -101.448282  61.481252  1.67492
20884 1 -102.684927  62.179184  1.67492
20885 1 -103.907676  61.457185  1.67492
20886 1 -105.144321  62.155118  1.67492
20887 1 -106.367071  61.433118  1.67492
20888 1 -107.603715  62.131051  1.67492
20889 1 -108.826465  61.409052  1.67492