# Lorenzo Manunza 6th May 2024

# INITIALIZATION
#---------------
units           metal
atom_style      atomic
boundary        p p p
atom_style      atomic

# ATOMS
#------
read_data       atoms.dat

# POTENTIAL
#----------
pair_style      airebo 5.0 0 0
pair_coeff * * CH.airebo C   
delete_atoms    overlap 0.2 all all       

# OUTPUTS
#--------
dump            1 all custom 1 XFSET id xu yu zu fx fy fz 
dump_modify     1 format float "%20.15f"

# RUN
#----
run             0