# Lorenzo Manunza 14th April 2025

23818 atoms
1 atom types

-116.21683 116.21683 xlo xhi
-67.10345 67.09218 ylo yhi
-10001.67500 9998.32500 zlo zhi

Masses

1 12.011 # C

Atoms

    1 1   38.738943 -67.103452 -1.675
    2 1   36.279534 -67.080913 -1.675
    3 1   33.820125 -67.058374 -1.675
    4 1   31.360716 -67.035835 -1.675
    5 1   28.901307 -67.013297 -1.675
    6 1   26.441899 -66.990758 -1.675
    7 1   23.982490 -66.968219 -1.675
    8 1   21.523081 -66.945680 -1.675
    9 1   19.063672 -66.923142 -1.675
   10 1   16.604263 -66.900603 -1.675
   11 1   14.144854 -66.878064 -1.675
   12 1   11.685445 -66.855526 -1.675
   13 1    9.226036 -66.832987 -1.675
   14 1    6.766628 -66.810448 -1.675
   15 1    4.307219 -66.787909 -1.675
   16 1    1.847810 -66.765371 -1.675
   17 1   -0.611599 -66.742832 -1.675
   18 1   -3.071008 -66.720293 -1.675
   19 1   -5.530417 -66.697754 -1.675
   20 1   -7.989826 -66.675216 -1.675
   21 1  -10.449235 -66.652677 -1.675
   22 1  -12.908643 -66.630138 -1.675
   23 1  -15.368052 -66.607599 -1.675
   24 1  -17.827461 -66.585061 -1.675
   25 1  -20.286870 -66.562522 -1.675
   26 1  -22.746279 -66.539983 -1.675
   27 1  -25.205688 -66.517444 -1.675
   28 1  -27.665097 -66.494906 -1.675
   29 1  -30.124506 -66.472367 -1.675
   30 1  -32.583914 -66.449828 -1.675
   31 1  -35.043323 -66.427290 -1.675
   32 1  -37.502732 -66.404751 -1.675
   33 1  -41.198352 -67.080913 -1.675
   34 1  -39.962141 -66.382212 -1.675
   35 1  -43.657761 -67.058374 -1.675
   36 1  -42.421550 -66.359673 -1.675
   37 1  -46.117170 -67.035835 -1.675
   38 1  -44.880959 -66.337135 -1.675
   39 1  -48.576578 -67.013297 -1.675
   40 1  -47.340368 -66.314596 -1.675
   41 1  -51.035987 -66.990758 -1.675
   42 1  -49.799776 -66.292057 -1.675
   43 1  -53.495396 -66.968219 -1.675
   44 1  -52.259185 -66.269518 -1.675
   45 1  -55.954805 -66.945680 -1.675
   46 1  -54.718594 -66.246980 -1.675
   47 1  -58.414214 -66.923142 -1.675
   48 1  -57.178003 -66.224441 -1.675
   49 1  -60.873623 -66.900603 -1.675
   50 1  -59.637412 -66.201902 -1.675
   51 1  -63.333032 -66.878064 -1.675
   52 1  -62.096821 -66.179363 -1.675
   53 1  -65.792441 -66.855526 -1.675
   54 1  -64.556230 -66.156825 -1.675
   55 1  -68.251849 -66.832987 -1.675
   56 1  -67.015639 -66.134286 -1.675
   57 1  -70.711258 -66.810448 -1.675
   58 1  -69.475047 -66.111747 -1.675
   59 1  -73.170667 -66.787909 -1.675
   60 1  -71.934456 -66.089208 -1.675
   61 1  -75.630076 -66.765371 -1.675
   62 1  -74.393865 -66.066670 -1.675
   63 1  -78.089485 -66.742832 -1.675
   64 1  -76.853274 -66.044131 -1.675
   65 1  -80.548894 -66.720293 -1.675
   66 1  -79.312683 -66.021592 -1.675
   67 1  -83.008303 -66.697754 -1.675
   68 1  -81.772092 -65.999054 -1.675
   69 1  -85.467712 -66.675216 -1.675
   70 1  -84.231501 -65.976515 -1.675
   71 1  -87.927120 -66.652677 -1.675
   72 1  -86.690910 -65.953976 -1.675
   73 1  -90.386529 -66.630138 -1.675
   74 1  -89.150318 -65.931437 -1.675
   75 1  -92.845938 -66.607599 -1.675
   76 1  -91.609727 -65.908899 -1.675
   77 1  -95.305347 -66.585061 -1.675
   78 1  -94.069136 -65.886360 -1.675
   79 1  -97.764756 -66.562522 -1.675
   80 1  -96.528545 -65.863821 -1.675
   81 1 -100.224165 -66.539983 -1.675
   82 1  -98.987954 -65.841282 -1.675
   83 1 -102.683574 -66.517444 -1.675
   84 1 -101.447363 -65.818744 -1.675
   85 1 -105.142983 -66.494906 -1.675
   86 1 -103.906772 -65.796205 -1.675
   87 1 -107.602391 -66.472367 -1.675
   88 1 -106.366181 -65.773666 -1.675
   89 1 -110.061800 -66.449828 -1.675
   90 1 -108.825589 -65.751127 -1.675
   91 1 -112.521209 -66.427290 -1.675
   92 1 -111.284998 -65.728589 -1.675
   93 1 -114.980618 -66.404751 -1.675
   94 1 -113.744407 -65.706050 -1.675
   95 1 -116.203816 -65.683511 -1.675
   96 1  114.993631 -66.382212 -1.675
   97 1  113.770433 -65.660973 -1.675
   98 1  113.783445 -64.241032 -1.675
   99 1  115.019656 -63.542331 -1.675
  100 1  112.534222 -66.359673 -1.675
  101 1  111.311024 -65.638434 -1.675
  102 1  111.324037 -64.218493 -1.675
  103 1  112.560247 -63.519793 -1.675
  104 1  110.074813 -66.337135 -1.675
  105 1  108.851615 -65.615895 -1.675
  106 1  108.864628 -64.195955 -1.675
  107 1  110.100838 -63.497254 -1.675
  108 1  107.615404 -66.314596 -1.675
  109 1  106.392206 -65.593356 -1.675
  110 1  106.405219 -64.173416 -1.675
  111 1  107.641430 -63.474715 -1.675
  112 1  105.155995 -66.292057 -1.675
  113 1  103.932797 -65.570818 -1.675
  114 1  103.945810 -64.150877 -1.675
  115 1  105.182021 -63.452176 -1.675
  116 1  102.696586 -66.269518 -1.675
  117 1  101.473388 -65.548279 -1.675
  118 1  101.486401 -64.128338 -1.675
  119 1  102.722612 -63.429638 -1.675
  120 1  100.237178 -66.246980 -1.675
  121 1   99.013979 -65.525740 -1.675
  122 1   99.026992 -64.105800 -1.675
  123 1  100.263203 -63.407099 -1.675
  124 1   97.777769 -66.224441 -1.675
  125 1   96.554571 -65.503201 -1.675
  126 1   96.567583 -64.083261 -1.675
  127 1   97.803794 -63.384560 -1.675
  128 1   95.318360 -66.201902 -1.675
  129 1   94.095162 -65.480663 -1.675
  130 1   94.108174 -64.060722 -1.675
  131 1   95.344385 -63.362021 -1.675
  132 1   92.858951 -66.179363 -1.675
  133 1   91.635753 -65.458124 -1.675
  134 1   91.648766 -64.038184 -1.675
  135 1   92.884976 -63.339483 -1.675
  136 1   90.399542 -66.156825 -1.675
  137 1   89.176344 -65.435585 -1.675
  138 1   89.189357 -64.015645 -1.675
  139 1   90.425568 -63.316944 -1.675
  140 1   87.940133 -66.134286 -1.675
  141 1   86.716935 -65.413046 -1.675
  142 1   86.729948 -63.993106 -1.675
  143 1   87.966159 -63.294405 -1.675
  144 1   85.480724 -66.111747 -1.675
  145 1   84.257526 -65.390508 -1.675
  146 1   84.270539 -63.970567 -1.675
  147 1   85.506750 -63.271866 -1.675
  148 1   83.021315 -66.089208 -1.675
  149 1   81.798117 -65.367969 -1.675
  150 1   81.811130 -63.948029 -1.675
  151 1   83.047341 -63.249328 -1.675
  152 1   80.561907 -66.066670 -1.675
  153 1   79.338708 -65.345430 -1.675
  154 1   79.351721 -63.925490 -1.675
  155 1   80.587932 -63.226789 -1.675
  156 1   78.102498 -66.044131 -1.675
  157 1   76.879300 -65.322891 -1.675
  158 1   76.892312 -63.902951 -1.675
  159 1   78.128523 -63.204250 -1.675
  160 1   75.643089 -66.021592 -1.675
  161 1   74.419891 -65.300353 -1.675
  162 1   74.432903 -63.880412 -1.675
  163 1   75.669114 -63.181712 -1.675
  164 1   73.183680 -65.999054 -1.675
  165 1   71.960482 -65.277814 -1.675
  166 1   71.973495 -63.857874 -1.675
  167 1   73.209705 -63.159173 -1.675
  168 1   70.724271 -65.976515 -1.675
  169 1   69.501073 -65.255275 -1.675
  170 1   69.514086 -63.835335 -1.675
  171 1   70.750297 -63.136634 -1.675
  172 1   68.264862 -65.953976 -1.675
  173 1   67.041664 -65.232737 -1.675
  174 1   67.054677 -63.812796 -1.675
  175 1   68.290888 -63.114095 -1.675
  176 1   65.805453 -65.931437 -1.675
  177 1   64.582255 -65.210198 -1.675
  178 1   64.595268 -63.790257 -1.675
  179 1   65.831479 -63.091557 -1.675
  180 1   63.346044 -65.908899 -1.675
  181 1   62.122846 -65.187659 -1.675
  182 1   62.135859 -63.767719 -1.675
  183 1   63.372070 -63.069018 -1.675
  184 1   60.886636 -65.886360 -1.675
  185 1   59.663437 -65.165120 -1.675
  186 1   59.676450 -63.745180 -1.675
  187 1   60.912661 -63.046479 -1.675
  188 1   58.427227 -65.863821 -1.675
  189 1   57.204029 -65.142582 -1.675
  190 1   57.217041 -63.722641 -1.675
  191 1   58.453252 -63.023940 -1.675
  192 1   55.967818 -65.841282 -1.675
  193 1   54.744620 -65.120043 -1.675
  194 1   54.757632 -63.700102 -1.675
  195 1   55.993843 -63.001402 -1.675
  196 1   53.508409 -65.818744 -1.675
  197 1   52.285211 -65.097504 -1.675
  198 1   52.298224 -63.677564 -1.675
  199 1   53.534434 -62.978863 -1.675
  200 1   51.049000 -65.796205 -1.675
  201 1   49.825802 -65.074965 -1.675
  202 1   49.838815 -63.655025 -1.675
  203 1   51.075026 -62.956324 -1.675
  204 1   48.589591 -65.773666 -1.675
  205 1   47.366393 -65.052427 -1.675
  206 1   47.379406 -63.632486 -1.675
  207 1   48.615617 -62.933785 -1.675
  208 1   46.130182 -65.751127 -1.675
  209 1   44.906984 -65.029888 -1.675
  210 1   44.919997 -63.609948 -1.675
  211 1   46.156208 -62.911247 -1.675
  212 1   43.670773 -65.728589 -1.675
  213 1   42.447575 -65.007349 -1.675
  214 1   42.460588 -63.587409 -1.675
  215 1   43.696799 -62.888708 -1.675
  216 1   41.211365 -65.706050 -1.675
  217 1   39.988166 -64.984810 -1.675
  218 1   40.001179 -63.564870 -1.675
  219 1   41.237390 -62.866169 -1.675
  220 1   38.751956 -65.683511 -1.675
  221 1   37.528758 -64.962272 -1.675
  222 1   37.541770 -63.542331 -1.675
  223 1   38.777981 -62.843630 -1.675
  224 1   36.292547 -65.660973 -1.675
  225 1   35.069349 -64.939733 -1.675
  226 1   35.082361 -63.519793 -1.675
  227 1   36.318572 -62.821092 -1.675
  228 1   33.833138 -65.638434 -1.675
  229 1   32.609940 -64.917194 -1.675
  230 1   32.622953 -63.497254 -1.675
  231 1   33.859163 -62.798553 -1.675
  232 1   31.373729 -65.615895 -1.675
  233 1   30.150531 -64.894655 -1.675
  234 1   30.163544 -63.474715 -1.675
  235 1   31.399755 -62.776014 -1.675
  236 1   28.914320 -65.593356 -1.675
  237 1   27.691122 -64.872117 -1.675
  238 1   27.704135 -63.452176 -1.675
  239 1   28.940346 -62.753476 -1.675
  240 1   26.454911 -65.570818 -1.675
  241 1   25.231713 -64.849578 -1.675
  242 1   25.244726 -63.429638 -1.675
  243 1   26.480937 -62.730937 -1.675
  244 1   23.995502 -65.548279 -1.675
  245 1   22.772304 -64.827039 -1.675
  246 1   22.785317 -63.407099 -1.675
  247 1   24.021528 -62.708398 -1.675
  248 1   21.536094 -65.525740 -1.675
  249 1   20.312896 -64.804501 -1.675
  250 1   20.325908 -63.384560 -1.675
  251 1   21.562119 -62.685859 -1.675
  252 1   19.076685 -65.503201 -1.675
  253 1   17.853487 -64.781962 -1.675
  254 1   17.866499 -63.362021 -1.675
  255 1   19.102710 -62.663321 -1.675
  256 1   16.617276 -65.480663 -1.675
  257 1   15.394078 -64.759423 -1.675
  258 1   15.407091 -63.339483 -1.675
  259 1   16.643301 -62.640782 -1.675
  260 1   14.157867 -65.458124 -1.675
  261 1   12.934669 -64.736884 -1.675
  262 1   12.947682 -63.316944 -1.675
  263 1   14.183892 -62.618243 -1.675
  264 1   11.698458 -65.435585 -1.675
  265 1   10.475260 -64.714346 -1.675
  266 1   10.488273 -63.294405 -1.675
  267 1   11.724484 -62.595704 -1.675
  268 1    9.239049 -65.413046 -1.675
  269 1    8.015851 -64.691807 -1.675
  270 1    8.028864 -63.271866 -1.675
  271 1    9.265075 -62.573166 -1.675
  272 1    6.779640 -65.390508 -1.675
  273 1    5.556442 -64.669268 -1.675
  274 1    5.569455 -63.249328 -1.675
  275 1    6.805666 -62.550627 -1.675
  276 1    4.320231 -65.367969 -1.675
  277 1    3.097033 -64.646729 -1.675
  278 1    3.110046 -63.226789 -1.675
  279 1    4.346257 -62.528088 -1.675
  280 1    1.860823 -65.345430 -1.675
  281 1    0.637625 -64.624191 -1.675
  282 1    0.650637 -63.204250 -1.675
  283 1    1.886848 -62.505549 -1.675
  284 1   -0.598586 -65.322891 -1.675
  285 1   -1.821784 -64.601652 -1.675
  286 1   -1.808772 -63.181712 -1.675
  287 1   -0.572561 -62.483011 -1.675
  288 1   -3.057995 -65.300353 -1.675
  289 1   -4.281193 -64.579113 -1.675
  290 1   -4.268180 -63.159173 -1.675
  291 1   -3.031970 -62.460472 -1.675
  292 1   -5.517404 -65.277814 -1.675
  293 1   -6.740602 -64.556574 -1.675
  294 1   -6.727589 -63.136634 -1.675
  295 1   -5.491379 -62.437933 -1.675
  296 1   -7.976813 -65.255275 -1.675
  297 1   -9.200011 -64.534036 -1.675
  298 1   -9.186998 -63.114095 -1.675
  299 1   -7.950787 -62.415395 -1.675
  300 1  -10.436222 -65.232737 -1.675
  301 1  -11.659420 -64.511497 -1.675
  302 1  -11.646407 -63.091557 -1.675
  303 1  -10.410196 -62.392856 -1.675
  304 1  -12.895631 -65.210198 -1.675
  305 1  -14.118829 -64.488958 -1.675
  306 1  -14.105816 -63.069018 -1.675
  307 1  -12.869605 -62.370317 -1.675
  308 1  -15.355040 -65.187659 -1.675
  309 1  -16.578238 -64.466419 -1.675
  310 1  -16.565225 -63.046479 -1.675
  311 1  -15.329014 -62.347778 -1.675
  312 1  -17.814448 -65.165120 -1.675
  313 1  -19.037646 -64.443881 -1.675
  314 1  -19.024634 -63.023940 -1.675
  315 1  -17.788423 -62.325240 -1.675
  316 1  -20.273857 -65.142582 -1.675
  317 1  -21.497055 -64.421342 -1.675
  318 1  -21.484043 -63.001402 -1.675
  319 1  -20.247832 -62.302701 -1.675
  320 1  -22.733266 -65.120043 -1.675
  321 1  -23.956464 -64.398803 -1.675
  322 1  -23.943451 -62.978863 -1.675
  323 1  -22.707241 -62.280162 -1.675
  324 1  -25.192675 -65.097504 -1.675
  325 1  -26.415873 -64.376265 -1.675
  326 1  -26.402860 -62.956324 -1.675
  327 1  -25.166650 -62.257623 -1.675
  328 1  -27.652084 -65.074965 -1.675
  329 1  -28.875282 -64.353726 -1.675
  330 1  -28.862269 -62.933785 -1.675
  331 1  -27.626058 -62.235085 -1.675
  332 1  -30.111493 -65.052427 -1.675
  333 1  -31.334691 -64.331187 -1.675
  334 1  -31.321678 -62.911247 -1.675
  335 1  -30.085467 -62.212546 -1.675
  336 1  -32.570902 -65.029888 -1.675
  337 1  -33.794100 -64.308648 -1.675
  338 1  -33.781087 -62.888708 -1.675
  339 1  -32.544876 -62.190007 -1.675
  340 1  -35.030311 -65.007349 -1.675
  341 1  -36.253509 -64.286110 -1.675
  342 1  -36.240496 -62.866169 -1.675
  343 1  -35.004285 -62.167468 -1.675
  344 1  -37.489719 -64.984810 -1.675
  345 1  -38.712917 -64.263571 -1.675
  346 1  -38.699905 -62.843630 -1.675
  347 1  -37.463694 -62.144930 -1.675
  348 1  -39.949128 -64.962272 -1.675
  349 1  -41.172326 -64.241032 -1.675
  350 1  -41.159314 -62.821092 -1.675
  351 1  -39.923103 -62.122391 -1.675
  352 1  -42.408537 -64.939733 -1.675
  353 1  -43.631735 -64.218493 -1.675
  354 1  -43.618722 -62.798553 -1.675
  355 1  -42.382512 -62.099852 -1.675
  356 1  -44.867946 -64.917194 -1.675
  357 1  -46.091144 -64.195955 -1.675
  358 1  -46.078131 -62.776014 -1.675
  359 1  -44.841921 -62.077313 -1.675
  360 1  -47.327355 -64.894655 -1.675
  361 1  -48.550553 -64.173416 -1.675
  362 1  -48.537540 -62.753476 -1.675
  363 1  -47.301329 -62.054775 -1.675
  364 1  -49.786764 -64.872117 -1.675
  365 1  -51.009962 -64.150877 -1.675
  366 1  -50.996949 -62.730937 -1.675
  367 1  -49.760738 -62.032236 -1.675
  368 1  -52.246173 -64.849578 -1.675
  369 1  -53.469371 -64.128338 -1.675
  370 1  -53.456358 -62.708398 -1.675
  371 1  -52.220147 -62.009697 -1.675
  372 1  -54.705581 -64.827039 -1.675
  373 1  -55.928780 -64.105800 -1.675
  374 1  -55.915767 -62.685859 -1.675
  375 1  -54.679556 -61.987159 -1.675
  376 1  -57.164990 -64.804501 -1.675
  377 1  -58.388188 -64.083261 -1.675
  378 1  -58.375176 -62.663321 -1.675
  379 1  -57.138965 -61.964620 -1.675
  380 1  -59.624399 -64.781962 -1.675
  381 1  -60.847597 -64.060722 -1.675
  382 1  -60.834585 -62.640782 -1.675
  383 1  -59.598374 -61.942081 -1.675
  384 1  -62.083808 -64.759423 -1.675
  385 1  -63.307006 -64.038184 -1.675
  386 1  -63.293993 -62.618243 -1.675
  387 1  -62.057783 -61.919542 -1.675
  388 1  -64.543217 -64.736884 -1.675
  389 1  -65.766415 -64.015645 -1.675
  390 1  -65.753402 -62.595704 -1.675
  391 1  -64.517191 -61.897004 -1.675
  392 1  -67.002626 -64.714346 -1.675
  393 1  -68.225824 -63.993106 -1.675
  394 1  -68.212811 -62.573166 -1.675
  395 1  -66.976600 -61.874465 -1.675
  396 1  -69.462035 -64.691807 -1.675
  397 1  -70.685233 -63.970567 -1.675
  398 1  -70.672220 -62.550627 -1.675
  399 1  -69.436009 -61.851926 -1.675
  400 1  -71.921444 -64.669268 -1.675
  401 1  -73.144642 -63.948029 -1.675
  402 1  -73.131629 -62.528088 -1.675
  403 1  -71.895418 -61.829387 -1.675
  404 1  -74.380852 -64.646729 -1.675
  405 1  -75.604051 -63.925490 -1.675
  406 1  -75.591038 -62.505549 -1.675
  407 1  -74.354827 -61.806849 -1.675
  408 1  -76.840261 -64.624191 -1.675
  409 1  -78.063459 -63.902951 -1.675
  410 1  -78.050447 -62.483011 -1.675
  411 1  -76.814236 -61.784310 -1.675
  412 1  -79.299670 -64.601652 -1.675
  413 1  -80.522868 -63.880412 -1.675
  414 1  -80.509856 -62.460472 -1.675
  415 1  -79.273645 -61.761771 -1.675
  416 1  -81.759079 -64.579113 -1.675
  417 1  -82.982277 -63.857874 -1.675
  418 1  -82.969264 -62.437933 -1.675
  419 1  -81.733054 -61.739232 -1.675
  420 1  -84.218488 -64.556574 -1.675
  421 1  -85.441686 -63.835335 -1.675
  422 1  -85.428673 -62.415395 -1.675
  423 1  -84.192462 -61.716694 -1.675
  424 1  -86.677897 -64.534036 -1.675
  425 1  -87.901095 -63.812796 -1.675
  426 1  -87.888082 -62.392856 -1.675
  427 1  -86.651871 -61.694155 -1.675
  428 1  -89.137306 -64.511497 -1.675
  429 1  -90.360504 -63.790257 -1.675
  430 1  -90.347491 -62.370317 -1.675
  431 1  -89.111280 -61.671616 -1.675
  432 1  -91.596715 -64.488958 -1.675
  433 1  -92.819913 -63.767719 -1.675
  434 1  -92.806900 -62.347778 -1.675
  435 1  -91.570689 -61.649077 -1.675
  436 1  -94.056123 -64.466419 -1.675
  437 1  -95.279322 -63.745180 -1.675
  438 1  -95.266309 -62.325240 -1.675
  439 1  -94.030098 -61.626539 -1.675
  440 1  -96.515532 -64.443881 -1.675
  441 1  -97.738730 -63.722641 -1.675
  442 1  -97.725718 -62.302701 -1.675
  443 1  -96.489507 -61.604000 -1.675
  444 1  -98.974941 -64.421342 -1.675
  445 1 -100.198139 -63.700102 -1.675
  446 1 -100.185127 -62.280162 -1.675
  447 1  -98.948916 -61.581461 -1.675
  448 1 -101.434350 -64.398803 -1.675
  449 1 -102.657548 -63.677564 -1.675
  450 1 -102.644535 -62.257623 -1.675
  451 1 -101.408325 -61.558923 -1.675
  452 1 -103.893759 -64.376265 -1.675
  453 1 -105.116957 -63.655025 -1.675
  454 1 -105.103944 -62.235085 -1.675
  455 1 -103.867733 -61.536384 -1.675
  456 1 -106.353168 -64.353726 -1.675
  457 1 -107.576366 -63.632486 -1.675
  458 1 -107.563353 -62.212546 -1.675
  459 1 -106.327142 -61.513845 -1.675
  460 1 -108.812577 -64.331187 -1.675
  461 1 -110.035775 -63.609948 -1.675
  462 1 -110.022762 -62.190007 -1.675
  463 1 -108.786551 -61.491306 -1.675
  464 1 -111.271986 -64.308648 -1.675
  465 1 -112.495184 -63.587409 -1.675
  466 1 -112.482171 -62.167468 -1.675
  467 1 -111.245960 -61.468768 -1.675
  468 1 -113.731394 -64.286110 -1.675
  469 1 -114.954593 -63.564870 -1.675
  470 1 -114.941580 -62.144930 -1.675
  471 1 -113.705369 -61.446229 -1.675
  472 1 -116.190803 -64.263571 -1.675
  473 1 -116.164778 -61.423690 -1.675
  474 1  115.032669 -62.122391 -1.675
  475 1  113.809471 -61.401151 -1.675
  476 1  113.822484 -59.981211 -1.675
  477 1  115.058694 -59.282510 -1.675
  478 1  112.573260 -62.099852 -1.675
  479 1  111.350062 -61.378613 -1.675
  480 1  111.363075 -59.958672 -1.675
  481 1  112.599286 -59.259971 -1.675
  482 1  110.113851 -62.077313 -1.675
  483 1  108.890653 -61.356074 -1.675
  484 1  108.903666 -59.936134 -1.675
  485 1  110.139877 -59.237433 -1.675
  486 1  107.654442 -62.054775 -1.675
  487 1  106.431244 -61.333535 -1.675
  488 1  106.444257 -59.913595 -1.675
  489 1  107.680468 -59.214894 -1.675
  490 1  105.195033 -62.032236 -1.675
  491 1  103.971835 -61.310996 -1.675
  492 1  103.984848 -59.891056 -1.675
  493 1  105.221059 -59.192355 -1.675
  494 1  102.735625 -62.009697 -1.675
  495 1  101.512427 -61.288458 -1.675
  496 1  101.525439 -59.868517 -1.675
  497 1  102.761650 -59.169817 -1.675
  498 1  100.276216 -61.987159 -1.675
  499 1   99.053018 -61.265919 -1.675
  500 1   99.066030 -59.845979 -1.675
  501 1  100.302241 -59.147278 -1.675
  502 1   97.816807 -61.964620 -1.675
  503 1   96.593609 -61.243380 -1.675
  504 1   96.606622 -59.823440 -1.675
  505 1   97.842832 -59.124739 -1.675
  506 1   95.357398 -61.942081 -1.675
  507 1   94.134200 -61.220841 -1.675
  508 1   94.147213 -59.800901 -1.675
  509 1   95.383423 -59.102200 -1.675
  510 1   92.897989 -61.919542 -1.675
  511 1   91.674791 -61.198303 -1.675
  512 1   91.687804 -59.778362 -1.675
  513 1   92.924015 -59.079662 -1.675
  514 1   90.438580 -61.897004 -1.675
  515 1   89.215382 -61.175764 -1.675
  516 1   89.228395 -59.755824 -1.675
  517 1   90.464606 -59.057123 -1.675
  518 1   87.979171 -61.874465 -1.675
  519 1   86.755973 -61.153225 -1.675
  520 1   86.768986 -59.733285 -1.675
  521 1   88.005197 -59.034584 -1.675
  522 1   85.519763 -61.851926 -1.675
  523 1   84.296564 -61.130687 -1.675
  524 1   84.309577 -59.710746 -1.675
  525 1   85.545788 -59.012045 -1.675
  526 1   83.060354 -61.829387 -1.675
  527 1   81.837156 -61.108148 -1.675
  528 1   81.850168 -59.688207 -1.675
  529 1   83.086379 -58.989507 -1.675
  530 1   80.600945 -61.806849 -1.675
  531 1   79.377747 -61.085609 -1.675
  532 1   79.390759 -59.665669 -1.675
  533 1   80.626970 -58.966968 -1.675
  534 1   78.141536 -61.784310 -1.675
  535 1   76.918338 -61.063070 -1.675
  536 1   76.931351 -59.643130 -1.675
  537 1   78.167561 -58.944429 -1.675
  538 1   75.682127 -61.761771 -1.675
  539 1   74.458929 -61.040532 -1.675
  540 1   74.471942 -59.620591 -1.675
  541 1   75.708153 -58.921890 -1.675
  542 1   73.222718 -61.739232 -1.675
  543 1   71.999520 -61.017993 -1.675
  544 1   72.012533 -59.598052 -1.675
  545 1   73.248744 -58.899352 -1.675
  546 1   70.763309 -61.716694 -1.675
  547 1   69.540111 -60.995454 -1.675
  548 1   69.553124 -59.575514 -1.675
  549 1   70.789335 -58.876813 -1.675
  550 1   68.303900 -61.694155 -1.675
  551 1   67.080702 -60.972915 -1.675
  552 1   67.093715 -59.552975 -1.675
  553 1   68.329926 -58.854274 -1.675
  554 1   65.844492 -61.671616 -1.675
  555 1   64.621293 -60.950377 -1.675
  556 1   64.634306 -59.530436 -1.675
  557 1   65.870517 -58.831735 -1.675
  558 1   63.385083 -61.649077 -1.675
  559 1   62.161885 -60.927838 -1.675
  560 1   62.174897 -59.507898 -1.675
  561 1   63.411108 -58.809197 -1.675
  562 1   60.925674 -61.626539 -1.675
  563 1   59.702476 -60.905299 -1.675
  564 1   59.715488 -59.485359 -1.675
  565 1   60.951699 -58.786658 -1.675
  566 1   58.466265 -61.604000 -1.675
  567 1   57.243067 -60.882760 -1.675
  568 1   57.256080 -59.462820 -1.675
  569 1   58.492290 -58.764119 -1.675
  570 1   56.006856 -61.581461 -1.675
  571 1   54.783658 -60.860222 -1.675
  572 1   54.796671 -59.440281 -1.675
  573 1   56.032882 -58.741581 -1.675
  574 1   53.547447 -61.558923 -1.675
  575 1   52.324249 -60.837683 -1.675
  576 1   52.337262 -59.417743 -1.675
  577 1   53.573473 -58.719042 -1.675
  578 1   51.088038 -61.536384 -1.675
  579 1   49.864840 -60.815144 -1.675
  580 1   49.877853 -59.395204 -1.675
  581 1   51.114064 -58.696503 -1.675
  582 1   48.628629 -61.513845 -1.675
  583 1   47.405431 -60.792606 -1.675
  584 1   47.418444 -59.372665 -1.675
  585 1   48.654655 -58.673964 -1.675
  586 1   46.169221 -61.491306 -1.675
  587 1   44.946022 -60.770067 -1.675
  588 1   44.959035 -59.350126 -1.675
  589 1   46.195246 -58.651426 -1.675
  590 1   43.709812 -61.468768 -1.675
  591 1   42.486614 -60.747528 -1.675
  592 1   42.499626 -59.327588 -1.675
  593 1   43.735837 -58.628887 -1.675
  594 1   41.250403 -61.446229 -1.675
  595 1   40.027205 -60.724989 -1.675
  596 1   40.040217 -59.305049 -1.675
  597 1   41.276428 -58.606348 -1.675
  598 1   38.790994 -61.423690 -1.675
  599 1   37.567796 -60.702451 -1.675
  600 1   37.580809 -59.282510 -1.675
  601 1   38.817019 -58.583809 -1.675
  602 1   36.331585 -61.401151 -1.675
  603 1   35.108387 -60.679912 -1.675
  604 1   35.121400 -59.259971 -1.675
  605 1   36.357611 -58.561271 -1.675
  606 1   33.872176 -61.378613 -1.675
  607 1   32.648978 -60.657373 -1.675
  608 1   32.661991 -59.237433 -1.675
  609 1   33.898202 -58.538732 -1.675
  610 1   31.412767 -61.356074 -1.675
  611 1   30.189569 -60.634834 -1.675
  612 1   30.202582 -59.214894 -1.675
  613 1   31.438793 -58.516193 -1.675
  614 1   28.953358 -61.333535 -1.675
  615 1   27.730160 -60.612296 -1.675
  616 1   27.743173 -59.192355 -1.675
  617 1   28.979384 -58.493654 -1.675
  618 1   26.493950 -61.310996 -1.675
  619 1   25.270751 -60.589757 -1.675
  620 1   25.283764 -59.169817 -1.675
  621 1   26.519975 -58.471116 -1.675
  622 1   24.034541 -61.288458 -1.675
  623 1   22.811343 -60.567218 -1.675
  624 1   22.824355 -59.147278 -1.675
  625 1   24.060566 -58.448577 -1.675
  626 1   21.575132 -61.265919 -1.675
  627 1   20.351934 -60.544679 -1.675
  628 1   20.364946 -59.124739 -1.675
  629 1   21.601157 -58.426038 -1.675
  630 1   19.115723 -61.243380 -1.675
  631 1   17.892525 -60.522141 -1.675
  632 1   17.905538 -59.102200 -1.675
  633 1   19.141748 -58.403499 -1.675
  634 1   16.656314 -61.220841 -1.675
  635 1   15.433116 -60.499602 -1.675
  636 1   15.446129 -59.079662 -1.675
  637 1   16.682340 -58.380961 -1.675
  638 1   14.196905 -61.198303 -1.675
  639 1   12.973707 -60.477063 -1.675
  640 1   12.986720 -59.057123 -1.675
  641 1   14.222931 -58.358422 -1.675
  642 1   11.737496 -61.175764 -1.675
  643 1   10.514298 -60.454524 -1.675
  644 1   10.527311 -59.034584 -1.675
  645 1   11.763522 -58.335883 -1.675
  646 1    9.278087 -61.153225 -1.675
  647 1    8.054889 -60.431986 -1.675
  648 1    8.067902 -59.012045 -1.675
  649 1    9.304113 -58.313345 -1.675
  650 1    6.818679 -61.130687 -1.675
  651 1    5.595481 -60.409447 -1.675
  652 1    5.608493 -58.989507 -1.675
  653 1    6.844704 -58.290806 -1.675
  654 1    4.359270 -61.108148 -1.675
  655 1    3.136072 -60.386908 -1.675
  656 1    3.149084 -58.966968 -1.675
  657 1    4.385295 -58.268267 -1.675
  658 1    1.899861 -61.085609 -1.675
  659 1    0.676663 -60.364370 -1.675
  660 1    0.689676 -58.944429 -1.675
  661 1    1.925886 -58.245728 -1.675
  662 1   -0.559548 -61.063070 -1.675
  663 1   -1.782746 -60.341831 -1.675
  664 1   -1.769733 -58.921890 -1.675
  665 1   -0.533523 -58.223190 -1.675
  666 1   -3.018957 -61.040532 -1.675
  667 1   -4.242155 -60.319292 -1.675
  668 1   -4.229142 -58.899352 -1.675
  669 1   -2.992931 -58.200651 -1.675
  670 1   -5.478366 -61.017993 -1.675
  671 1   -6.701564 -60.296753 -1.675
  672 1   -6.688551 -58.876813 -1.675
  673 1   -5.452340 -58.178112 -1.675
  674 1   -7.937775 -60.995454 -1.675
  675 1   -9.160973 -60.274215 -1.675
  676 1   -9.147960 -58.854274 -1.675
  677 1   -7.911749 -58.155573 -1.675
  678 1  -10.397184 -60.972915 -1.675
  679 1  -11.620382 -60.251676 -1.675
  680 1  -11.607369 -58.831735 -1.675
  681 1  -10.371158 -58.133035 -1.675
  682 1  -12.856592 -60.950377 -1.675
  683 1  -14.079790 -60.229137 -1.675
  684 1  -14.066778 -58.809197 -1.675
  685 1  -12.830567 -58.110496 -1.675
  686 1  -15.316001 -60.927838 -1.675
  687 1  -16.539199 -60.206598 -1.675
  688 1  -16.526187 -58.786658 -1.675
  689 1  -15.289976 -58.087957 -1.675
  690 1  -17.775410 -60.905299 -1.675
  691 1  -18.998608 -60.184060 -1.675
  692 1  -18.985595 -58.764119 -1.675
  693 1  -17.749385 -58.065418 -1.675
  694 1  -20.234819 -60.882760 -1.675
  695 1  -21.458017 -60.161521 -1.675
  696 1  -21.445004 -58.741581 -1.675
  697 1  -20.208794 -58.042880 -1.675
  698 1  -22.694228 -60.860222 -1.675
  699 1  -23.917426 -60.138982 -1.675
  700 1  -23.904413 -58.719042 -1.675
  701 1  -22.668202 -58.020341 -1.675
  702 1  -25.153637 -60.837683 -1.675
  703 1  -26.376835 -60.116443 -1.675
  704 1  -26.363822 -58.696503 -1.675
  705 1  -25.127611 -57.997802 -1.675
  706 1  -27.613046 -60.815144 -1.675
  707 1  -28.836244 -60.093905 -1.675
  708 1  -28.823231 -58.673964 -1.675
  709 1  -27.587020 -57.975263 -1.675
  710 1  -30.072455 -60.792606 -1.675
  711 1  -31.295653 -60.071366 -1.675
  712 1  -31.282640 -58.651426 -1.675
  713 1  -30.046429 -57.952725 -1.675
  714 1  -32.531863 -60.770067 -1.675
  715 1  -33.755061 -60.048827 -1.675
  716 1  -33.742049 -58.628887 -1.675
  717 1  -32.505838 -57.930186 -1.675
  718 1  -34.991272 -60.747528 -1.675
  719 1  -36.214470 -60.026288 -1.675
  720 1  -36.201458 -58.606348 -1.675
  721 1  -34.965247 -57.907647 -1.675
  722 1  -37.450681 -60.724989 -1.675
  723 1  -38.673879 -60.003750 -1.675
  724 1  -38.660866 -58.583809 -1.675
  725 1  -37.424656 -57.885109 -1.675
  726 1  -39.910090 -60.702451 -1.675
  727 1  -41.133288 -59.981211 -1.675
  728 1  -41.120275 -58.561271 -1.675
  729 1  -39.884065 -57.862570 -1.675
  730 1  -42.369499 -60.679912 -1.675
  731 1  -43.592697 -59.958672 -1.675
  732 1  -43.579684 -58.538732 -1.675
  733 1  -42.343473 -57.840031 -1.675
  734 1  -44.828908 -60.657373 -1.675
  735 1  -46.052106 -59.936134 -1.675
  736 1  -46.039093 -58.516193 -1.675
  737 1  -44.802882 -57.817492 -1.675
  738 1  -47.288317 -60.634834 -1.675
  739 1  -48.511515 -59.913595 -1.675
  740 1  -48.498502 -58.493654 -1.675
  741 1  -47.262291 -57.794954 -1.675
  742 1  -49.747726 -60.612296 -1.675
  743 1  -50.970924 -59.891056 -1.675
  744 1  -50.957911 -58.471116 -1.675
  745 1  -49.721700 -57.772415 -1.675
  746 1  -52.207134 -60.589757 -1.675
  747 1  -53.430332 -59.868517 -1.675
  748 1  -53.417320 -58.448577 -1.675
  749 1  -52.181109 -57.749876 -1.675
  750 1  -54.666543 -60.567218 -1.675
  751 1  -55.889741 -59.845979 -1.675
  752 1  -55.876729 -58.426038 -1.675
  753 1  -54.640518 -57.727337 -1.675
  754 1  -57.125952 -60.544679 -1.675
  755 1  -58.349150 -59.823440 -1.675
  756 1  -58.336137 -58.403499 -1.675
  757 1  -57.099927 -57.704799 -1.675
  758 1  -59.585361 -60.522141 -1.675
  759 1  -60.808559 -59.800901 -1.675
  760 1  -60.795546 -58.380961 -1.675
  761 1  -59.559336 -57.682260 -1.675
  762 1  -62.044770 -60.499602 -1.675
  763 1  -63.267968 -59.778362 -1.675
  764 1  -63.254955 -58.358422 -1.675
  765 1  -62.018744 -57.659721 -1.675
  766 1  -64.504179 -60.477063 -1.675
  767 1  -65.727377 -59.755824 -1.675
  768 1  -65.714364 -58.335883 -1.675
  769 1  -64.478153 -57.637182 -1.675
  770 1  -66.963588 -60.454524 -1.675
  771 1  -68.186786 -59.733285 -1.675
  772 1  -68.173773 -58.313345 -1.675
  773 1  -66.937562 -57.614644 -1.675
  774 1  -69.422996 -60.431986 -1.675
  775 1  -70.646195 -59.710746 -1.675
  776 1  -70.633182 -58.290806 -1.675
  777 1  -69.396971 -57.592105 -1.675
  778 1  -71.882405 -60.409447 -1.675
  779 1  -73.105603 -59.688207 -1.675
  780 1  -73.092591 -58.268267 -1.675
  781 1  -71.856380 -57.569566 -1.675
  782 1  -74.341814 -60.386908 -1.675
  783 1  -75.565012 -59.665669 -1.675
  784 1  -75.552000 -58.245728 -1.675
  785 1  -74.315789 -57.547028 -1.675
  786 1  -76.801223 -60.364370 -1.675
  787 1  -78.024421 -59.643130 -1.675
  788 1  -78.011408 -58.223190 -1.675
  789 1  -76.775198 -57.524489 -1.675
  790 1  -79.260632 -60.341831 -1.675
  791 1  -80.483830 -59.620591 -1.675
  792 1  -80.470817 -58.200651 -1.675
  793 1  -79.234607 -57.501950 -1.675
  794 1  -81.720041 -60.319292 -1.675
  795 1  -82.943239 -59.598052 -1.675
  796 1  -82.930226 -58.178112 -1.675
  797 1  -81.694015 -57.479411 -1.675
  798 1  -84.179450 -60.296753 -1.675
  799 1  -85.402648 -59.575514 -1.675
  800 1  -85.389635 -58.155573 -1.675
  801 1  -84.153424 -57.456873 -1.675
  802 1  -86.638859 -60.274215 -1.675
  803 1  -87.862057 -59.552975 -1.675
  804 1  -87.849044 -58.133035 -1.675
  805 1  -86.612833 -57.434334 -1.675
  806 1  -89.098267 -60.251676 -1.675
  807 1  -90.321466 -59.530436 -1.675
  808 1  -90.308453 -58.110496 -1.675
  809 1  -89.072242 -57.411795 -1.675
  810 1  -91.557676 -60.229137 -1.675
  811 1  -92.780874 -59.507898 -1.675
  812 1  -92.767862 -58.087957 -1.675
  813 1  -91.531651 -57.389256 -1.675
  814 1  -94.017085 -60.206598 -1.675
  815 1  -95.240283 -59.485359 -1.675
  816 1  -95.227271 -58.065418 -1.675
  817 1  -93.991060 -57.366718 -1.675
  818 1  -96.476494 -60.184060 -1.675
  819 1  -97.699692 -59.462820 -1.675
  820 1  -97.686679 -58.042880 -1.675
  821 1  -96.450469 -57.344179 -1.675
  822 1  -98.935903 -60.161521 -1.675
  823 1 -100.159101 -59.440281 -1.675
  824 1 -100.146088 -58.020341 -1.675
  825 1  -98.909877 -57.321640 -1.675
  826 1 -101.395312 -60.138982 -1.675
  827 1 -102.618510 -59.417743 -1.675
  828 1 -102.605497 -57.997802 -1.675
  829 1 -101.369286 -57.299101 -1.675
  830 1 -103.854721 -60.116443 -1.675
  831 1 -105.077919 -59.395204 -1.675
  832 1 -105.064906 -57.975263 -1.675
  833 1 -103.828695 -57.276563 -1.675
  834 1 -106.314130 -60.093905 -1.675
  835 1 -107.537328 -59.372665 -1.675
  836 1 -107.524315 -57.952725 -1.675
  837 1 -106.288104 -57.254024 -1.675
  838 1 -108.773538 -60.071366 -1.675
  839 1 -109.996737 -59.350126 -1.675
  840 1 -109.983724 -57.930186 -1.675
  841 1 -108.747513 -57.231485 -1.675
  842 1 -111.232947 -60.048827 -1.675
  843 1 -112.456145 -59.327588 -1.675
  844 1 -112.443133 -57.907647 -1.675
  845 1 -111.206922 -57.208946 -1.675
  846 1 -113.692356 -60.026288 -1.675
  847 1 -114.915554 -59.305049 -1.675
  848 1 -114.902542 -57.885109 -1.675
  849 1 -113.666331 -57.186408 -1.675
  850 1 -116.151765 -60.003750 -1.675
  851 1 -116.125740 -57.163869 -1.675
  852 1  115.071707 -57.862570 -1.675
  853 1  113.848509 -57.141330 -1.675
  854 1  113.861522 -55.721390 -1.675
  855 1  115.097733 -55.022689 -1.675
  856 1  112.612298 -57.840031 -1.675
  857 1  111.389100 -57.118792 -1.675
  858 1  111.402113 -55.698851 -1.675
  859 1  112.638324 -55.000150 -1.675
  860 1  110.152889 -57.817492 -1.675
  861 1  108.929691 -57.096253 -1.675
  862 1  108.942704 -55.676312 -1.675
  863 1  110.178915 -54.977612 -1.675
  864 1  107.693481 -57.794954 -1.675
  865 1  106.470283 -57.073714 -1.675
  866 1  106.483295 -55.653774 -1.675
  867 1  107.719506 -54.955073 -1.675
  868 1  105.234072 -57.772415 -1.675
  869 1  104.010874 -57.051175 -1.675
  870 1  104.023886 -55.631235 -1.675
  871 1  105.260097 -54.932534 -1.675
  872 1  102.774663 -57.749876 -1.675
  873 1  101.551465 -57.028637 -1.675
  874 1  101.564478 -55.608696 -1.675
  875 1  102.800688 -54.909995 -1.675
  876 1  100.315254 -57.727337 -1.675
  877 1   99.092056 -57.006098 -1.675
  878 1   99.105069 -55.586157 -1.675
  879 1  100.341279 -54.887457 -1.675
  880 1   97.855845 -57.704799 -1.675
  881 1   96.632647 -56.983559 -1.675
  882 1   96.645660 -55.563619 -1.675
  883 1   97.881871 -54.864918 -1.675
  884 1   95.396436 -57.682260 -1.675
  885 1   94.173238 -56.961020 -1.675
  886 1   94.186251 -55.541080 -1.675
  887 1   95.422462 -54.842379 -1.675
  888 1   92.937027 -57.659721 -1.675
  889 1   91.713829 -56.938482 -1.675
  890 1   91.726842 -55.518541 -1.675
  891 1   92.963053 -54.819840 -1.675
  892 1   90.477618 -57.637182 -1.675
  893 1   89.254420 -56.915943 -1.675
  894 1   89.267433 -55.496003 -1.675
  895 1   90.503644 -54.797302 -1.675
  896 1   88.018210 -57.614644 -1.675
  897 1   86.795012 -56.893404 -1.675
  898 1   86.808024 -55.473464 -1.675
  899 1   88.044235 -54.774763 -1.675
  900 1   85.558801 -57.592105 -1.675
  901 1   84.335603 -56.870865 -1.675
  902 1   84.348615 -55.450925 -1.675
  903 1   85.584826 -54.752224 -1.675
  904 1   83.099392 -57.569566 -1.675
  905 1   81.876194 -56.848327 -1.675
  906 1   81.889207 -55.428386 -1.675
  907 1   83.125417 -54.729685 -1.675
  908 1   80.639983 -57.547028 -1.675
  909 1   79.416785 -56.825788 -1.675
  910 1   79.429798 -55.405848 -1.675
  911 1   80.666008 -54.707147 -1.675
  912 1   78.180574 -57.524489 -1.675
  913 1   76.957376 -56.803249 -1.675
  914 1   76.970389 -55.383309 -1.675
  915 1   78.206600 -54.684608 -1.675
  916 1   75.721165 -57.501950 -1.675
  917 1   74.497967 -56.780710 -1.675
  918 1   74.510980 -55.360770 -1.675
  919 1   75.747191 -54.662069 -1.675
  920 1   73.261756 -57.479411 -1.675
  921 1   72.038558 -56.758172 -1.675
  922 1   72.051571 -55.338231 -1.675
  923 1   73.287782 -54.639531 -1.675
  924 1   70.802348 -57.456873 -1.675
  925 1   69.579149 -56.735633 -1.675
  926 1   69.592162 -55.315693 -1.675
  927 1   70.828373 -54.616992 -1.675
  928 1   68.342939 -57.434334 -1.675
  929 1   67.119741 -56.713094 -1.675
  930 1   67.132753 -55.293154 -1.675
  931 1   68.368964 -54.594453 -1.675
  932 1   65.883530 -57.411795 -1.675
  933 1   64.660332 -56.690556 -1.675
  934 1   64.673344 -55.270615 -1.675
  935 1   65.909555 -54.571914 -1.675
  936 1   63.424121 -57.389256 -1.675
  937 1   62.200923 -56.668017 -1.675
  938 1   62.213936 -55.248076 -1.675
  939 1   63.450146 -54.549376 -1.675
  940 1   60.964712 -57.366718 -1.675
  941 1   59.741514 -56.645478 -1.675
  942 1   59.754527 -55.225538 -1.675
  943 1   60.990738 -54.526837 -1.675
  944 1   58.505303 -57.344179 -1.675
  945 1   57.282105 -56.622939 -1.675
  946 1   57.295118 -55.202999 -1.675
  947 1   58.531329 -54.504298 -1.675
  948 1   56.045894 -57.321640 -1.675
  949 1   54.822696 -56.600401 -1.675
  950 1   54.835709 -55.180460 -1.675
  951 1   56.071920 -54.481759 -1.675
  952 1   53.586485 -57.299101 -1.675
  953 1   52.363287 -56.577862 -1.675
  954 1   52.376300 -55.157921 -1.675
  955 1   53.612511 -54.459221 -1.675
  956 1   51.127077 -57.276563 -1.675
  957 1   49.903878 -56.555323 -1.675
  958 1   49.916891 -55.135383 -1.675
  959 1   51.153102 -54.436682 -1.675
  960 1   48.667668 -57.254024 -1.675
  961 1   47.444470 -56.532784 -1.675
  962 1   47.457482 -55.112844 -1.675
  963 1   48.693693 -54.414143 -1.675
  964 1   46.208259 -57.231485 -1.675
  965 1   44.985061 -56.510246 -1.675
  966 1   44.998073 -55.090305 -1.675
  967 1   46.234284 -54.391604 -1.675
  968 1   43.748850 -57.208946 -1.675
  969 1   42.525652 -56.487707 -1.675
  970 1   42.538665 -55.067767 -1.675
  971 1   43.774875 -54.369066 -1.675
  972 1   41.289441 -57.186408 -1.675
  973 1   40.066243 -56.465168 -1.675
  974 1   40.079256 -55.045228 -1.675
  975 1   41.315467 -54.346527 -1.675
  976 1   38.830032 -57.163869 -1.675
  977 1   37.606834 -56.442629 -1.675
  978 1   37.619847 -55.022689 -1.675
  979 1   38.856058 -54.323988 -1.675
  980 1   36.370623 -57.141330 -1.675
  981 1   35.147425 -56.420091 -1.675
  982 1   35.160438 -55.000150 -1.675
  983 1   36.396649 -54.301450 -1.675
  984 1   33.911214 -57.118792 -1.675
  985 1   32.688016 -56.397552 -1.675
  986 1   32.701029 -54.977612 -1.675
  987 1   33.937240 -54.278911 -1.675
  988 1   31.451806 -57.096253 -1.675
  989 1   30.228607 -56.375013 -1.675
  990 1   30.241620 -54.955073 -1.675
  991 1   31.477831 -54.256372 -1.675
  992 1   28.992397 -57.073714 -1.675
  993 1   27.769199 -56.352474 -1.675
  994 1   27.782211 -54.932534 -1.675
  995 1   29.018422 -54.233833 -1.675
  996 1   26.532988 -57.051175 -1.675
  997 1   25.309790 -56.329936 -1.675
  998 1   25.322802 -54.909995 -1.675
  999 1   26.559013 -54.211295 -1.675
 1000 1   24.073579 -57.028637 -1.675
 1001 1   22.850381 -56.307397 -1.675
 1002 1   22.863394 -54.887457 -1.675
 1003 1   24.099604 -54.188756 -1.675
 1004 1   21.614170 -57.006098 -1.675
 1005 1   20.390972 -56.284858 -1.675
 1006 1   20.403985 -54.864918 -1.675
 1007 1   21.640196 -54.166217 -1.675
 1008 1   19.154761 -56.983559 -1.675
 1009 1   17.931563 -56.262320 -1.675
 1010 1   17.944576 -54.842379 -1.675
 1011 1   19.180787 -54.143678 -1.675
 1012 1   16.695352 -56.961020 -1.675
 1013 1   15.472154 -56.239781 -1.675
 1014 1   15.485167 -54.819840 -1.675
 1015 1   16.721378 -54.121140 -1.675
 1016 1   14.235943 -56.938482 -1.675
 1017 1   13.012745 -56.217242 -1.675
 1018 1   13.025758 -54.797302 -1.675
 1019 1   14.261969 -54.098601 -1.675
 1020 1   11.776535 -56.915943 -1.675
 1021 1   10.553336 -56.194703 -1.675
 1022 1   10.566349 -54.774763 -1.675
 1023 1   11.802560 -54.076062 -1.675
 1024 1    9.317126 -56.893404 -1.675
 1025 1    8.093928 -56.172165 -1.675
 1026 1    8.106940 -54.752224 -1.675
 1027 1    9.343151 -54.053523 -1.675
 1028 1    6.857717 -56.870865 -1.675
 1029 1    5.634519 -56.149626 -1.675
 1030 1    5.647531 -54.729685 -1.675
 1031 1    6.883742 -54.030985 -1.675
 1032 1    4.398308 -56.848327 -1.675
 1033 1    3.175110 -56.127087 -1.675
 1034 1    3.188123 -54.707147 -1.675
 1035 1    4.424333 -54.008446 -1.675
 1036 1    1.938899 -56.825788 -1.675
 1037 1    0.715701 -56.104548 -1.675
 1038 1    0.728714 -54.684608 -1.675
 1039 1    1.964925 -53.985907 -1.675
 1040 1   -0.520510 -56.803249 -1.675
 1041 1   -1.743708 -56.082010 -1.675
 1042 1   -1.730695 -54.662069 -1.675
 1043 1   -0.494484 -53.963368 -1.675
 1044 1   -2.979919 -56.780710 -1.675
 1045 1   -4.203117 -56.059471 -1.675
 1046 1   -4.190104 -54.639531 -1.675
 1047 1   -2.953893 -53.940830 -1.675
 1048 1   -5.439328 -56.758172 -1.675
 1049 1   -6.662526 -56.036932 -1.675
 1050 1   -6.649513 -54.616992 -1.675
 1051 1   -5.413302 -53.918291 -1.675
 1052 1   -7.898736 -56.735633 -1.675
 1053 1   -9.121934 -56.014393 -1.675
 1054 1   -9.108922 -54.594453 -1.675
 1055 1   -7.872711 -53.895752 -1.675
 1056 1  -10.358145 -56.713094 -1.675
 1057 1  -11.581343 -55.991855 -1.675
 1058 1  -11.568331 -54.571914 -1.675
 1059 1  -10.332120 -53.873214 -1.675
 1060 1  -12.817554 -56.690556 -1.675
 1061 1  -14.040752 -55.969316 -1.675
 1062 1  -14.027739 -54.549376 -1.675
 1063 1  -12.791529 -53.850675 -1.675
 1064 1  -15.276963 -56.668017 -1.675
 1065 1  -16.500161 -55.946777 -1.675
 1066 1  -16.487148 -54.526837 -1.675
 1067 1  -15.250938 -53.828136 -1.675
 1068 1  -17.736372 -56.645478 -1.675
 1069 1  -18.959570 -55.924239 -1.675
 1070 1  -18.946557 -54.504298 -1.675
 1071 1  -17.710346 -53.805597 -1.675
 1072 1  -20.195781 -56.622939 -1.675
 1073 1  -21.418979 -55.901700 -1.675
 1074 1  -21.405966 -54.481759 -1.675
 1075 1  -20.169755 -53.783059 -1.675
 1076 1  -22.655190 -56.600401 -1.675
 1077 1  -23.878388 -55.879161 -1.675
 1078 1  -23.865375 -54.459221 -1.675
 1079 1  -22.629164 -53.760520 -1.675
 1080 1  -25.114599 -56.577862 -1.675
 1081 1  -26.337797 -55.856622 -1.675
 1082 1  -26.324784 -54.436682 -1.675
 1083 1  -25.088573 -53.737981 -1.675
 1084 1  -27.574007 -56.555323 -1.675
 1085 1  -28.797205 -55.834084 -1.675
 1086 1  -28.784193 -54.414143 -1.675
 1087 1  -27.547982 -53.715442 -1.675
 1088 1  -30.033416 -56.532784 -1.675
 1089 1  -31.256614 -55.811545 -1.675
 1090 1  -31.243602 -54.391604 -1.675
 1091 1  -30.007391 -53.692904 -1.675
 1092 1  -32.492825 -56.510246 -1.675
 1093 1  -33.716023 -55.789006 -1.675
 1094 1  -33.703010 -54.369066 -1.675
 1095 1  -32.466800 -53.670365 -1.675
 1096 1  -34.952234 -56.487707 -1.675
 1097 1  -36.175432 -55.766467 -1.675
 1098 1  -36.162419 -54.346527 -1.675
 1099 1  -34.926209 -53.647826 -1.675
 1100 1  -37.411643 -56.465168 -1.675
 1101 1  -38.634841 -55.743929 -1.675
 1102 1  -38.621828 -54.323988 -1.675
 1103 1  -37.385617 -53.625287 -1.675
 1104 1  -39.871052 -56.442629 -1.675
 1105 1  -41.094250 -55.721390 -1.675
 1106 1  -41.081237 -54.301450 -1.675
 1107 1  -39.845026 -53.602749 -1.675
 1108 1  -42.330461 -56.420091 -1.675
 1109 1  -43.553659 -55.698851 -1.675
 1110 1  -43.540646 -54.278911 -1.675
 1111 1  -42.304435 -53.580210 -1.675
 1112 1  -44.789870 -56.397552 -1.675
 1113 1  -46.013068 -55.676312 -1.675
 1114 1  -46.000055 -54.256372 -1.675
 1115 1  -44.763844 -53.557671 -1.675
 1116 1  -47.249278 -56.375013 -1.675
 1117 1  -48.472476 -55.653774 -1.675
 1118 1  -48.459464 -54.233833 -1.675
 1119 1  -47.223253 -53.535132 -1.675
 1120 1  -49.708687 -56.352474 -1.675
 1121 1  -50.931885 -55.631235 -1.675
 1122 1  -50.918873 -54.211295 -1.675
 1123 1  -49.682662 -53.512594 -1.675
 1124 1  -52.168096 -56.329936 -1.675
 1125 1  -53.391294 -55.608696 -1.675
 1126 1  -53.378281 -54.188756 -1.675
 1127 1  -52.142071 -53.490055 -1.675
 1128 1  -54.627505 -56.307397 -1.675
 1129 1  -55.850703 -55.586157 -1.675
 1130 1  -55.837690 -54.166217 -1.675
 1131 1  -54.601480 -53.467516 -1.675
 1132 1  -57.086914 -56.284858 -1.675
 1133 1  -58.310112 -55.563619 -1.675
 1134 1  -58.297099 -54.143678 -1.675
 1135 1  -57.060888 -53.444978 -1.675
 1136 1  -59.546323 -56.262320 -1.675
 1137 1  -60.769521 -55.541080 -1.675
 1138 1  -60.756508 -54.121140 -1.675
 1139 1  -59.520297 -53.422439 -1.675
 1140 1  -62.005732 -56.239781 -1.675
 1141 1  -63.228930 -55.518541 -1.675
 1142 1  -63.215917 -54.098601 -1.675
 1143 1  -61.979706 -53.399900 -1.675
 1144 1  -64.465141 -56.217242 -1.675
 1145 1  -65.688339 -55.496003 -1.675
 1146 1  -65.675326 -54.076062 -1.675
 1147 1  -64.439115 -53.377361 -1.675
 1148 1  -66.924549 -56.194703 -1.675
 1149 1  -68.147747 -55.473464 -1.675
 1150 1  -68.134735 -54.053523 -1.675
 1151 1  -66.898524 -53.354823 -1.675
 1152 1  -69.383958 -56.172165 -1.675
 1153 1  -70.607156 -55.450925 -1.675
 1154 1  -70.594144 -54.030985 -1.675
 1155 1  -69.357933 -53.332284 -1.675
 1156 1  -71.843367 -56.149626 -1.675
 1157 1  -73.066565 -55.428386 -1.675
 1158 1  -73.053552 -54.008446 -1.675
 1159 1  -71.817342 -53.309745 -1.675
 1160 1  -74.302776 -56.127087 -1.675
 1161 1  -75.525974 -55.405848 -1.675
 1162 1  -75.512961 -53.985907 -1.675
 1163 1  -74.276751 -53.287206 -1.675
 1164 1  -76.762185 -56.104548 -1.675
 1165 1  -77.985383 -55.383309 -1.675
 1166 1  -77.972370 -53.963368 -1.675
 1167 1  -76.736159 -53.264668 -1.675
 1168 1  -79.221594 -56.082010 -1.675
 1169 1  -80.444792 -55.360770 -1.675
 1170 1  -80.431779 -53.940830 -1.675
 1171 1  -79.195568 -53.242129 -1.675
 1172 1  -81.681003 -56.059471 -1.675
 1173 1  -82.904201 -55.338231 -1.675
 1174 1  -82.891188 -53.918291 -1.675
 1175 1  -81.654977 -53.219590 -1.675
 1176 1  -84.140412 -56.036932 -1.675
 1177 1  -85.363610 -55.315693 -1.675
 1178 1  -85.350597 -53.895752 -1.675
 1179 1  -84.114386 -53.197051 -1.675
 1180 1  -86.599820 -56.014393 -1.675
 1181 1  -87.823018 -55.293154 -1.675
 1182 1  -87.810006 -53.873214 -1.675
 1183 1  -86.573795 -53.174513 -1.675
 1184 1  -89.059229 -55.991855 -1.675
 1185 1  -90.282427 -55.270615 -1.675
 1186 1  -90.269415 -53.850675 -1.675
 1187 1  -89.033204 -53.151974 -1.675
 1188 1  -91.518638 -55.969316 -1.675
 1189 1  -92.741836 -55.248076 -1.675
 1190 1  -92.728823 -53.828136 -1.675
 1191 1  -91.492613 -53.129435 -1.675
 1192 1  -93.978047 -55.946777 -1.675
 1193 1  -95.201245 -55.225538 -1.675
 1194 1  -95.188232 -53.805597 -1.675
 1195 1  -93.952022 -53.106896 -1.675
 1196 1  -96.437456 -55.924239 -1.675
 1197 1  -97.660654 -55.202999 -1.675
 1198 1  -97.647641 -53.783059 -1.675
 1199 1  -96.411430 -53.084358 -1.675
 1200 1  -98.896865 -55.901700 -1.675
 1201 1 -100.120063 -55.180460 -1.675
 1202 1 -100.107050 -53.760520 -1.675
 1203 1  -98.870839 -53.061819 -1.675
 1204 1 -101.356274 -55.879161 -1.675
 1205 1 -102.579472 -55.157921 -1.675
 1206 1 -102.566459 -53.737981 -1.675
 1207 1 -101.330248 -53.039280 -1.675
 1208 1 -103.815682 -55.856622 -1.675
 1209 1 -105.038881 -55.135383 -1.675
 1210 1 -105.025868 -53.715442 -1.675
 1211 1 -103.789657 -53.016742 -1.675
 1212 1 -106.275091 -55.834084 -1.675
 1213 1 -107.498289 -55.112844 -1.675
 1214 1 -107.485277 -53.692904 -1.675
 1215 1 -106.249066 -52.994203 -1.675
 1216 1 -108.734500 -55.811545 -1.675
 1217 1 -109.957698 -55.090305 -1.675
 1218 1 -109.944686 -53.670365 -1.675
 1219 1 -108.708475 -52.971664 -1.675
 1220 1 -111.193909 -55.789006 -1.675
 1221 1 -112.417107 -55.067767 -1.675
 1222 1 -112.404094 -53.647826 -1.675
 1223 1 -111.167884 -52.949125 -1.675
 1224 1 -113.653318 -55.766467 -1.675
 1225 1 -114.876516 -55.045228 -1.675
 1226 1 -114.863503 -53.625287 -1.675
 1227 1 -113.627292 -52.926587 -1.675
 1228 1 -116.112727 -55.743929 -1.675
 1229 1 -116.086701 -52.904048 -1.675
 1230 1  115.110745 -53.602749 -1.675
 1231 1  113.887547 -52.881509 -1.675
 1232 1  113.900560 -51.461569 -1.675
 1233 1  115.136771 -50.762868 -1.675
 1234 1  112.651337 -53.580210 -1.675
 1235 1  111.428139 -52.858970 -1.675
 1236 1  111.441151 -51.439030 -1.675
 1237 1  112.677362 -50.740329 -1.675
 1238 1  110.191928 -53.557671 -1.675
 1239 1  108.968730 -52.836432 -1.675
 1240 1  108.981742 -51.416491 -1.675
 1241 1  110.217953 -50.717790 -1.675
 1242 1  107.732519 -53.535132 -1.675
 1243 1  106.509321 -52.813893 -1.675
 1244 1  106.522334 -51.393953 -1.675
 1245 1  107.758544 -50.695252 -1.675
 1246 1  105.273110 -53.512594 -1.675
 1247 1  104.049912 -52.791354 -1.675
 1248 1  104.062925 -51.371414 -1.675
 1249 1  105.299135 -50.672713 -1.675
 1250 1  102.813701 -53.490055 -1.675
 1251 1  101.590503 -52.768815 -1.675
 1252 1  101.603516 -51.348875 -1.675
 1253 1  102.839727 -50.650174 -1.675
 1254 1  100.354292 -53.467516 -1.675
 1255 1   99.131094 -52.746277 -1.675
 1256 1   99.144107 -51.326336 -1.675
 1257 1  100.380318 -50.627636 -1.675
 1258 1   97.894883 -53.444978 -1.675
 1259 1   96.671685 -52.723738 -1.675
 1260 1   96.684698 -51.303798 -1.675
 1261 1   97.920909 -50.605097 -1.675
 1262 1   95.435474 -53.422439 -1.675
 1263 1   94.212276 -52.701199 -1.675
 1264 1   94.225289 -51.281259 -1.675
 1265 1   95.461500 -50.582558 -1.675
 1266 1   92.976066 -53.399900 -1.675
 1267 1   91.752868 -52.678661 -1.675
 1268 1   91.765880 -51.258720 -1.675
 1269 1   93.002091 -50.560019 -1.675
 1270 1   90.516657 -53.377361 -1.675
 1271 1   89.293459 -52.656122 -1.675
 1272 1   89.306471 -51.236181 -1.675
 1273 1   90.542682 -50.537481 -1.675
 1274 1   88.057248 -53.354823 -1.675
 1275 1   86.834050 -52.633583 -1.675
 1276 1   86.847063 -51.213643 -1.675
 1277 1   88.083273 -50.514942 -1.675
 1278 1   85.597839 -53.332284 -1.675
 1279 1   84.374641 -52.611044 -1.675
 1280 1   84.387654 -51.191104 -1.675
 1281 1   85.623864 -50.492403 -1.675
 1282 1   83.138430 -53.309745 -1.675
 1283 1   81.915232 -52.588506 -1.675
 1284 1   81.928245 -51.168565 -1.675
 1285 1   83.164456 -50.469864 -1.675
 1286 1   80.679021 -53.287206 -1.675
 1287 1   79.455823 -52.565967 -1.675
 1288 1   79.468836 -51.146026 -1.675
 1289 1   80.705047 -50.447326 -1.675
 1290 1   78.219612 -53.264668 -1.675
 1291 1   76.996414 -52.543428 -1.675
 1292 1   77.009427 -51.123488 -1.675
 1293 1   78.245638 -50.424787 -1.675
 1294 1   75.760203 -53.242129 -1.675
 1295 1   74.537005 -52.520889 -1.675
 1296 1   74.550018 -51.100949 -1.675
 1297 1   75.786229 -50.402248 -1.675
 1298 1   73.300795 -53.219590 -1.675
 1299 1   72.077597 -52.498351 -1.675
 1300 1   72.090609 -51.078410 -1.675
 1301 1   73.326820 -50.379709 -1.675
 1302 1   70.841386 -53.197051 -1.675
 1303 1   69.618188 -52.475812 -1.675
 1304 1   69.631200 -51.055872 -1.675
 1305 1   70.867411 -50.357171 -1.675
 1306 1   68.381977 -53.174513 -1.675
 1307 1   67.158779 -52.453273 -1.675
 1308 1   67.171792 -51.033333 -1.675
 1309 1   68.408002 -50.334632 -1.675
 1310 1   65.922568 -53.151974 -1.675
 1311 1   64.699370 -52.430734 -1.675
 1312 1   64.712383 -51.010794 -1.675
 1313 1   65.948593 -50.312093 -1.675
 1314 1   63.463159 -53.129435 -1.675
 1315 1   62.239961 -52.408196 -1.675
 1316 1   62.252974 -50.988255 -1.675
 1317 1   63.489185 -50.289554 -1.675
 1318 1   61.003750 -53.106896 -1.675
 1319 1   59.780552 -52.385657 -1.675
 1320 1   59.793565 -50.965717 -1.675
 1321 1   61.029776 -50.267016 -1.675
 1322 1   58.544341 -53.084358 -1.675
 1323 1   57.321143 -52.363118 -1.675
 1324 1   57.334156 -50.943178 -1.675
 1325 1   58.570367 -50.244477 -1.675
 1326 1   56.084933 -53.061819 -1.675
 1327 1   54.861734 -52.340579 -1.675
 1328 1   54.874747 -50.920639 -1.675
 1329 1   56.110958 -50.221938 -1.675
 1330 1   53.625524 -53.039280 -1.675
 1331 1   52.402326 -52.318041 -1.675
 1332 1   52.415338 -50.898100 -1.675
 1333 1   53.651549 -50.199400 -1.675
 1334 1   51.166115 -53.016742 -1.675
 1335 1   49.942917 -52.295502 -1.675
 1336 1   49.955929 -50.875562 -1.675
 1337 1   51.192140 -50.176861 -1.675
 1338 1   48.706706 -52.994203 -1.675
 1339 1   47.483508 -52.272963 -1.675
 1340 1   47.496521 -50.853023 -1.675
 1341 1   48.732731 -50.154322 -1.675
 1342 1   46.247297 -52.971664 -1.675
 1343 1   45.024099 -52.250425 -1.675
 1344 1   45.037112 -50.830484 -1.675
 1345 1   46.273323 -50.131783 -1.675
 1346 1   43.787888 -52.949125 -1.675
 1347 1   42.564690 -52.227886 -1.675
 1348 1   42.577703 -50.807945 -1.675
 1349 1   43.813914 -50.109245 -1.675
 1350 1   41.328479 -52.926587 -1.675
 1351 1   40.105281 -52.205347 -1.675
 1352 1   40.118294 -50.785407 -1.675
 1353 1   41.354505 -50.086706 -1.675
 1354 1   38.869070 -52.904048 -1.675
 1355 1   37.645872 -52.182808 -1.675
 1356 1   37.658885 -50.762868 -1.675
 1357 1   38.895096 -50.064167 -1.675
 1358 1   36.409662 -52.881509 -1.675
 1359 1   35.186463 -52.160270 -1.675
 1360 1   35.199476 -50.740329 -1.675
 1361 1   36.435687 -50.041628 -1.675
 1362 1   33.950253 -52.858970 -1.675
 1363 1   32.727055 -52.137731 -1.675
 1364 1   32.740067 -50.717790 -1.675
 1365 1   33.976278 -50.019090 -1.675
 1366 1   31.490844 -52.836432 -1.675
 1367 1   30.267646 -52.115192 -1.675
 1368 1   30.280658 -50.695252 -1.675
 1369 1   31.516869 -49.996551 -1.675
 1370 1   29.031435 -52.813893 -1.675
 1371 1   27.808237 -52.092653 -1.675
 1372 1   27.821250 -50.672713 -1.675
 1373 1   29.057460 -49.974012 -1.675
 1374 1   26.572026 -52.791354 -1.675
 1375 1   25.348828 -52.070115 -1.675
 1376 1   25.361841 -50.650174 -1.675
 1377 1   26.598052 -49.951473 -1.675
 1378 1   24.112617 -52.768815 -1.675
 1379 1   22.889419 -52.047576 -1.675
 1380 1   22.902432 -50.627636 -1.675
 1381 1   24.138643 -49.928935 -1.675
 1382 1   21.653208 -52.746277 -1.675
 1383 1   20.430010 -52.025037 -1.675
 1384 1   20.443023 -50.605097 -1.675
 1385 1   21.679234 -49.906396 -1.675
 1386 1   19.193799 -52.723738 -1.675
 1387 1   17.970601 -52.002498 -1.675
 1388 1   17.983614 -50.582558 -1.675
 1389 1   19.219825 -49.883857 -1.675
 1390 1   16.734391 -52.701199 -1.675
 1391 1   15.511192 -51.979960 -1.675
 1392 1   15.524205 -50.560019 -1.675
 1393 1   16.760416 -49.861318 -1.675
 1394 1   14.274982 -52.678661 -1.675
 1395 1   13.051784 -51.957421 -1.675
 1396 1   13.064796 -50.537481 -1.675
 1397 1   14.301007 -49.838780 -1.675
 1398 1   11.815573 -52.656122 -1.675
 1399 1   10.592375 -51.934882 -1.675
 1400 1   10.605387 -50.514942 -1.675
 1401 1   11.841598 -49.816241 -1.675
 1402 1    9.356164 -52.633583 -1.675
 1403 1    8.132966 -51.912343 -1.675
 1404 1    8.145979 -50.492403 -1.675
 1405 1    9.382189 -49.793702 -1.675
 1406 1    6.896755 -52.611044 -1.675
 1407 1    5.673557 -51.889805 -1.675
 1408 1    5.686570 -50.469864 -1.675
 1409 1    6.922781 -49.771164 -1.675
 1410 1    4.437346 -52.588506 -1.675
 1411 1    3.214148 -51.867266 -1.675
 1412 1    3.227161 -50.447326 -1.675
 1413 1    4.463372 -49.748625 -1.675
 1414 1    1.977937 -52.565967 -1.675
 1415 1    0.754739 -51.844727 -1.675
 1416 1    0.767752 -50.424787 -1.675
 1417 1    2.003963 -49.726086 -1.675
 1418 1   -0.481472 -52.543428 -1.675
 1419 1   -1.704670 -51.822189 -1.675
 1420 1   -1.691657 -50.402248 -1.675
 1421 1   -0.455446 -49.703547 -1.675
 1422 1   -2.940880 -52.520889 -1.675
 1423 1   -4.164079 -51.799650 -1.675
 1424 1   -4.151066 -50.379709 -1.675
 1425 1   -2.914855 -49.681009 -1.675
 1426 1   -5.400289 -52.498351 -1.675
 1427 1   -6.623487 -51.777111 -1.675
 1428 1   -6.610475 -50.357171 -1.675
 1429 1   -5.374264 -49.658470 -1.675
 1430 1   -7.859698 -52.475812 -1.675
 1431 1   -9.082896 -51.754572 -1.675
 1432 1   -9.069884 -50.334632 -1.675
 1433 1   -7.833673 -49.635931 -1.675
 1434 1  -10.319107 -52.453273 -1.675
 1435 1  -11.542305 -51.732034 -1.675
 1436 1  -11.529292 -50.312093 -1.675
 1437 1  -10.293082 -49.613392 -1.675
 1438 1  -12.778516 -52.430734 -1.675
 1439 1  -14.001714 -51.709495 -1.675
 1440 1  -13.988701 -50.289554 -1.675
 1441 1  -12.752490 -49.590854 -1.675
 1442 1  -15.237925 -52.408196 -1.675
 1443 1  -16.461123 -51.686956 -1.675
 1444 1  -16.448110 -50.267016 -1.675
 1445 1  -15.211899 -49.568315 -1.675
 1446 1  -17.697334 -52.385657 -1.675
 1447 1  -18.920532 -51.664417 -1.675
 1448 1  -18.907519 -50.244477 -1.675
 1449 1  -17.671308 -49.545776 -1.675
 1450 1  -20.156743 -52.363118 -1.675
 1451 1  -21.379941 -51.641879 -1.675
 1452 1  -21.366928 -50.221938 -1.675
 1453 1  -20.130717 -49.523237 -1.675
 1454 1  -22.616151 -52.340579 -1.675
 1455 1  -23.839350 -51.619340 -1.675
 1456 1  -23.826337 -50.199400 -1.675
 1457 1  -22.590126 -49.500699 -1.675
 1458 1  -25.075560 -52.318041 -1.675
 1459 1  -26.298758 -51.596801 -1.675
 1460 1  -26.285746 -50.176861 -1.675
 1461 1  -25.049535 -49.478160 -1.675
 1462 1  -27.534969 -52.295502 -1.675
 1463 1  -28.758167 -51.574262 -1.675
 1464 1  -28.745155 -50.154322 -1.675
 1465 1  -27.508944 -49.455621 -1.675
 1466 1  -29.994378 -52.272963 -1.675
 1467 1  -31.217576 -51.551724 -1.675
 1468 1  -31.204563 -50.131783 -1.675
 1469 1  -29.968353 -49.433083 -1.675
 1470 1  -32.453787 -52.250425 -1.675
 1471 1  -33.676985 -51.529185 -1.675
 1472 1  -33.663972 -50.109245 -1.675
 1473 1  -32.427761 -49.410544 -1.675
 1474 1  -34.913196 -52.227886 -1.675
 1475 1  -36.136394 -51.506646 -1.675
 1476 1  -36.123381 -50.086706 -1.675
 1477 1  -34.887170 -49.388005 -1.675
 1478 1  -37.372605 -52.205347 -1.675
 1479 1  -38.595803 -51.484107 -1.675
 1480 1  -38.582790 -50.064167 -1.675
 1481 1  -37.346579 -49.365466 -1.675
 1482 1  -39.832014 -52.182808 -1.675
 1483 1  -41.055212 -51.461569 -1.675
 1484 1  -41.042199 -50.041628 -1.675
 1485 1  -39.805988 -49.342928 -1.675
 1486 1  -42.291422 -52.160270 -1.675
 1487 1  -43.514620 -51.439030 -1.675
 1488 1  -43.501608 -50.019090 -1.675
 1489 1  -42.265397 -49.320389 -1.675
 1490 1  -44.750831 -52.137731 -1.675
 1491 1  -45.974029 -51.416491 -1.675
 1492 1  -45.961017 -49.996551 -1.675
 1493 1  -44.724806 -49.297850 -1.675
 1494 1  -47.210240 -52.115192 -1.675
 1495 1  -48.433438 -51.393953 -1.675
 1496 1  -48.420425 -49.974012 -1.675
 1497 1  -47.184215 -49.275311 -1.675
 1498 1  -49.669649 -52.092653 -1.675
 1499 1  -50.892847 -51.371414 -1.675
 1500 1  -50.879834 -49.951473 -1.675
 1501 1  -49.643624 -49.252773 -1.675
 1502 1  -52.129058 -52.070115 -1.675
 1503 1  -53.352256 -51.348875 -1.675
 1504 1  -53.339243 -49.928935 -1.675
 1505 1  -52.103032 -49.230234 -1.675
 1506 1  -54.588467 -52.047576 -1.675
 1507 1  -55.811665 -51.326336 -1.675
 1508 1  -55.798652 -49.906396 -1.675
 1509 1  -54.562441 -49.207695 -1.675
 1510 1  -57.047876 -52.025037 -1.675
 1511 1  -58.271074 -51.303798 -1.675
 1512 1  -58.258061 -49.883857 -1.675
 1513 1  -57.021850 -49.185156 -1.675
 1514 1  -59.507285 -52.002498 -1.675
 1515 1  -60.730483 -51.281259 -1.675
 1516 1  -60.717470 -49.861318 -1.675
 1517 1  -59.481259 -49.162618 -1.675
 1518 1  -61.966693 -51.979960 -1.675
 1519 1  -63.189891 -51.258720 -1.675
 1520 1  -63.176879 -49.838780 -1.675
 1521 1  -61.940668 -49.140079 -1.675
 1522 1  -64.426102 -51.957421 -1.675
 1523 1  -65.649300 -51.236181 -1.675
 1524 1  -65.636288 -49.816241 -1.675
 1525 1  -64.400077 -49.117540 -1.675
 1526 1  -66.885511 -51.934882 -1.675
 1527 1  -68.108709 -51.213643 -1.675
 1528 1  -68.095696 -49.793702 -1.675
 1529 1  -66.859486 -49.095001 -1.675
 1530 1  -69.344920 -51.912343 -1.675
 1531 1  -70.568118 -51.191104 -1.675
 1532 1  -70.555105 -49.771164 -1.675
 1533 1  -69.318895 -49.072463 -1.675
 1534 1  -71.804329 -51.889805 -1.675
 1535 1  -73.027527 -51.168565 -1.675
 1536 1  -73.014514 -49.748625 -1.675
 1537 1  -71.778303 -49.049924 -1.675
 1538 1  -74.263738 -51.867266 -1.675
 1539 1  -75.486936 -51.146026 -1.675
 1540 1  -75.473923 -49.726086 -1.675
 1541 1  -74.237712 -49.027385 -1.675
 1542 1  -76.723147 -51.844727 -1.675
 1543 1  -77.946345 -51.123488 -1.675
 1544 1  -77.933332 -49.703547 -1.675
 1545 1  -76.697121 -49.004847 -1.675
 1546 1  -79.182556 -51.822189 -1.675
 1547 1  -80.405754 -51.100949 -1.675
 1548 1  -80.392741 -49.681009 -1.675
 1549 1  -79.156530 -48.982308 -1.675
 1550 1  -81.641964 -51.799650 -1.675
 1551 1  -82.865162 -51.078410 -1.675
 1552 1  -82.852150 -49.658470 -1.675
 1553 1  -81.615939 -48.959769 -1.675
 1554 1  -84.101373 -51.777111 -1.675
 1555 1  -85.324571 -51.055872 -1.675
 1556 1  -85.311559 -49.635931 -1.675
 1557 1  -84.075348 -48.937230 -1.675
 1558 1  -86.560782 -51.754572 -1.675
 1559 1  -87.783980 -51.033333 -1.675
 1560 1  -87.770967 -49.613392 -1.675
 1561 1  -86.534757 -48.914692 -1.675
 1562 1  -89.020191 -51.732034 -1.675
 1563 1  -90.243389 -51.010794 -1.675
 1564 1  -90.230376 -49.590854 -1.675
 1565 1  -88.994166 -48.892153 -1.675
 1566 1  -91.479600 -51.709495 -1.675
 1567 1  -92.702798 -50.988255 -1.675
 1568 1  -92.689785 -49.568315 -1.675
 1569 1  -91.453574 -48.869614 -1.675
 1570 1  -93.939009 -51.686956 -1.675
 1571 1  -95.162207 -50.965717 -1.675
 1572 1  -95.149194 -49.545776 -1.675
 1573 1  -93.912983 -48.847075 -1.675
 1574 1  -96.398418 -51.664417 -1.675
 1575 1  -97.621616 -50.943178 -1.675
 1576 1  -97.608603 -49.523237 -1.675
 1577 1  -96.372392 -48.824537 -1.675
 1578 1  -98.857827 -51.641879 -1.675
 1579 1 -100.081025 -50.920639 -1.675
 1580 1 -100.068012 -49.500699 -1.675
 1581 1  -98.831801 -48.801998 -1.675
 1582 1 -101.317235 -51.619340 -1.675
 1583 1 -102.540433 -50.898100 -1.675
 1584 1 -102.527421 -49.478160 -1.675
 1585 1 -101.291210 -48.779459 -1.675
 1586 1 -103.776644 -51.596801 -1.675
 1587 1 -104.999842 -50.875562 -1.675
 1588 1 -104.986830 -49.455621 -1.675
 1589 1 -103.750619 -48.756920 -1.675
 1590 1 -106.236053 -51.574262 -1.675
 1591 1 -107.459251 -50.853023 -1.675
 1592 1 -107.446238 -49.433083 -1.675
 1593 1 -106.210028 -48.734382 -1.675
 1594 1 -108.695462 -51.551724 -1.675
 1595 1 -109.918660 -50.830484 -1.675
 1596 1 -109.905647 -49.410544 -1.675
 1597 1 -108.669437 -48.711843 -1.675
 1598 1 -111.154871 -51.529185 -1.675
 1599 1 -112.378069 -50.807945 -1.675
 1600 1 -112.365056 -49.388005 -1.675
 1601 1 -111.128845 -48.689304 -1.675
 1602 1 -113.614280 -51.506646 -1.675
 1603 1 -114.837478 -50.785407 -1.675
 1604 1 -114.824465 -49.365466 -1.675
 1605 1 -113.588254 -48.666765 -1.675
 1606 1 -116.073689 -51.484107 -1.675
 1607 1 -116.047663 -48.644227 -1.675
 1608 1  115.149784 -49.342928 -1.675
 1609 1  113.926586 -48.621688 -1.675
 1610 1  113.939598 -47.201748 -1.675
 1611 1  115.175809 -46.503047 -1.675
 1612 1  112.690375 -49.320389 -1.675
 1613 1  111.467177 -48.599149 -1.675
 1614 1  111.480190 -47.179209 -1.675
 1615 1  112.716400 -46.480508 -1.675
 1616 1  110.230966 -49.297850 -1.675
 1617 1  109.007768 -48.576611 -1.675
 1618 1  109.020781 -47.156670 -1.675
 1619 1  110.256991 -46.457969 -1.675
 1620 1  107.771557 -49.275311 -1.675
 1621 1  106.548359 -48.554072 -1.675
 1622 1  106.561372 -47.134131 -1.675
 1623 1  107.797583 -46.435431 -1.675
 1624 1  105.312148 -49.252773 -1.675
 1625 1  104.088950 -48.531533 -1.675
 1626 1  104.101963 -47.111593 -1.675
 1627 1  105.338174 -46.412892 -1.675
 1628 1  102.852739 -49.230234 -1.675
 1629 1  101.629541 -48.508994 -1.675
 1630 1  101.642554 -47.089054 -1.675
 1631 1  102.878765 -46.390353 -1.675
 1632 1  100.393330 -49.207695 -1.675
 1633 1   99.170132 -48.486456 -1.675
 1634 1   99.183145 -47.066515 -1.675
 1635 1  100.419356 -46.367814 -1.675
 1636 1   97.933922 -49.185156 -1.675
 1637 1   96.710724 -48.463917 -1.675
 1638 1   96.723736 -47.043976 -1.675
 1639 1   97.959947 -46.345276 -1.675
 1640 1   95.474513 -49.162618 -1.675
 1641 1   94.251315 -48.441378 -1.675
 1642 1   94.264327 -47.021438 -1.675
 1643 1   95.500538 -46.322737 -1.675
 1644 1   93.015104 -49.140079 -1.675
 1645 1   91.791906 -48.418839 -1.675
 1646 1   91.804919 -46.998899 -1.675
 1647 1   93.041129 -46.300198 -1.675
 1648 1   90.555695 -49.117540 -1.675
 1649 1   89.332497 -48.396301 -1.675
 1650 1   89.345510 -46.976360 -1.675
 1651 1   90.581720 -46.277659 -1.675
 1652 1   88.096286 -49.095001 -1.675
 1653 1   86.873088 -48.373762 -1.675
 1654 1   86.886101 -46.953822 -1.675
 1655 1   88.122312 -46.255121 -1.675
 1656 1   85.636877 -49.072463 -1.675
 1657 1   84.413679 -48.351223 -1.675
 1658 1   84.426692 -46.931283 -1.675
 1659 1   85.662903 -46.232582 -1.675
 1660 1   83.177468 -49.049924 -1.675
 1661 1   81.954270 -48.328684 -1.675
 1662 1   81.967283 -46.908744 -1.675
 1663 1   83.203494 -46.210043 -1.675
 1664 1   80.718059 -49.027385 -1.675
 1665 1   79.494861 -48.306146 -1.675
 1666 1   79.507874 -46.886205 -1.675
 1667 1   80.744085 -46.187505 -1.675
 1668 1   78.258651 -49.004847 -1.675
 1669 1   77.035453 -48.283607 -1.675
 1670 1   77.048465 -46.863667 -1.675
 1671 1   78.284676 -46.164966 -1.675
 1672 1   75.799242 -48.982308 -1.675
 1673 1   74.576044 -48.261068 -1.675
 1674 1   74.589056 -46.841128 -1.675
 1675 1   75.825267 -46.142427 -1.675
 1676 1   73.339833 -48.959769 -1.675
 1677 1   72.116635 -48.238529 -1.675
 1678 1   72.129648 -46.818589 -1.675
 1679 1   73.365858 -46.119888 -1.675
 1680 1   70.880424 -48.937230 -1.675
 1681 1   69.657226 -48.215991 -1.675
 1682 1   69.670239 -46.796050 -1.675
 1683 1   70.906449 -46.097350 -1.675
 1684 1   68.421015 -48.914692 -1.675
 1685 1   67.197817 -48.193452 -1.675
 1686 1   67.210830 -46.773512 -1.675
 1687 1   68.447041 -46.074811 -1.675
 1688 1   65.961606 -48.892153 -1.675
 1689 1   64.738408 -48.170913 -1.675
 1690 1   64.751421 -46.750973 -1.675
 1691 1   65.987632 -46.052272 -1.675
 1692 1   63.502197 -48.869614 -1.675
 1693 1   62.278999 -48.148375 -1.675
 1694 1   62.292012 -46.728434 -1.675
 1695 1   63.528223 -46.029733 -1.675
 1696 1   61.042788 -48.847075 -1.675
 1697 1   59.819590 -48.125836 -1.675
 1698 1   59.832603 -46.705895 -1.675
 1699 1   61.068814 -46.007195 -1.675
 1700 1   58.583380 -48.824537 -1.675
 1701 1   57.360182 -48.103297 -1.675
 1702 1   57.373194 -46.683357 -1.675
 1703 1   58.609405 -45.984656 -1.675
 1704 1   56.123971 -48.801998 -1.675
 1705 1   54.900773 -48.080758 -1.675
 1706 1   54.913785 -46.660818 -1.675
 1707 1   56.149996 -45.962117 -1.675
 1708 1   53.664562 -48.779459 -1.675
 1709 1   52.441364 -48.058220 -1.675
 1710 1   52.454377 -46.638279 -1.675
 1711 1   53.690587 -45.939578 -1.675
 1712 1   51.205153 -48.756920 -1.675
 1713 1   49.981955 -48.035681 -1.675
 1714 1   49.994968 -46.615740 -1.675
 1715 1   51.231178 -45.917040 -1.675
 1716 1   48.745744 -48.734382 -1.675
 1717 1   47.522546 -48.013142 -1.675
 1718 1   47.535559 -46.593202 -1.675
 1719 1   48.771770 -45.894501 -1.675
 1720 1   46.286335 -48.711843 -1.675
 1721 1   45.063137 -47.990603 -1.675
 1722 1   45.076150 -46.570663 -1.675
 1723 1   46.312361 -45.871962 -1.675
 1724 1   43.826926 -48.689304 -1.675
 1725 1   42.603728 -47.968065 -1.675
 1726 1   42.616741 -46.548124 -1.675
 1727 1   43.852952 -45.849423 -1.675
 1728 1   41.367518 -48.666765 -1.675
 1729 1   40.144319 -47.945526 -1.675
 1730 1   40.157332 -46.525586 -1.675
 1731 1   41.393543 -45.826885 -1.675
 1732 1   38.908109 -48.644227 -1.675
 1733 1   37.684911 -47.922987 -1.675
 1734 1   37.697923 -46.503047 -1.675
 1735 1   38.934134 -45.804346 -1.675
 1736 1   36.448700 -48.621688 -1.675
 1737 1   35.225502 -47.900448 -1.675
 1738 1   35.238514 -46.480508 -1.675
 1739 1   36.474725 -45.781807 -1.675
 1740 1   33.989291 -48.599149 -1.675
 1741 1   32.766093 -47.877910 -1.675
 1742 1   32.779106 -46.457969 -1.675
 1743 1   34.015316 -45.759269 -1.675
 1744 1   31.529882 -48.576611 -1.675
 1745 1   30.306684 -47.855371 -1.675
 1746 1   30.319697 -46.435431 -1.675
 1747 1   31.555907 -45.736730 -1.675
 1748 1   29.070473 -48.554072 -1.675
 1749 1   27.847275 -47.832832 -1.675
 1750 1   27.860288 -46.412892 -1.675
 1751 1   29.096499 -45.714191 -1.675
 1752 1   26.611064 -48.531533 -1.675
 1753 1   25.387866 -47.810294 -1.675
 1754 1   25.400879 -46.390353 -1.675
 1755 1   26.637090 -45.691652 -1.675
 1756 1   24.151655 -48.508994 -1.675
 1757 1   22.928457 -47.787755 -1.675
 1758 1   22.941470 -46.367814 -1.675
 1759 1   24.177681 -45.669114 -1.675
 1760 1   21.692247 -48.486456 -1.675
 1761 1   20.469048 -47.765216 -1.675
 1762 1   20.482061 -46.345276 -1.675
 1763 1   21.718272 -45.646575 -1.675
 1764 1   19.232838 -48.463917 -1.675
 1765 1   18.009640 -47.742677 -1.675
 1766 1   18.022652 -46.322737 -1.675
 1767 1   19.258863 -45.624036 -1.675
 1768 1   16.773429 -48.441378 -1.675
 1769 1   15.550231 -47.720139 -1.675
 1770 1   15.563243 -46.300198 -1.675
 1771 1   16.799454 -45.601497 -1.675
 1772 1   14.314020 -48.418839 -1.675
 1773 1   13.090822 -47.697600 -1.675
 1774 1   13.103835 -46.277659 -1.675
 1775 1   14.340045 -45.578959 -1.675
 1776 1   11.854611 -48.396301 -1.675
 1777 1   10.631413 -47.675061 -1.675
 1778 1   10.644426 -46.255121 -1.675
 1779 1   11.880637 -45.556420 -1.675
 1780 1    9.395202 -48.373762 -1.675
 1781 1    8.172004 -47.652522 -1.675
 1782 1    8.185017 -46.232582 -1.675
 1783 1    9.421228 -45.533881 -1.675
 1784 1    6.935793 -48.351223 -1.675
 1785 1    5.712595 -47.629984 -1.675
 1786 1    5.725608 -46.210043 -1.675
 1787 1    6.961819 -45.511342 -1.675
 1788 1    4.476384 -48.328684 -1.675
 1789 1    3.253186 -47.607445 -1.675
 1790 1    3.266199 -46.187505 -1.675
 1791 1    4.502410 -45.488804 -1.675
 1792 1    2.016976 -48.306146 -1.675
 1793 1    0.793777 -47.584906 -1.675
 1794 1    0.806790 -46.164966 -1.675
 1795 1    2.043001 -45.466265 -1.675
 1796 1   -0.442433 -48.283607 -1.675
 1797 1   -1.665631 -47.562367 -1.675
 1798 1   -1.652619 -46.142427 -1.675
 1799 1   -0.416408 -45.443726 -1.675
 1800 1   -2.901842 -48.261068 -1.675
 1801 1   -4.125040 -47.539829 -1.675
 1802 1   -4.112028 -46.119888 -1.675
 1803 1   -2.875817 -45.421187 -1.675
 1804 1   -5.361251 -48.238529 -1.675
 1805 1   -6.584449 -47.517290 -1.675
 1806 1   -6.571436 -46.097350 -1.675
 1807 1   -5.335226 -45.398649 -1.675
 1808 1   -7.820660 -48.215991 -1.675
 1809 1   -9.043858 -47.494751 -1.675
 1810 1   -9.030845 -46.074811 -1.675
 1811 1   -7.794634 -45.376110 -1.675
 1812 1  -10.280069 -48.193452 -1.675
 1813 1  -11.503267 -47.472212 -1.675
 1814 1  -11.490254 -46.052272 -1.675
 1815 1  -10.254043 -45.353571 -1.675
 1816 1  -12.739478 -48.170913 -1.675
 1817 1  -13.962676 -47.449674 -1.675
 1818 1  -13.949663 -46.029733 -1.675
 1819 1  -12.713452 -45.331033 -1.675
 1820 1  -15.198887 -48.148375 -1.675
 1821 1  -16.422085 -47.427135 -1.675
 1822 1  -16.409072 -46.007195 -1.675
 1823 1  -15.172861 -45.308494 -1.675
 1824 1  -17.658295 -48.125836 -1.675
 1825 1  -18.881494 -47.404596 -1.675
 1826 1  -18.868481 -45.984656 -1.675
 1827 1  -17.632270 -45.285955 -1.675
 1828 1  -20.117704 -48.103297 -1.675
 1829 1  -21.340902 -47.382058 -1.675
 1830 1  -21.327890 -45.962117 -1.675
 1831 1  -20.091679 -45.263416 -1.675
 1832 1  -22.577113 -48.080758 -1.675
 1833 1  -23.800311 -47.359519 -1.675
 1834 1  -23.787299 -45.939578 -1.675
 1835 1  -22.551088 -45.240878 -1.675
 1836 1  -25.036522 -48.058220 -1.675
 1837 1  -26.259720 -47.336980 -1.675
 1838 1  -26.246707 -45.917040 -1.675
 1839 1  -25.010497 -45.218339 -1.675
 1840 1  -27.495931 -48.035681 -1.675
 1841 1  -28.719129 -47.314441 -1.675
 1842 1  -28.706116 -45.894501 -1.675
 1843 1  -27.469905 -45.195800 -1.675
 1844 1  -29.955340 -48.013142 -1.675
 1845 1  -31.178538 -47.291903 -1.675
 1846 1  -31.165525 -45.871962 -1.675
 1847 1  -29.929314 -45.173261 -1.675
 1848 1  -32.414749 -47.990603 -1.675
 1849 1  -33.637947 -47.269364 -1.675
 1850 1  -33.624934 -45.849423 -1.675
 1851 1  -32.388723 -45.150723 -1.675
 1852 1  -34.874158 -47.968065 -1.675
 1853 1  -36.097356 -47.246825 -1.675
 1854 1  -36.084343 -45.826885 -1.675
 1855 1  -34.848132 -45.128184 -1.675
 1856 1  -37.333566 -47.945526 -1.675
 1857 1  -38.556765 -47.224286 -1.675
 1858 1  -38.543752 -45.804346 -1.675
 1859 1  -37.307541 -45.105645 -1.675
 1860 1  -39.792975 -47.922987 -1.675
 1861 1  -41.016173 -47.201748 -1.675
 1862 1  -41.003161 -45.781807 -1.675
 1863 1  -39.766950 -45.083106 -1.675
 1864 1  -42.252384 -47.900448 -1.675
 1865 1  -43.475582 -47.179209 -1.675
 1866 1  -43.462570 -45.759269 -1.675
 1867 1  -42.226359 -45.060568 -1.675
 1868 1  -44.711793 -47.877910 -1.675
 1869 1  -45.934991 -47.156670 -1.675
 1870 1  -45.921978 -45.736730 -1.675
 1871 1  -44.685768 -45.038029 -1.675
 1872 1  -47.171202 -47.855371 -1.675
 1873 1  -48.394400 -47.134131 -1.675
 1874 1  -48.381387 -45.714191 -1.675
 1875 1  -47.145176 -45.015490 -1.675
 1876 1  -49.630611 -47.832832 -1.675
 1877 1  -50.853809 -47.111593 -1.675
 1878 1  -50.840796 -45.691652 -1.675
 1879 1  -49.604585 -44.992951 -1.675
 1880 1  -52.090020 -47.810294 -1.675
 1881 1  -53.313218 -47.089054 -1.675
 1882 1  -53.300205 -45.669114 -1.675
 1883 1  -52.063994 -44.970413 -1.675
 1884 1  -54.549429 -47.787755 -1.675
 1885 1  -55.772627 -47.066515 -1.675
 1886 1  -55.759614 -45.646575 -1.675
 1887 1  -54.523403 -44.947874 -1.675
 1888 1  -57.008837 -47.765216 -1.675
 1889 1  -58.232035 -47.043976 -1.675
 1890 1  -58.219023 -45.624036 -1.675
 1891 1  -56.982812 -44.925335 -1.675
 1892 1  -59.468246 -47.742677 -1.675
 1893 1  -60.691444 -47.021438 -1.675
 1894 1  -60.678432 -45.601497 -1.675
 1895 1  -59.442221 -44.902797 -1.675
 1896 1  -61.927655 -47.720139 -1.675
 1897 1  -63.150853 -46.998899 -1.675
 1898 1  -63.137840 -45.578959 -1.675
 1899 1  -61.901630 -44.880258 -1.675
 1900 1  -64.387064 -47.697600 -1.675
 1901 1  -65.610262 -46.976360 -1.675
 1902 1  -65.597249 -45.556420 -1.675
 1903 1  -64.361039 -44.857719 -1.675
 1904 1  -66.846473 -47.675061 -1.675
 1905 1  -68.069671 -46.953822 -1.675
 1906 1  -68.056658 -45.533881 -1.675
 1907 1  -66.820447 -44.835180 -1.675
 1908 1  -69.305882 -47.652522 -1.675
 1909 1  -70.529080 -46.931283 -1.675
 1910 1  -70.516067 -45.511342 -1.675
 1911 1  -69.279856 -44.812642 -1.675
 1912 1  -71.765291 -47.629984 -1.675
 1913 1  -72.988489 -46.908744 -1.675
 1914 1  -72.975476 -45.488804 -1.675
 1915 1  -71.739265 -44.790103 -1.675
 1916 1  -74.224700 -47.607445 -1.675
 1917 1  -75.447898 -46.886205 -1.675
 1918 1  -75.434885 -45.466265 -1.675
 1919 1  -74.198674 -44.767564 -1.675
 1920 1  -76.684108 -47.584906 -1.675
 1921 1  -77.907306 -46.863667 -1.675
 1922 1  -77.894294 -45.443726 -1.675
 1923 1  -76.658083 -44.745025 -1.675
 1924 1  -79.143517 -47.562367 -1.675
 1925 1  -80.366715 -46.841128 -1.675
 1926 1  -80.353703 -45.421187 -1.675
 1927 1  -79.117492 -44.722487 -1.675
 1928 1  -81.602926 -47.539829 -1.675
 1929 1  -82.826124 -46.818589 -1.675
 1930 1  -82.813111 -45.398649 -1.675
 1931 1  -81.576901 -44.699948 -1.675
 1932 1  -84.062335 -47.517290 -1.675
 1933 1  -85.285533 -46.796050 -1.675
 1934 1  -85.272520 -45.376110 -1.675
 1935 1  -84.036310 -44.677409 -1.675
 1936 1  -86.521744 -47.494751 -1.675
 1937 1  -87.744942 -46.773512 -1.675
 1938 1  -87.731929 -45.353571 -1.675
 1939 1  -86.495718 -44.654870 -1.675
 1940 1  -88.981153 -47.472212 -1.675
 1941 1  -90.204351 -46.750973 -1.675
 1942 1  -90.191338 -45.331033 -1.675
 1943 1  -88.955127 -44.632332 -1.675
 1944 1  -91.440562 -47.449674 -1.675
 1945 1  -92.663760 -46.728434 -1.675
 1946 1  -92.650747 -45.308494 -1.675
 1947 1  -91.414536 -44.609793 -1.675
 1948 1  -93.899971 -47.427135 -1.675
 1949 1  -95.123169 -46.705895 -1.675
 1950 1  -95.110156 -45.285955 -1.675
 1951 1  -93.873945 -44.587254 -1.675
 1952 1  -96.359379 -47.404596 -1.675
 1953 1  -97.582577 -46.683357 -1.675
 1954 1  -97.569565 -45.263416 -1.675
 1955 1  -96.333354 -44.564716 -1.675
 1956 1  -98.818788 -47.382058 -1.675
 1957 1 -100.041986 -46.660818 -1.675
 1958 1 -100.028974 -45.240878 -1.675
 1959 1  -98.792763 -44.542177 -1.675
 1960 1 -101.278197 -47.359519 -1.675
 1961 1 -102.501395 -46.638279 -1.675
 1962 1 -102.488382 -45.218339 -1.675
 1963 1 -101.252172 -44.519638 -1.675
 1964 1 -103.737606 -47.336980 -1.675
 1965 1 -104.960804 -46.615740 -1.675
 1966 1 -104.947791 -45.195800 -1.675
 1967 1 -103.711581 -44.497099 -1.675
 1968 1 -106.197015 -47.314441 -1.675
 1969 1 -107.420213 -46.593202 -1.675
 1970 1 -107.407200 -45.173261 -1.675
 1971 1 -106.170989 -44.474561 -1.675
 1972 1 -108.656424 -47.291903 -1.675
 1973 1 -109.879622 -46.570663 -1.675
 1974 1 -109.866609 -45.150723 -1.675
 1975 1 -108.630398 -44.452022 -1.675
 1976 1 -111.115833 -47.269364 -1.675
 1977 1 -112.339031 -46.548124 -1.675
 1978 1 -112.326018 -45.128184 -1.675
 1979 1 -111.089807 -44.429483 -1.675
 1980 1 -113.575242 -47.246825 -1.675
 1981 1 -114.798440 -46.525586 -1.675
 1982 1 -114.785427 -45.105645 -1.675
 1983 1 -113.549216 -44.406944 -1.675
 1984 1 -116.034650 -47.224286 -1.675
 1985 1 -116.008625 -44.384406 -1.675
 1986 1  115.188822 -45.083106 -1.675
 1987 1  113.965624 -44.361867 -1.675
 1988 1  113.978637 -42.941927 -1.675
 1989 1  115.214847 -42.243226 -1.675
 1990 1  112.729413 -45.060568 -1.675
 1991 1  111.506215 -44.339328 -1.675
 1992 1  111.519228 -42.919388 -1.675
 1993 1  112.755439 -42.220687 -1.675
 1994 1  110.270004 -45.038029 -1.675
 1995 1  109.046806 -44.316789 -1.675
 1996 1  109.059819 -42.896849 -1.675
 1997 1  110.296030 -42.198148 -1.675
 1998 1  107.810595 -45.015490 -1.675
 1999 1  106.587397 -44.294251 -1.675
 2000 1  106.600410 -42.874310 -1.675
 2001 1  107.836621 -42.175609 -1.675
 2002 1  105.351186 -44.992951 -1.675
 2003 1  104.127988 -44.271712 -1.675
 2004 1  104.141001 -42.851772 -1.675
 2005 1  105.377212 -42.153071 -1.675
 2006 1  102.891778 -44.970413 -1.675
 2007 1  101.668580 -44.249173 -1.675
 2008 1  101.681592 -42.829233 -1.675
 2009 1  102.917803 -42.130532 -1.675
 2010 1  100.432369 -44.947874 -1.675
 2011 1   99.209171 -44.226634 -1.675
 2012 1   99.222183 -42.806694 -1.675
 2013 1  100.458394 -42.107993 -1.675
 2014 1   97.972960 -44.925335 -1.675
 2015 1   96.749762 -44.204096 -1.675
 2016 1   96.762775 -42.784155 -1.675
 2017 1   97.998985 -42.085455 -1.675
 2018 1   95.513551 -44.902797 -1.675
 2019 1   94.290353 -44.181557 -1.675
 2020 1   94.303366 -42.761617 -1.675
 2021 1   95.539576 -42.062916 -1.675
 2022 1   93.054142 -44.880258 -1.675
 2023 1   91.830944 -44.159018 -1.675
 2024 1   91.843957 -42.739078 -1.675
 2025 1   93.080168 -42.040377 -1.675
 2026 1   90.594733 -44.857719 -1.675
 2027 1   89.371535 -44.136480 -1.675
 2028 1   89.384548 -42.716539 -1.675
 2029 1   90.620759 -42.017838 -1.675
 2030 1   88.135324 -44.835180 -1.675
 2031 1   86.912126 -44.113941 -1.675
 2032 1   86.925139 -42.694000 -1.675
 2033 1   88.161350 -41.995300 -1.675
 2034 1   85.675915 -44.812642 -1.675
 2035 1   84.452717 -44.091402 -1.675
 2036 1   84.465730 -42.671462 -1.675
 2037 1   85.701941 -41.972761 -1.675
 2038 1   83.216507 -44.790103 -1.675
 2039 1   81.993309 -44.068863 -1.675
 2040 1   82.006321 -42.648923 -1.675
 2041 1   83.242532 -41.950222 -1.675
 2042 1   80.757098 -44.767564 -1.675
 2043 1   79.533900 -44.046325 -1.675
 2044 1   79.546912 -42.626384 -1.675
 2045 1   80.783123 -41.927683 -1.675
 2046 1   78.297689 -44.745025 -1.675
 2047 1   77.074491 -44.023786 -1.675
 2048 1   77.087504 -42.603845 -1.675
 2049 1   78.323714 -41.905145 -1.675
 2050 1   75.838280 -44.722487 -1.675
 2051 1   74.615082 -44.001247 -1.675
 2052 1   74.628095 -42.581307 -1.675
 2053 1   75.864305 -41.882606 -1.675
 2054 1   73.378871 -44.699948 -1.675
 2055 1   72.155673 -43.978708 -1.675
 2056 1   72.168686 -42.558768 -1.675
 2057 1   73.404897 -41.860067 -1.675
 2058 1   70.919462 -44.677409 -1.675
 2059 1   69.696264 -43.956170 -1.675
 2060 1   69.709277 -42.536229 -1.675
 2061 1   70.945488 -41.837528 -1.675
 2062 1   68.460053 -44.654870 -1.675
 2063 1   67.236855 -43.933631 -1.675
 2064 1   67.249868 -42.513691 -1.675
 2065 1   68.486079 -41.814990 -1.675
 2066 1   66.000644 -44.632332 -1.675
 2067 1   64.777446 -43.911092 -1.675
 2068 1   64.790459 -42.491152 -1.675
 2069 1   66.026670 -41.792451 -1.675
 2070 1   63.541236 -44.609793 -1.675
 2071 1   62.318038 -43.888553 -1.675
 2072 1   62.331050 -42.468613 -1.675
 2073 1   63.567261 -41.769912 -1.675
 2074 1   61.081827 -44.587254 -1.675
 2075 1   59.858629 -43.866015 -1.675
 2076 1   59.871641 -42.446074 -1.675
 2077 1   61.107852 -41.747373 -1.675
 2078 1   58.622418 -44.564716 -1.675
 2079 1   57.399220 -43.843476 -1.675
 2080 1   57.412233 -42.423536 -1.675
 2081 1   58.648443 -41.724835 -1.675
 2082 1   56.163009 -44.542177 -1.675
 2083 1   54.939811 -43.820937 -1.675
 2084 1   54.952824 -42.400997 -1.675
 2085 1   56.189034 -41.702296 -1.675
 2086 1   53.703600 -44.519638 -1.675
 2087 1   52.480402 -43.798398 -1.675
 2088 1   52.493415 -42.378458 -1.675
 2089 1   53.729626 -41.679757 -1.675
 2090 1   51.244191 -44.497099 -1.675
 2091 1   50.020993 -43.775860 -1.675
 2092 1   50.034006 -42.355919 -1.675
 2093 1   51.270217 -41.657219 -1.675
 2094 1   48.784782 -44.474561 -1.675
 2095 1   47.561584 -43.753321 -1.675
 2096 1   47.574597 -42.333381 -1.675
 2097 1   48.810808 -41.634680 -1.675
 2098 1   46.325373 -44.452022 -1.675
 2099 1   45.102175 -43.730782 -1.675
 2100 1   45.115188 -42.310842 -1.675
 2101 1   46.351399 -41.612141 -1.675
 2102 1   43.865965 -44.429483 -1.675
 2103 1   42.642767 -43.708244 -1.675
 2104 1   42.655779 -42.288303 -1.675
 2105 1   43.891990 -41.589602 -1.675
 2106 1   41.406556 -44.406944 -1.675
 2107 1   40.183358 -43.685705 -1.675
 2108 1   40.196370 -42.265764 -1.675
 2109 1   41.432581 -41.567064 -1.675
 2110 1   38.947147 -44.384406 -1.675
 2111 1   37.723949 -43.663166 -1.675
 2112 1   37.736962 -42.243226 -1.675
 2113 1   38.973172 -41.544525 -1.675
 2114 1   36.487738 -44.361867 -1.675
 2115 1   35.264540 -43.640627 -1.675
 2116 1   35.277553 -42.220687 -1.675
 2117 1   36.513763 -41.521986 -1.675
 2118 1   34.028329 -44.339328 -1.675
 2119 1   32.805131 -43.618089 -1.675
 2120 1   32.818144 -42.198148 -1.675
 2121 1   34.054355 -41.499447 -1.675
 2122 1   31.568920 -44.316789 -1.675
 2123 1   30.345722 -43.595550 -1.675
 2124 1   30.358735 -42.175609 -1.675
 2125 1   31.594946 -41.476909 -1.675
 2126 1   29.109511 -44.294251 -1.675
 2127 1   27.886313 -43.573011 -1.675
 2128 1   27.899326 -42.153071 -1.675
 2129 1   29.135537 -41.454370 -1.675
 2130 1   26.650102 -44.271712 -1.675
 2131 1   25.426904 -43.550472 -1.675
 2132 1   25.439917 -42.130532 -1.675
 2133 1   26.676128 -41.431831 -1.675
 2134 1   24.190694 -44.249173 -1.675
 2135 1   22.967496 -43.527934 -1.675
 2136 1   22.980508 -42.107993 -1.675
 2137 1   24.216719 -41.409292 -1.675
 2138 1   21.731285 -44.226634 -1.675
 2139 1   20.508087 -43.505395 -1.675
 2140 1   20.521099 -42.085455 -1.675
 2141 1   21.757310 -41.386754 -1.675
 2142 1   19.271876 -44.204096 -1.675
 2143 1   18.048678 -43.482856 -1.675
 2144 1   18.061691 -42.062916 -1.675
 2145 1   19.297901 -41.364215 -1.675
 2146 1   16.812467 -44.181557 -1.675
 2147 1   15.589269 -43.460317 -1.675
 2148 1   15.602282 -42.040377 -1.675
 2149 1   16.838492 -41.341676 -1.675
 2150 1   14.353058 -44.159018 -1.675
 2151 1   13.129860 -43.437779 -1.675
 2152 1   13.142873 -42.017838 -1.675
 2153 1   14.379084 -41.319138 -1.675
 2154 1   11.893649 -44.136480 -1.675
 2155 1   10.670451 -43.415240 -1.675
 2156 1   10.683464 -41.995300 -1.675
 2157 1   11.919675 -41.296599 -1.675
 2158 1    9.434240 -44.113941 -1.675
 2159 1    8.211042 -43.392701 -1.675
 2160 1    8.224055 -41.972761 -1.675
 2161 1    9.460266 -41.274060 -1.675
 2162 1    6.974832 -44.091402 -1.675
 2163 1    5.751633 -43.370162 -1.675
 2164 1    5.764646 -41.950222 -1.675
 2165 1    7.000857 -41.251521 -1.675
 2166 1    4.515423 -44.068863 -1.675
 2167 1    3.292225 -43.347624 -1.675
 2168 1    3.305237 -41.927683 -1.675
 2169 1    4.541448 -41.228983 -1.675
 2170 1    2.056014 -44.046325 -1.675
 2171 1    0.832816 -43.325085 -1.675
 2172 1    0.845828 -41.905145 -1.675
 2173 1    2.082039 -41.206444 -1.675
 2174 1   -0.403395 -44.023786 -1.675
 2175 1   -1.626593 -43.302546 -1.675
 2176 1   -1.613580 -41.882606 -1.675
 2177 1   -0.377370 -41.183905 -1.675
 2178 1   -2.862804 -44.001247 -1.675
 2179 1   -4.086002 -43.280008 -1.675
 2180 1   -4.072989 -41.860067 -1.675
 2181 1   -2.836778 -41.161366 -1.675
 2182 1   -5.322213 -43.978708 -1.675
 2183 1   -6.545411 -43.257469 -1.675
 2184 1   -6.532398 -41.837528 -1.675
 2185 1   -5.296187 -41.138828 -1.675
 2186 1   -7.781622 -43.956170 -1.675
 2187 1   -9.004820 -43.234930 -1.675
 2188 1   -8.991807 -41.814990 -1.675
 2189 1   -7.755596 -41.116289 -1.675
 2190 1  -10.241031 -43.933631 -1.675
 2191 1  -11.464229 -43.212391 -1.675
 2192 1  -11.451216 -41.792451 -1.675
 2193 1  -10.215005 -41.093750 -1.675
 2194 1  -12.700439 -43.911092 -1.675
 2195 1  -13.923638 -43.189853 -1.675
 2196 1  -13.910625 -41.769912 -1.675
 2197 1  -12.674414 -41.071211 -1.675
 2198 1  -15.159848 -43.888553 -1.675
 2199 1  -16.383046 -43.167314 -1.675
 2200 1  -16.370034 -41.747373 -1.675
 2201 1  -15.133823 -41.048673 -1.675
 2202 1  -17.619257 -43.866015 -1.675
 2203 1  -18.842455 -43.144775 -1.675
 2204 1  -18.829443 -41.724835 -1.675
 2205 1  -17.593232 -41.026134 -1.675
 2206 1  -20.078666 -43.843476 -1.675
 2207 1  -21.301864 -43.122236 -1.675
 2208 1  -21.288851 -41.702296 -1.675
 2209 1  -20.052641 -41.003595 -1.675
 2210 1  -22.538075 -43.820937 -1.675
 2211 1  -23.761273 -43.099698 -1.675
 2212 1  -23.748260 -41.679757 -1.675
 2213 1  -22.512049 -40.981056 -1.675
 2214 1  -24.997484 -43.798398 -1.675
 2215 1  -26.220682 -43.077159 -1.675
 2216 1  -26.207669 -41.657219 -1.675
 2217 1  -24.971458 -40.958518 -1.675
 2218 1  -27.456893 -43.775860 -1.675
 2219 1  -28.680091 -43.054620 -1.675
 2220 1  -28.667078 -41.634680 -1.675
 2221 1  -27.430867 -40.935979 -1.675
 2222 1  -29.916302 -43.753321 -1.675
 2223 1  -31.139500 -43.032081 -1.675
 2224 1  -31.126487 -41.612141 -1.675
 2225 1  -29.890276 -40.913440 -1.675
 2226 1  -32.375710 -43.730782 -1.675
 2227 1  -33.598909 -43.009543 -1.675
 2228 1  -33.585896 -41.589602 -1.675
 2229 1  -32.349685 -40.890902 -1.675
 2230 1  -34.835119 -43.708244 -1.675
 2231 1  -36.058317 -42.987004 -1.675
 2232 1  -36.045305 -41.567064 -1.675
 2233 1  -34.809094 -40.868363 -1.675
 2234 1  -37.294528 -43.685705 -1.675
 2235 1  -38.517726 -42.964465 -1.675
 2236 1  -38.504714 -41.544525 -1.675
 2237 1  -37.268503 -40.845824 -1.675
 2238 1  -39.753937 -43.663166 -1.675
 2239 1  -40.977135 -42.941927 -1.675
 2240 1  -40.964122 -41.521986 -1.675
 2241 1  -39.727912 -40.823285 -1.675
 2242 1  -42.213346 -43.640627 -1.675
 2243 1  -43.436544 -42.919388 -1.675
 2244 1  -43.423531 -41.499447 -1.675
 2245 1  -42.187320 -40.800747 -1.675
 2246 1  -44.672755 -43.618089 -1.675
 2247 1  -45.895953 -42.896849 -1.675
 2248 1  -45.882940 -41.476909 -1.675
 2249 1  -44.646729 -40.778208 -1.675
 2250 1  -47.132164 -43.595550 -1.675
 2251 1  -48.355362 -42.874310 -1.675
 2252 1  -48.342349 -41.454370 -1.675
 2253 1  -47.106138 -40.755669 -1.675
 2254 1  -49.591573 -43.573011 -1.675
 2255 1  -50.814771 -42.851772 -1.675
 2256 1  -50.801758 -41.431831 -1.675
 2257 1  -49.565547 -40.733130 -1.675
 2258 1  -52.050981 -43.550472 -1.675
 2259 1  -53.274180 -42.829233 -1.675
 2260 1  -53.261167 -41.409292 -1.675
 2261 1  -52.024956 -40.710592 -1.675
 2262 1  -54.510390 -43.527934 -1.675
 2263 1  -55.733588 -42.806694 -1.675
 2264 1  -55.720576 -41.386754 -1.675
 2265 1  -54.484365 -40.688053 -1.675
 2266 1  -56.969799 -43.505395 -1.675
 2267 1  -58.192997 -42.784155 -1.675
 2268 1  -58.179985 -41.364215 -1.675
 2269 1  -56.943774 -40.665514 -1.675
 2270 1  -59.429208 -43.482856 -1.675
 2271 1  -60.652406 -42.761617 -1.675
 2272 1  -60.639393 -41.341676 -1.675
 2273 1  -59.403183 -40.642975 -1.675
 2274 1  -61.888617 -43.460317 -1.675
 2275 1  -63.111815 -42.739078 -1.675
 2276 1  -63.098802 -41.319138 -1.675
 2277 1  -61.862591 -40.620437 -1.675
 2278 1  -64.348026 -43.437779 -1.675
 2279 1  -65.571224 -42.716539 -1.675
 2280 1  -65.558211 -41.296599 -1.675
 2281 1  -64.322000 -40.597898 -1.675
 2282 1  -66.807435 -43.415240 -1.675
 2283 1  -68.030633 -42.694000 -1.675
 2284 1  -68.017620 -41.274060 -1.675
 2285 1  -66.781409 -40.575359 -1.675
 2286 1  -69.266844 -43.392701 -1.675
 2287 1  -70.490042 -42.671462 -1.675
 2288 1  -70.477029 -41.251521 -1.675
 2289 1  -69.240818 -40.552820 -1.675
 2290 1  -71.726252 -43.370162 -1.675
 2291 1  -72.949450 -42.648923 -1.675
 2292 1  -72.936438 -41.228983 -1.675
 2293 1  -71.700227 -40.530282 -1.675
 2294 1  -74.185661 -43.347624 -1.675
 2295 1  -75.408859 -42.626384 -1.675
 2296 1  -75.395847 -41.206444 -1.675
 2297 1  -74.159636 -40.507743 -1.675
 2298 1  -76.645070 -43.325085 -1.675
 2299 1  -77.868268 -42.603845 -1.675
 2300 1  -77.855255 -41.183905 -1.675
 2301 1  -76.619045 -40.485204 -1.675
 2302 1  -79.104479 -43.302546 -1.675
 2303 1  -80.327677 -42.581307 -1.675
 2304 1  -80.314664 -41.161366 -1.675
 2305 1  -79.078454 -40.462666 -1.675
 2306 1  -81.563888 -43.280008 -1.675
 2307 1  -82.787086 -42.558768 -1.675
 2308 1  -82.774073 -41.138828 -1.675
 2309 1  -81.537862 -40.440127 -1.675
 2310 1  -84.023297 -43.257469 -1.675
 2311 1  -85.246495 -42.536229 -1.675
 2312 1  -85.233482 -41.116289 -1.675
 2313 1  -83.997271 -40.417588 -1.675
 2314 1  -86.482706 -43.234930 -1.675
 2315 1  -87.705904 -42.513691 -1.675
 2316 1  -87.692891 -41.093750 -1.675
 2317 1  -86.456680 -40.395049 -1.675
 2318 1  -88.942115 -43.212391 -1.675
 2319 1  -90.165313 -42.491152 -1.675
 2320 1  -90.152300 -41.071211 -1.675
 2321 1  -88.916089 -40.372511 -1.675
 2322 1  -91.401523 -43.189853 -1.675
 2323 1  -92.624721 -42.468613 -1.675
 2324 1  -92.611709 -41.048673 -1.675
 2325 1  -91.375498 -40.349972 -1.675
 2326 1  -93.860932 -43.167314 -1.675
 2327 1  -95.084130 -42.446074 -1.675
 2328 1  -95.071118 -41.026134 -1.675
 2329 1  -93.834907 -40.327433 -1.675
 2330 1  -96.320341 -43.144775 -1.675
 2331 1  -97.543539 -42.423536 -1.675
 2332 1  -97.530526 -41.003595 -1.675
 2333 1  -96.294316 -40.304894 -1.675
 2334 1  -98.779750 -43.122236 -1.675
 2335 1 -100.002948 -42.400997 -1.675
 2336 1  -99.989935 -40.981056 -1.675
 2337 1  -98.753725 -40.282356 -1.675
 2338 1 -101.239159 -43.099698 -1.675
 2339 1 -102.462357 -42.378458 -1.675
 2340 1 -102.449344 -40.958518 -1.675
 2341 1 -101.213133 -40.259817 -1.675
 2342 1 -103.698568 -43.077159 -1.675
 2343 1 -104.921766 -42.355919 -1.675
 2344 1 -104.908753 -40.935979 -1.675
 2345 1 -103.672542 -40.237278 -1.675
 2346 1 -106.157977 -43.054620 -1.675
 2347 1 -107.381175 -42.333381 -1.675
 2348 1 -107.368162 -40.913440 -1.675
 2349 1 -106.131951 -40.214739 -1.675
 2350 1 -108.617386 -43.032081 -1.675
 2351 1 -109.840584 -42.310842 -1.675
 2352 1 -109.827571 -40.890902 -1.675
 2353 1 -108.591360 -40.192201 -1.675
 2354 1 -111.076794 -43.009543 -1.675
 2355 1 -112.299992 -42.288303 -1.675
 2356 1 -112.286980 -40.868363 -1.675
 2357 1 -111.050769 -40.169662 -1.675
 2358 1 -113.536203 -42.987004 -1.675
 2359 1 -114.759401 -42.265764 -1.675
 2360 1 -114.746389 -40.845824 -1.675
 2361 1 -113.510178 -40.147123 -1.675
 2362 1 -115.995612 -42.964465 -1.675
 2363 1 -115.969587 -40.124584 -1.675
 2364 1  115.227860 -40.823285 -1.675
 2365 1  114.004662 -40.102046 -1.675
 2366 1  114.017675 -38.682105 -1.675
 2367 1  115.253886 -37.983405 -1.675
 2368 1  112.768451 -40.800747 -1.675
 2369 1  111.545253 -40.079507 -1.675
 2370 1  111.558266 -38.659567 -1.675
 2371 1  112.794477 -37.960866 -1.675
 2372 1  110.309042 -40.778208 -1.675
 2373 1  109.085844 -40.056968 -1.675
 2374 1  109.098857 -38.637028 -1.675
 2375 1  110.335068 -37.938327 -1.675
 2376 1  107.849634 -40.755669 -1.675
 2377 1  106.626435 -40.034430 -1.675
 2378 1  106.639448 -38.614489 -1.675
 2379 1  107.875659 -37.915788 -1.675
 2380 1  105.390225 -40.733130 -1.675
 2381 1  104.167027 -40.011891 -1.675
 2382 1  104.180039 -38.591950 -1.675
 2383 1  105.416250 -37.893250 -1.675
 2384 1  102.930816 -40.710592 -1.675
 2385 1  101.707618 -39.989352 -1.675
 2386 1  101.720630 -38.569412 -1.675
 2387 1  102.956841 -37.870711 -1.675
 2388 1  100.471407 -40.688053 -1.675
 2389 1   99.248209 -39.966813 -1.675
 2390 1   99.261222 -38.546873 -1.675
 2391 1  100.497432 -37.848172 -1.675
 2392 1   98.011998 -40.665514 -1.675
 2393 1   96.788800 -39.944275 -1.675
 2394 1   96.801813 -38.524334 -1.675
 2395 1   98.038024 -37.825633 -1.675
 2396 1   95.552589 -40.642975 -1.675
 2397 1   94.329391 -39.921736 -1.675
 2398 1   94.342404 -38.501795 -1.675
 2399 1   95.578615 -37.803095 -1.675
 2400 1   93.093180 -40.620437 -1.675
 2401 1   91.869982 -39.899197 -1.675
 2402 1   91.882995 -38.479257 -1.675
 2403 1   93.119206 -37.780556 -1.675
 2404 1   90.633771 -40.597898 -1.675
 2405 1   89.410573 -39.876658 -1.675
 2406 1   89.423586 -38.456718 -1.675
 2407 1   90.659797 -37.758017 -1.675
 2408 1   88.174363 -40.575359 -1.675
 2409 1   86.951164 -39.854120 -1.675
 2410 1   86.964177 -38.434179 -1.675
 2411 1   88.200388 -37.735478 -1.675
 2412 1   85.714954 -40.552820 -1.675
 2413 1   84.491756 -39.831581 -1.675
 2414 1   84.504768 -38.411641 -1.675
 2415 1   85.740979 -37.712940 -1.675
 2416 1   83.255545 -40.530282 -1.675
 2417 1   82.032347 -39.809042 -1.675
 2418 1   82.045359 -38.389102 -1.675
 2419 1   83.281570 -37.690401 -1.675
 2420 1   80.796136 -40.507743 -1.675
 2421 1   79.572938 -39.786503 -1.675
 2422 1   79.585951 -38.366563 -1.675
 2423 1   80.822161 -37.667862 -1.675
 2424 1   78.336727 -40.485204 -1.675
 2425 1   77.113529 -39.763965 -1.675
 2426 1   77.126542 -38.344024 -1.675
 2427 1   78.362753 -37.645324 -1.675
 2428 1   75.877318 -40.462666 -1.675
 2429 1   74.654120 -39.741426 -1.675
 2430 1   74.667133 -38.321486 -1.675
 2431 1   75.903344 -37.622785 -1.675
 2432 1   73.417909 -40.440127 -1.675
 2433 1   72.194711 -39.718887 -1.675
 2434 1   72.207724 -38.298947 -1.675
 2435 1   73.443935 -37.600246 -1.675
 2436 1   70.958500 -40.417588 -1.675
 2437 1   69.735302 -39.696349 -1.675
 2438 1   69.748315 -38.276408 -1.675
 2439 1   70.984526 -37.577707 -1.675
 2440 1   68.499092 -40.395049 -1.675
 2441 1   67.275894 -39.673810 -1.675
 2442 1   67.288906 -38.253869 -1.675
 2443 1   68.525117 -37.555169 -1.675
 2444 1   66.039683 -40.372511 -1.675
 2445 1   64.816485 -39.651271 -1.675
 2446 1   64.829497 -38.231331 -1.675
 2447 1   66.065708 -37.532630 -1.675
 2448 1   63.580274 -40.349972 -1.675
 2449 1   62.357076 -39.628732 -1.675
 2450 1   62.370089 -38.208792 -1.675
 2451 1   63.606299 -37.510091 -1.675
 2452 1   61.120865 -40.327433 -1.675
 2453 1   59.897667 -39.606194 -1.675
 2454 1   59.910680 -38.186253 -1.675
 2455 1   61.146890 -37.487552 -1.675
 2456 1   58.661456 -40.304894 -1.675
 2457 1   57.438258 -39.583655 -1.675
 2458 1   57.451271 -38.163714 -1.675
 2459 1   58.687482 -37.465014 -1.675
 2460 1   56.202047 -40.282356 -1.675
 2461 1   54.978849 -39.561116 -1.675
 2462 1   54.991862 -38.141176 -1.675
 2463 1   56.228073 -37.442475 -1.675
 2464 1   53.742638 -40.259817 -1.675
 2465 1   52.519440 -39.538577 -1.675
 2466 1   52.532453 -38.118637 -1.675
 2467 1   53.768664 -37.419936 -1.675
 2468 1   51.283229 -40.237278 -1.675
 2469 1   50.060031 -39.516039 -1.675
 2470 1   50.073044 -38.096098 -1.675
 2471 1   51.309255 -37.397397 -1.675
 2472 1   48.823821 -40.214739 -1.675
 2473 1   47.600623 -39.493500 -1.675
 2474 1   47.613635 -38.073560 -1.675
 2475 1   48.849846 -37.374859 -1.675
 2476 1   46.364412 -40.192201 -1.675
 2477 1   45.141214 -39.470961 -1.675
 2478 1   45.154226 -38.051021 -1.675
 2479 1   46.390437 -37.352320 -1.675
 2480 1   43.905003 -40.169662 -1.675
 2481 1   42.681805 -39.448422 -1.675
 2482 1   42.694818 -38.028482 -1.675
 2483 1   43.931028 -37.329781 -1.675
 2484 1   41.445594 -40.147123 -1.675
 2485 1   40.222396 -39.425884 -1.675
 2486 1   40.235409 -38.005943 -1.675
 2487 1   41.471619 -37.307242 -1.675
 2488 1   38.986185 -40.124584 -1.675
 2489 1   37.762987 -39.403345 -1.675
 2490 1   37.776000 -37.983405 -1.675
 2491 1   39.012211 -37.284704 -1.675
 2492 1   36.526776 -40.102046 -1.675
 2493 1   35.303578 -39.380806 -1.675
 2494 1   35.316591 -37.960866 -1.675
 2495 1   36.552802 -37.262165 -1.675
 2496 1   34.067367 -40.079507 -1.675
 2497 1   32.844169 -39.358267 -1.675
 2498 1   32.857182 -37.938327 -1.675
 2499 1   34.093393 -37.239626 -1.675
 2500 1   31.607958 -40.056968 -1.675
 2501 1   30.384760 -39.335729 -1.675
 2502 1   30.397773 -37.915788 -1.675
 2503 1   31.633984 -37.217088 -1.675
 2504 1   29.148550 -40.034430 -1.675
 2505 1   27.925352 -39.313190 -1.675
 2506 1   27.938364 -37.893250 -1.675
 2507 1   29.174575 -37.194549 -1.675
 2508 1   26.689141 -40.011891 -1.675
 2509 1   25.465943 -39.290651 -1.675
 2510 1   25.478955 -37.870711 -1.675
 2511 1   26.715166 -37.172010 -1.675
 2512 1   24.229732 -39.989352 -1.675
 2513 1   23.006534 -39.268113 -1.675
 2514 1   23.019547 -37.848172 -1.675
 2515 1   24.255757 -37.149471 -1.675
 2516 1   21.770323 -39.966813 -1.675
 2517 1   20.547125 -39.245574 -1.675
 2518 1   20.560138 -37.825633 -1.675
 2519 1   21.796348 -37.126933 -1.675
 2520 1   19.310914 -39.944275 -1.675
 2521 1   18.087716 -39.223035 -1.675
 2522 1   18.100729 -37.803095 -1.675
 2523 1   19.336940 -37.104394 -1.675
 2524 1   16.851505 -39.921736 -1.675
 2525 1   15.628307 -39.200496 -1.675
 2526 1   15.641320 -37.780556 -1.675
 2527 1   16.877531 -37.081855 -1.675
 2528 1   14.392096 -39.899197 -1.675
 2529 1   13.168898 -39.177958 -1.675
 2530 1   13.181911 -37.758017 -1.675
 2531 1   14.418122 -37.059316 -1.675
 2532 1   11.932687 -39.876658 -1.675
 2533 1   10.709489 -39.155419 -1.675
 2534 1   10.722502 -37.735478 -1.675
 2535 1   11.958713 -37.036778 -1.675
 2536 1    9.473279 -39.854120 -1.675
 2537 1    8.250081 -39.132880 -1.675
 2538 1    8.263093 -37.712940 -1.675
 2539 1    9.499304 -37.014239 -1.675
 2540 1    7.013870 -39.831581 -1.675
 2541 1    5.790672 -39.110341 -1.675
 2542 1    5.803684 -37.690401 -1.675
 2543 1    7.039895 -36.991700 -1.675
 2544 1    4.554461 -39.809042 -1.675
 2545 1    3.331263 -39.087803 -1.675
 2546 1    3.344276 -37.667862 -1.675
 2547 1    4.580486 -36.969161 -1.675
 2548 1    2.095052 -39.786503 -1.675
 2549 1    0.871854 -39.065264 -1.675
 2550 1    0.884867 -37.645324 -1.675
 2551 1    2.121077 -36.946623 -1.675
 2552 1   -0.364357 -39.763965 -1.675
 2553 1   -1.587555 -39.042725 -1.675
 2554 1   -1.574542 -37.622785 -1.675
 2555 1   -0.338331 -36.924084 -1.675
 2556 1   -2.823766 -39.741426 -1.675
 2557 1   -4.046964 -39.020186 -1.675
 2558 1   -4.033951 -37.600246 -1.675
 2559 1   -2.797740 -36.901545 -1.675
 2560 1   -5.283175 -39.718887 -1.675
 2561 1   -6.506373 -38.997648 -1.675
 2562 1   -6.493360 -37.577707 -1.675
 2563 1   -5.257149 -36.879006 -1.675
 2564 1   -7.742583 -39.696349 -1.675
 2565 1   -8.965782 -38.975109 -1.675
 2566 1   -8.952769 -37.555169 -1.675
 2567 1   -7.716558 -36.856468 -1.675
 2568 1  -10.201992 -39.673810 -1.675
 2569 1  -11.425190 -38.952570 -1.675
 2570 1  -11.412178 -37.532630 -1.675
 2571 1  -10.175967 -36.833929 -1.675
 2572 1  -12.661401 -39.651271 -1.675
 2573 1  -13.884599 -38.930031 -1.675
 2574 1  -13.871587 -37.510091 -1.675
 2575 1  -12.635376 -36.811390 -1.675
 2576 1  -15.120810 -39.628732 -1.675
 2577 1  -16.344008 -38.907493 -1.675
 2578 1  -16.330995 -37.487552 -1.675
 2579 1  -15.094785 -36.788852 -1.675
 2580 1  -17.580219 -39.606194 -1.675
 2581 1  -18.803417 -38.884954 -1.675
 2582 1  -18.790404 -37.465014 -1.675
 2583 1  -17.554193 -36.766313 -1.675
 2584 1  -20.039628 -39.583655 -1.675
 2585 1  -21.262826 -38.862415 -1.675
 2586 1  -21.249813 -37.442475 -1.675
 2587 1  -20.013602 -36.743774 -1.675
 2588 1  -22.499037 -39.561116 -1.675
 2589 1  -23.722235 -38.839877 -1.675
 2590 1  -23.709222 -37.419936 -1.675
 2591 1  -22.473011 -36.721235 -1.675
 2592 1  -24.958446 -39.538577 -1.675
 2593 1  -26.181644 -38.817338 -1.675
 2594 1  -26.168631 -37.397397 -1.675
 2595 1  -24.932420 -36.698697 -1.675
 2596 1  -27.417854 -39.516039 -1.675
 2597 1  -28.641053 -38.794799 -1.675
 2598 1  -28.628040 -37.374859 -1.675
 2599 1  -27.391829 -36.676158 -1.675
 2600 1  -29.877263 -39.493500 -1.675
 2601 1  -31.100461 -38.772260 -1.675
 2602 1  -31.087449 -37.352320 -1.675
 2603 1  -29.851238 -36.653619 -1.675
 2604 1  -32.336672 -39.470961 -1.675
 2605 1  -33.559870 -38.749722 -1.675
 2606 1  -33.546858 -37.329781 -1.675
 2607 1  -32.310647 -36.631080 -1.675
 2608 1  -34.796081 -39.448422 -1.675
 2609 1  -36.019279 -38.727183 -1.675
 2610 1  -36.006266 -37.307242 -1.675
 2611 1  -34.770056 -36.608542 -1.675
 2612 1  -37.255490 -39.425884 -1.675
 2613 1  -38.478688 -38.704644 -1.675
 2614 1  -38.465675 -37.284704 -1.675
 2615 1  -37.229464 -36.586003 -1.675
 2616 1  -39.714899 -39.403345 -1.675
 2617 1  -40.938097 -38.682105 -1.675
 2618 1  -40.925084 -37.262165 -1.675
 2619 1  -39.688873 -36.563464 -1.675
 2620 1  -42.174308 -39.380806 -1.675
 2621 1  -43.397506 -38.659567 -1.675
 2622 1  -43.384493 -37.239626 -1.675
 2623 1  -42.148282 -36.540925 -1.675
 2624 1  -44.633717 -39.358267 -1.675
 2625 1  -45.856915 -38.637028 -1.675
 2626 1  -45.843902 -37.217088 -1.675
 2627 1  -44.607691 -36.518387 -1.675
 2628 1  -47.093125 -39.335729 -1.675
 2629 1  -48.316324 -38.614489 -1.675
 2630 1  -48.303311 -37.194549 -1.675
 2631 1  -47.067100 -36.495848 -1.675
 2632 1  -49.552534 -39.313190 -1.675
 2633 1  -50.775732 -38.591950 -1.675
 2634 1  -50.762720 -37.172010 -1.675
 2635 1  -49.526509 -36.473309 -1.675
 2636 1  -52.011943 -39.290651 -1.675
 2637 1  -53.235141 -38.569412 -1.675
 2638 1  -53.222129 -37.149471 -1.675
 2639 1  -51.985918 -36.450771 -1.675
 2640 1  -54.471352 -39.268113 -1.675
 2641 1  -55.694550 -38.546873 -1.675
 2642 1  -55.681537 -37.126933 -1.675
 2643 1  -54.445327 -36.428232 -1.675
 2644 1  -56.930761 -39.245574 -1.675
 2645 1  -58.153959 -38.524334 -1.675
 2646 1  -58.140946 -37.104394 -1.675
 2647 1  -56.904735 -36.405693 -1.675
 2648 1  -59.390170 -39.223035 -1.675
 2649 1  -60.613368 -38.501795 -1.675
 2650 1  -60.600355 -37.081855 -1.675
 2651 1  -59.364144 -36.383154 -1.675
 2652 1  -61.849579 -39.200496 -1.675
 2653 1  -63.072777 -38.479257 -1.675
 2654 1  -63.059764 -37.059316 -1.675
 2655 1  -61.823553 -36.360616 -1.675
 2656 1  -64.308988 -39.177958 -1.675
 2657 1  -65.532186 -38.456718 -1.675
 2658 1  -65.519173 -37.036778 -1.675
 2659 1  -64.282962 -36.338077 -1.675
 2660 1  -66.768396 -39.155419 -1.675
 2661 1  -67.991595 -38.434179 -1.675
 2662 1  -67.978582 -37.014239 -1.675
 2663 1  -66.742371 -36.315538 -1.675
 2664 1  -69.227805 -39.132880 -1.675
 2665 1  -70.451003 -38.411641 -1.675
 2666 1  -70.437991 -36.991700 -1.675
 2667 1  -69.201780 -36.292999 -1.675
 2668 1  -71.687214 -39.110341 -1.675
 2669 1  -72.910412 -38.389102 -1.675
 2670 1  -72.897400 -36.969161 -1.675
 2671 1  -71.661189 -36.270461 -1.675
 2672 1  -74.146623 -39.087803 -1.675
 2673 1  -75.369821 -38.366563 -1.675
 2674 1  -75.356808 -36.946623 -1.675
 2675 1  -74.120598 -36.247922 -1.675
 2676 1  -76.606032 -39.065264 -1.675
 2677 1  -77.829230 -38.344024 -1.675
 2678 1  -77.816217 -36.924084 -1.675
 2679 1  -76.580006 -36.225383 -1.675
 2680 1  -79.065441 -39.042725 -1.675
 2681 1  -80.288639 -38.321486 -1.675
 2682 1  -80.275626 -36.901545 -1.675
 2683 1  -79.039415 -36.202844 -1.675
 2684 1  -81.524850 -39.020186 -1.675
 2685 1  -82.748048 -38.298947 -1.675
 2686 1  -82.735035 -36.879006 -1.675
 2687 1  -81.498824 -36.180306 -1.675
 2688 1  -83.984259 -38.997648 -1.675
 2689 1  -85.207457 -38.276408 -1.675
 2690 1  -85.194444 -36.856468 -1.675
 2691 1  -83.958233 -36.157767 -1.675
 2692 1  -86.443667 -38.975109 -1.675
 2693 1  -87.666865 -38.253869 -1.675
 2694 1  -87.653853 -36.833929 -1.675
 2695 1  -86.417642 -36.135228 -1.675
 2696 1  -88.903076 -38.952570 -1.675
 2697 1  -90.126274 -38.231331 -1.675
 2698 1  -90.113262 -36.811390 -1.675
 2699 1  -88.877051 -36.112689 -1.675
 2700 1  -91.362485 -38.930031 -1.675
 2701 1  -92.585683 -38.208792 -1.675
 2702 1  -92.572670 -36.788852 -1.675
 2703 1  -91.336460 -36.090151 -1.675
 2704 1  -93.821894 -38.907493 -1.675
 2705 1  -95.045092 -38.186253 -1.675
 2706 1  -95.032079 -36.766313 -1.675
 2707 1  -93.795869 -36.067612 -1.675
 2708 1  -96.281303 -38.884954 -1.675
 2709 1  -97.504501 -38.163714 -1.675
 2710 1  -97.491488 -36.743774 -1.675
 2711 1  -96.255277 -36.045073 -1.675
 2712 1  -98.740712 -38.862415 -1.675
 2713 1  -99.963910 -38.141176 -1.675
 2714 1  -99.950897 -36.721235 -1.675
 2715 1  -98.714686 -36.022535 -1.675
 2716 1 -101.200121 -38.839877 -1.675
 2717 1 -102.423319 -38.118637 -1.675
 2718 1 -102.410306 -36.698697 -1.675
 2719 1 -101.174095 -35.999996 -1.675
 2720 1 -103.659530 -38.817338 -1.675
 2721 1 -104.882728 -38.096098 -1.675
 2722 1 -104.869715 -36.676158 -1.675
 2723 1 -103.633504 -35.977457 -1.675
 2724 1 -106.118938 -38.794799 -1.675
 2725 1 -107.342136 -38.073560 -1.675
 2726 1 -107.329124 -36.653619 -1.675
 2727 1 -106.092913 -35.954918 -1.675
 2728 1 -108.578347 -38.772260 -1.675
 2729 1 -109.801545 -38.051021 -1.675
 2730 1 -109.788533 -36.631080 -1.675
 2731 1 -108.552322 -35.932380 -1.675
 2732 1 -111.037756 -38.749722 -1.675
 2733 1 -112.260954 -38.028482 -1.675
 2734 1 -112.247941 -36.608542 -1.675
 2735 1 -111.011731 -35.909841 -1.675
 2736 1 -113.497165 -38.727183 -1.675
 2737 1 -114.720363 -38.005943 -1.675
 2738 1 -114.707350 -36.586003 -1.675
 2739 1 -113.471140 -35.887302 -1.675
 2740 1 -115.956574 -38.704644 -1.675
 2741 1 -115.930548 -35.864763 -1.675
 2742 1  115.266898 -36.563464 -1.675
 2743 1  114.043700 -35.842225 -1.675
 2744 1  114.056713 -34.422284 -1.675
 2745 1  115.292924 -33.723583 -1.675
 2746 1  112.807490 -36.540925 -1.675
 2747 1  111.584291 -35.819686 -1.675
 2748 1  111.597304 -34.399746 -1.675
 2749 1  112.833515 -33.701045 -1.675
 2750 1  110.348081 -36.518387 -1.675
 2751 1  109.124883 -35.797147 -1.675
 2752 1  109.137895 -34.377207 -1.675
 2753 1  110.374106 -33.678506 -1.675
 2754 1  107.888672 -36.495848 -1.675
 2755 1  106.665474 -35.774608 -1.675
 2756 1  106.678486 -34.354668 -1.675
 2757 1  107.914697 -33.655967 -1.675
 2758 1  105.429263 -36.473309 -1.675
 2759 1  104.206065 -35.752070 -1.675
 2760 1  104.219078 -34.332129 -1.675
 2761 1  105.455288 -33.633428 -1.675
 2762 1  102.969854 -36.450771 -1.675
 2763 1  101.746656 -35.729531 -1.675
 2764 1  101.759669 -34.309591 -1.675
 2765 1  102.995880 -33.610890 -1.675
 2766 1  100.510445 -36.428232 -1.675
 2767 1   99.287247 -35.706992 -1.675
 2768 1   99.300260 -34.287052 -1.675
 2769 1  100.536471 -33.588351 -1.675
 2770 1   98.051036 -36.405693 -1.675
 2771 1   96.827838 -35.684453 -1.675
 2772 1   96.840851 -34.264513 -1.675
 2773 1   98.077062 -33.565812 -1.675
 2774 1   95.591627 -36.383154 -1.675
 2775 1   94.368429 -35.661915 -1.675
 2776 1   94.381442 -34.241974 -1.675
 2777 1   95.617653 -33.543274 -1.675
 2778 1   93.132219 -36.360616 -1.675
 2779 1   91.909020 -35.639376 -1.675
 2780 1   91.922033 -34.219436 -1.675
 2781 1   93.158244 -33.520735 -1.675
 2782 1   90.672810 -36.338077 -1.675
 2783 1   89.449612 -35.616837 -1.675
 2784 1   89.462624 -34.196897 -1.675
 2785 1   90.698835 -33.498196 -1.675
 2786 1   88.213401 -36.315538 -1.675
 2787 1   86.990203 -35.594299 -1.675
 2788 1   87.003215 -34.174358 -1.675
 2789 1   88.239426 -33.475657 -1.675
 2790 1   85.753992 -36.292999 -1.675
 2791 1   84.530794 -35.571760 -1.675
 2792 1   84.543807 -34.151819 -1.675
 2793 1   85.780017 -33.453119 -1.675
 2794 1   83.294583 -36.270461 -1.675
 2795 1   82.071385 -35.549221 -1.675
 2796 1   82.084398 -34.129281 -1.675
 2797 1   83.320609 -33.430580 -1.675
 2798 1   80.835174 -36.247922 -1.675
 2799 1   79.611976 -35.526682 -1.675
 2800 1   79.624989 -34.106742 -1.675
 2801 1   80.861200 -33.408041 -1.675
 2802 1   78.375765 -36.225383 -1.675
 2803 1   77.152567 -35.504144 -1.675
 2804 1   77.165580 -34.084203 -1.675
 2805 1   78.401791 -33.385502 -1.675
 2806 1   75.916356 -36.202844 -1.675
 2807 1   74.693158 -35.481605 -1.675
 2808 1   74.706171 -34.061664 -1.675
 2809 1   75.942382 -33.362964 -1.675
 2810 1   73.456948 -36.180306 -1.675
 2811 1   72.233749 -35.459066 -1.675
 2812 1   72.246762 -34.039126 -1.675
 2813 1   73.482973 -33.340425 -1.675
 2814 1   70.997539 -36.157767 -1.675
 2815 1   69.774341 -35.436527 -1.675
 2816 1   69.787353 -34.016587 -1.675
 2817 1   71.023564 -33.317886 -1.675
 2818 1   68.538130 -36.135228 -1.675
 2819 1   67.314932 -35.413989 -1.675
 2820 1   67.327944 -33.994048 -1.675
 2821 1   68.564155 -33.295347 -1.675
 2822 1   66.078721 -36.112689 -1.675
 2823 1   64.855523 -35.391450 -1.675
 2824 1   64.868536 -33.971510 -1.675
 2825 1   66.104746 -33.272809 -1.675
 2826 1   63.619312 -36.090151 -1.675
 2827 1   62.396114 -35.368911 -1.675
 2828 1   62.409127 -33.948971 -1.675
 2829 1   63.645338 -33.250270 -1.675
 2830 1   61.159903 -36.067612 -1.675
 2831 1   59.936705 -35.346372 -1.675
 2832 1   59.949718 -33.926432 -1.675
 2833 1   61.185929 -33.227731 -1.675
 2834 1   58.700494 -36.045073 -1.675
 2835 1   57.477296 -35.323834 -1.675
 2836 1   57.490309 -33.903893 -1.675
 2837 1   58.726520 -33.205193 -1.675
 2838 1   56.241085 -36.022535 -1.675
 2839 1   55.017887 -35.301295 -1.675
 2840 1   55.030900 -33.881355 -1.675
 2841 1   56.267111 -33.182654 -1.675
 2842 1   53.781677 -35.999996 -1.675
 2843 1   52.558479 -35.278756 -1.675
 2844 1   52.571491 -33.858816 -1.675
 2845 1   53.807702 -33.160115 -1.675
 2846 1   51.322268 -35.977457 -1.675
 2847 1   50.099070 -35.256217 -1.675
 2848 1   50.112082 -33.836277 -1.675
 2849 1   51.348293 -33.137576 -1.675
 2850 1   48.862859 -35.954918 -1.675
 2851 1   47.639661 -35.233679 -1.675
 2852 1   47.652674 -33.813738 -1.675
 2853 1   48.888884 -33.115038 -1.675
 2854 1   46.403450 -35.932380 -1.675
 2855 1   45.180252 -35.211140 -1.675
 2856 1   45.193265 -33.791200 -1.675
 2857 1   46.429475 -33.092499 -1.675
 2858 1   43.944041 -35.909841 -1.675
 2859 1   42.720843 -35.188601 -1.675
 2860 1   42.733856 -33.768661 -1.675
 2861 1   43.970067 -33.069960 -1.675
 2862 1   41.484632 -35.887302 -1.675
 2863 1   40.261434 -35.166063 -1.675
 2864 1   40.274447 -33.746122 -1.675
 2865 1   41.510658 -33.047421 -1.675
 2866 1   39.025223 -35.864763 -1.675
 2867 1   37.802025 -35.143524 -1.675
 2868 1   37.815038 -33.723583 -1.675
 2869 1   39.051249 -33.024883 -1.675
 2870 1   36.565814 -35.842225 -1.675
 2871 1   35.342616 -35.120985 -1.675
 2872 1   35.355629 -33.701045 -1.675
 2873 1   36.591840 -33.002344 -1.675
 2874 1   34.106406 -35.819686 -1.675
 2875 1   32.883208 -35.098446 -1.675
 2876 1   32.896220 -33.678506 -1.675
 2877 1   34.132431 -32.979805 -1.675
 2878 1   31.646997 -35.797147 -1.675
 2879 1   30.423799 -35.075908 -1.675
 2880 1   30.436811 -33.655967 -1.675
 2881 1   31.673022 -32.957266 -1.675
 2882 1   29.187588 -35.774608 -1.675
 2883 1   27.964390 -35.053369 -1.675
 2884 1   27.977403 -33.633428 -1.675
 2885 1   29.213613 -32.934728 -1.675
 2886 1   26.728179 -35.752070 -1.675
 2887 1   25.504981 -35.030830 -1.675
 2888 1   25.517994 -33.610890 -1.675
 2889 1   26.754204 -32.912189 -1.675
 2890 1   24.268770 -35.729531 -1.675
 2891 1   23.045572 -35.008291 -1.675
 2892 1   23.058585 -33.588351 -1.675
 2893 1   24.294796 -32.889650 -1.675
 2894 1   21.809361 -35.706992 -1.675
 2895 1   20.586163 -34.985753 -1.675
 2896 1   20.599176 -33.565812 -1.675
 2897 1   21.835387 -32.867111 -1.675
 2898 1   19.349952 -35.684453 -1.675
 2899 1   18.126754 -34.963214 -1.675
 2900 1   18.139767 -33.543274 -1.675
 2901 1   19.375978 -32.844573 -1.675
 2902 1   16.890543 -35.661915 -1.675
 2903 1   15.667345 -34.940675 -1.675
 2904 1   15.680358 -33.520735 -1.675
 2905 1   16.916569 -32.822034 -1.675
 2906 1   14.431135 -35.639376 -1.675
 2907 1   13.207937 -34.918136 -1.675
 2908 1   13.220949 -33.498196 -1.675
 2909 1   14.457160 -32.799495 -1.675
 2910 1   11.971726 -35.616837 -1.675
 2911 1   10.748528 -34.895598 -1.675
 2912 1   10.761540 -33.475657 -1.675
 2913 1   11.997751 -32.776957 -1.675
 2914 1    9.512317 -35.594299 -1.675
 2915 1    8.289119 -34.873059 -1.675
 2916 1    8.302132 -33.453119 -1.675
 2917 1    9.538342 -32.754418 -1.675
 2918 1    7.052908 -35.571760 -1.675
 2919 1    5.829710 -34.850520 -1.675
 2920 1    5.842723 -33.430580 -1.675
 2921 1    7.078933 -32.731879 -1.675
 2922 1    4.593499 -35.549221 -1.675
 2923 1    3.370301 -34.827982 -1.675
 2924 1    3.383314 -33.408041 -1.675
 2925 1    4.619525 -32.709340 -1.675
 2926 1    2.134090 -35.526682 -1.675
 2927 1    0.910892 -34.805443 -1.675
 2928 1    0.923905 -33.385502 -1.675
 2929 1    2.160116 -32.686802 -1.675
 2930 1   -0.325319 -35.504144 -1.675
 2931 1   -1.548517 -34.782904 -1.675
 2932 1   -1.535504 -33.362964 -1.675
 2933 1   -0.299293 -32.664263 -1.675
 2934 1   -2.784728 -35.481605 -1.675
 2935 1   -4.007926 -34.760365 -1.675
 2936 1   -3.994913 -33.340425 -1.675
 2937 1   -2.758702 -32.641724 -1.675
 2938 1   -5.244136 -35.459066 -1.675
 2939 1   -6.467334 -34.737827 -1.675
 2940 1   -6.454322 -33.317886 -1.675
 2941 1   -5.218111 -32.619185 -1.675
 2942 1   -7.703545 -35.436527 -1.675
 2943 1   -8.926743 -34.715288 -1.675
 2944 1   -8.913731 -33.295347 -1.675
 2945 1   -7.677520 -32.596647 -1.675
 2946 1  -10.162954 -35.413989 -1.675
 2947 1  -11.386152 -34.692749 -1.675
 2948 1  -11.373139 -33.272809 -1.675
 2949 1  -10.136929 -32.574108 -1.675
 2950 1  -12.622363 -35.391450 -1.675
 2951 1  -13.845561 -34.670210 -1.675
 2952 1  -13.832548 -33.250270 -1.675
 2953 1  -12.596338 -32.551569 -1.675
 2954 1  -15.081772 -35.368911 -1.675
 2955 1  -16.304970 -34.647672 -1.675
 2956 1  -16.291957 -33.227731 -1.675
 2957 1  -15.055746 -32.529030 -1.675
 2958 1  -17.541181 -35.346372 -1.675
 2959 1  -18.764379 -34.625133 -1.675
 2960 1  -18.751366 -33.205193 -1.675
 2961 1  -17.515155 -32.506492 -1.675
 2962 1  -20.000590 -35.323834 -1.675
 2963 1  -21.223788 -34.602594 -1.675
 2964 1  -21.210775 -33.182654 -1.675
 2965 1  -19.974564 -32.483953 -1.675
 2966 1  -22.459998 -35.301295 -1.675
 2967 1  -23.683197 -34.580055 -1.675
 2968 1  -23.670184 -33.160115 -1.675
 2969 1  -22.433973 -32.461414 -1.675
 2970 1  -24.919407 -35.278756 -1.675
 2971 1  -26.142605 -34.557517 -1.675
 2972 1  -26.129593 -33.137576 -1.675
 2973 1  -24.893382 -32.438875 -1.675
 2974 1  -27.378816 -35.256217 -1.675
 2975 1  -28.602014 -34.534978 -1.675
 2976 1  -28.589002 -33.115038 -1.675
 2977 1  -27.352791 -32.416337 -1.675
 2978 1  -29.838225 -35.233679 -1.675
 2979 1  -31.061423 -34.512439 -1.675
 2980 1  -31.048410 -33.092499 -1.675
 2981 1  -29.812200 -32.393798 -1.675
 2982 1  -32.297634 -35.211140 -1.675
 2983 1  -33.520832 -34.489900 -1.675
 2984 1  -33.507819 -33.069960 -1.675
 2985 1  -32.271608 -32.371259 -1.675
 2986 1  -34.757043 -35.188601 -1.675
 2987 1  -35.980241 -34.467362 -1.675
 2988 1  -35.967228 -33.047421 -1.675
 2989 1  -34.731017 -32.348721 -1.675
 2990 1  -37.216452 -35.166063 -1.675
 2991 1  -38.439650 -34.444823 -1.675
 2992 1  -38.426637 -33.024883 -1.675
 2993 1  -37.190426 -32.326182 -1.675
 2994 1  -39.675861 -35.143524 -1.675
 2995 1  -40.899059 -34.422284 -1.675
 2996 1  -40.886046 -33.002344 -1.675
 2997 1  -39.649835 -32.303643 -1.675
 2998 1  -42.135269 -35.120985 -1.675
 2999 1  -43.358468 -34.399746 -1.675
 3000 1  -43.345455 -32.979805 -1.675
 3001 1  -42.109244 -32.281104 -1.675
 3002 1  -44.594678 -35.098446 -1.675
 3003 1  -45.817876 -34.377207 -1.675
 3004 1  -45.804864 -32.957266 -1.675
 3005 1  -44.568653 -32.258566 -1.675
 3006 1  -47.054087 -35.075908 -1.675
 3007 1  -48.277285 -34.354668 -1.675
 3008 1  -48.264273 -32.934728 -1.675
 3009 1  -47.028062 -32.236027 -1.675
 3010 1  -49.513496 -35.053369 -1.675
 3011 1  -50.736694 -34.332129 -1.675
 3012 1  -50.723681 -32.912189 -1.675
 3013 1  -49.487471 -32.213488 -1.675
 3014 1  -51.972905 -35.030830 -1.675
 3015 1  -53.196103 -34.309591 -1.675
 3016 1  -53.183090 -32.889650 -1.675
 3017 1  -51.946879 -32.190949 -1.675
 3018 1  -54.432314 -35.008291 -1.675
 3019 1  -55.655512 -34.287052 -1.675
 3020 1  -55.642499 -32.867111 -1.675
 3021 1  -54.406288 -32.168411 -1.675
 3022 1  -56.891723 -34.985753 -1.675
 3023 1  -58.114921 -34.264513 -1.675
 3024 1  -58.101908 -32.844573 -1.675
 3025 1  -56.865697 -32.145872 -1.675
 3026 1  -59.351132 -34.963214 -1.675
 3027 1  -60.574330 -34.241974 -1.675
 3028 1  -60.561317 -32.822034 -1.675
 3029 1  -59.325106 -32.123333 -1.675
 3030 1  -61.810540 -34.940675 -1.675
 3031 1  -63.033739 -34.219436 -1.675
 3032 1  -63.020726 -32.799495 -1.675
 3033 1  -61.784515 -32.100794 -1.675
 3034 1  -64.269949 -34.918136 -1.675
 3035 1  -65.493147 -34.196897 -1.675
 3036 1  -65.480135 -32.776957 -1.675
 3037 1  -64.243924 -32.078256 -1.675
 3038 1  -66.729358 -34.895598 -1.675
 3039 1  -67.952556 -34.174358 -1.675
 3040 1  -67.939544 -32.754418 -1.675
 3041 1  -66.703333 -32.055717 -1.675
 3042 1  -69.188767 -34.873059 -1.675
 3043 1  -70.411965 -34.151819 -1.675
 3044 1  -70.398952 -32.731879 -1.675
 3045 1  -69.162742 -32.033178 -1.675
 3046 1  -71.648176 -34.850520 -1.675
 3047 1  -72.871374 -34.129281 -1.675
 3048 1  -72.858361 -32.709340 -1.675
 3049 1  -71.622150 -32.010639 -1.675
 3050 1  -74.107585 -34.827982 -1.675
 3051 1  -75.330783 -34.106742 -1.675
 3052 1  -75.317770 -32.686802 -1.675
 3053 1  -74.081559 -31.988101 -1.675
 3054 1  -76.566994 -34.805443 -1.675
 3055 1  -77.790192 -34.084203 -1.675
 3056 1  -77.777179 -32.664263 -1.675
 3057 1  -76.540968 -31.965562 -1.675
 3058 1  -79.026403 -34.782904 -1.675
 3059 1  -80.249601 -34.061664 -1.675
 3060 1  -80.236588 -32.641724 -1.675
 3061 1  -79.000377 -31.943023 -1.675
 3062 1  -81.485811 -34.760365 -1.675
 3063 1  -82.709010 -34.039126 -1.675
 3064 1  -82.695997 -32.619185 -1.675
 3065 1  -81.459786 -31.920485 -1.675
 3066 1  -83.945220 -34.737827 -1.675
 3067 1  -85.168418 -34.016587 -1.675
 3068 1  -85.155406 -32.596647 -1.675
 3069 1  -83.919195 -31.897946 -1.675
 3070 1  -86.404629 -34.715288 -1.675
 3071 1  -87.627827 -33.994048 -1.675
 3072 1  -87.614815 -32.574108 -1.675
 3073 1  -86.378604 -31.875407 -1.675
 3074 1  -88.864038 -34.692749 -1.675
 3075 1  -90.087236 -33.971510 -1.675
 3076 1  -90.074223 -32.551569 -1.675
 3077 1  -88.838013 -31.852868 -1.675
 3078 1  -91.323447 -34.670210 -1.675
 3079 1  -92.546645 -33.948971 -1.675
 3080 1  -92.533632 -32.529030 -1.675
 3081 1  -91.297421 -31.830330 -1.675
 3082 1  -93.782856 -34.647672 -1.675
 3083 1  -95.006054 -33.926432 -1.675
 3084 1  -94.993041 -32.506492 -1.675
 3085 1  -93.756830 -31.807791 -1.675
 3086 1  -96.242265 -34.625133 -1.675
 3087 1  -97.465463 -33.903893 -1.675
 3088 1  -97.452450 -32.483953 -1.675
 3089 1  -96.216239 -31.785252 -1.675
 3090 1  -98.701674 -34.602594 -1.675
 3091 1  -99.924872 -33.881355 -1.675
 3092 1  -99.911859 -32.461414 -1.675
 3093 1  -98.675648 -31.762713 -1.675
 3094 1 -101.161082 -34.580055 -1.675
 3095 1 -102.384280 -33.858816 -1.675
 3096 1 -102.371268 -32.438875 -1.675
 3097 1 -101.135057 -31.740175 -1.675
 3098 1 -103.620491 -34.557517 -1.675
 3099 1 -104.843689 -33.836277 -1.675
 3100 1 -104.830677 -32.416337 -1.675
 3101 1 -103.594466 -31.717636 -1.675
 3102 1 -106.079900 -34.534978 -1.675
 3103 1 -107.303098 -33.813738 -1.675
 3104 1 -107.290085 -32.393798 -1.675
 3105 1 -106.053875 -31.695097 -1.675
 3106 1 -108.539309 -34.512439 -1.675
 3107 1 -109.762507 -33.791200 -1.675
 3108 1 -109.749494 -32.371259 -1.675
 3109 1 -108.513284 -31.672558 -1.675
 3110 1 -110.998718 -34.489900 -1.675
 3111 1 -112.221916 -33.768661 -1.675
 3112 1 -112.208903 -32.348721 -1.675
 3113 1 -110.972692 -31.650020 -1.675
 3114 1 -113.458127 -34.467362 -1.675
 3115 1 -114.681325 -33.746122 -1.675
 3116 1 -114.668312 -32.326182 -1.675
 3117 1 -113.432101 -31.627481 -1.675
 3118 1 -115.917536 -34.444823 -1.675
 3119 1 -115.891510 -31.604942 -1.675
 3120 1  115.305937 -32.303643 -1.675
 3121 1  114.082739 -31.582404 -1.675
 3122 1  114.095751 -30.162463 -1.675
 3123 1  115.331962 -29.463762 -1.675
 3124 1  112.846528 -32.281104 -1.675
 3125 1  111.623330 -31.559865 -1.675
 3126 1  111.636342 -30.139924 -1.675
 3127 1  112.872553 -29.441224 -1.675
 3128 1  110.387119 -32.258566 -1.675
 3129 1  109.163921 -31.537326 -1.675
 3130 1  109.176934 -30.117386 -1.675
 3131 1  110.413144 -29.418685 -1.675
 3132 1  107.927710 -32.236027 -1.675
 3133 1  106.704512 -31.514787 -1.675
 3134 1  106.717525 -30.094847 -1.675
 3135 1  107.953736 -29.396146 -1.675
 3136 1  105.468301 -32.213488 -1.675
 3137 1  104.245103 -31.492249 -1.675
 3138 1  104.258116 -30.072308 -1.675
 3139 1  105.494327 -29.373607 -1.675
 3140 1  103.008892 -32.190949 -1.675
 3141 1  101.785694 -31.469710 -1.675
 3142 1  101.798707 -30.049769 -1.675
 3143 1  103.034918 -29.351069 -1.675
 3144 1  100.549483 -32.168411 -1.675
 3145 1   99.326285 -31.447171 -1.675
 3146 1   99.339298 -30.027231 -1.675
 3147 1  100.575509 -29.328530 -1.675
 3148 1   98.090075 -32.145872 -1.675
 3149 1   96.866876 -31.424632 -1.675
 3150 1   96.879889 -30.004692 -1.675
 3151 1   98.116100 -29.305991 -1.675
 3152 1   95.630666 -32.123333 -1.675
 3153 1   94.407468 -31.402094 -1.675
 3154 1   94.420480 -29.982153 -1.675
 3155 1   95.656691 -29.283452 -1.675
 3156 1   93.171257 -32.100794 -1.675
 3157 1   91.948059 -31.379555 -1.675
 3158 1   91.961071 -29.959615 -1.675
 3159 1   93.197282 -29.260914 -1.675
 3160 1   90.711848 -32.078256 -1.675
 3161 1   89.488650 -31.357016 -1.675
 3162 1   89.501663 -29.937076 -1.675
 3163 1   90.737873 -29.238375 -1.675
 3164 1   88.252439 -32.055717 -1.675
 3165 1   87.029241 -31.334477 -1.675
 3166 1   87.042254 -29.914537 -1.675
 3167 1   88.278465 -29.215836 -1.675
 3168 1   85.793030 -32.033178 -1.675
 3169 1   84.569832 -31.311939 -1.675
 3170 1   84.582845 -29.891998 -1.675
 3171 1   85.819056 -29.193297 -1.675
 3172 1   83.333621 -32.010639 -1.675
 3173 1   82.110423 -31.289400 -1.675
 3174 1   82.123436 -29.869460 -1.675
 3175 1   83.359647 -29.170759 -1.675
 3176 1   80.874212 -31.988101 -1.675
 3177 1   79.651014 -31.266861 -1.675
 3178 1   79.664027 -29.846921 -1.675
 3179 1   80.900238 -29.148220 -1.675
 3180 1   78.414804 -31.965562 -1.675
 3181 1   77.191605 -31.244322 -1.675
 3182 1   77.204618 -29.824382 -1.675
 3183 1   78.440829 -29.125681 -1.675
 3184 1   75.955395 -31.943023 -1.675
 3185 1   74.732197 -31.221784 -1.675
 3186 1   74.745209 -29.801843 -1.675
 3187 1   75.981420 -29.103143 -1.675
 3188 1   73.495986 -31.920485 -1.675
 3189 1   72.272788 -31.199245 -1.675
 3190 1   72.285800 -29.779305 -1.675
 3191 1   73.522011 -29.080604 -1.675
 3192 1   71.036577 -31.897946 -1.675
 3193 1   69.813379 -31.176706 -1.675
 3194 1   69.826392 -29.756766 -1.675
 3195 1   71.062602 -29.058065 -1.675
 3196 1   68.577168 -31.875407 -1.675
 3197 1   67.353970 -31.154168 -1.675
 3198 1   67.366983 -29.734227 -1.675
 3199 1   68.603194 -29.035526 -1.675
 3200 1   66.117759 -31.852868 -1.675
 3201 1   64.894561 -31.131629 -1.675
 3202 1   64.907574 -29.711688 -1.675
 3203 1   66.143785 -29.012988 -1.675
 3204 1   63.658350 -31.830330 -1.675
 3205 1   62.435152 -31.109090 -1.675
 3206 1   62.448165 -29.689150 -1.675
 3207 1   63.684376 -28.990449 -1.675
 3208 1   61.198941 -31.807791 -1.675
 3209 1   59.975743 -31.086551 -1.675
 3210 1   59.988756 -29.666611 -1.675
 3211 1   61.224967 -28.967910 -1.675
 3212 1   58.739533 -31.785252 -1.675
 3213 1   57.516334 -31.064013 -1.675
 3214 1   57.529347 -29.644072 -1.675
 3215 1   58.765558 -28.945371 -1.675
 3216 1   56.280124 -31.762713 -1.675
 3217 1   55.056926 -31.041474 -1.675
 3218 1   55.069938 -29.621533 -1.675
 3219 1   56.306149 -28.922833 -1.675
 3220 1   53.820715 -31.740175 -1.675
 3221 1   52.597517 -31.018935 -1.675
 3222 1   52.610529 -29.598995 -1.675
 3223 1   53.846740 -28.900294 -1.675
 3224 1   51.361306 -31.717636 -1.675
 3225 1   50.138108 -30.996396 -1.675
 3226 1   50.151121 -29.576456 -1.675
 3227 1   51.387331 -28.877755 -1.675
 3228 1   48.901897 -31.695097 -1.675
 3229 1   47.678699 -30.973858 -1.675
 3230 1   47.691712 -29.553917 -1.675
 3231 1   48.927923 -28.855216 -1.675
 3232 1   46.442488 -31.672558 -1.675
 3233 1   45.219290 -30.951319 -1.675
 3234 1   45.232303 -29.531379 -1.675
 3235 1   46.468514 -28.832678 -1.675
 3236 1   43.983079 -31.650020 -1.675
 3237 1   42.759881 -30.928780 -1.675
 3238 1   42.772894 -29.508840 -1.675
 3239 1   44.009105 -28.810139 -1.675
 3240 1   41.523670 -31.627481 -1.675
 3241 1   40.300472 -30.906241 -1.675
 3242 1   40.313485 -29.486301 -1.675
 3243 1   41.549696 -28.787600 -1.675
 3244 1   39.064262 -31.604942 -1.675
 3245 1   37.841064 -30.883703 -1.675
 3246 1   37.854076 -29.463762 -1.675
 3247 1   39.090287 -28.765061 -1.675
 3248 1   36.604853 -31.582404 -1.675
 3249 1   35.381655 -30.861164 -1.675
 3250 1   35.394667 -29.441224 -1.675
 3251 1   36.630878 -28.742523 -1.675
 3252 1   34.145444 -31.559865 -1.675
 3253 1   32.922246 -30.838625 -1.675
 3254 1   32.935259 -29.418685 -1.675
 3255 1   34.171469 -28.719984 -1.675
 3256 1   31.686035 -31.537326 -1.675
 3257 1   30.462837 -30.816086 -1.675
 3258 1   30.475850 -29.396146 -1.675
 3259 1   31.712060 -28.697445 -1.675
 3260 1   29.226626 -31.514787 -1.675
 3261 1   28.003428 -30.793548 -1.675
 3262 1   28.016441 -29.373607 -1.675
 3263 1   29.252652 -28.674907 -1.675
 3264 1   26.767217 -31.492249 -1.675
 3265 1   25.544019 -30.771009 -1.675
 3266 1   25.557032 -29.351069 -1.675
 3267 1   26.793243 -28.652368 -1.675
 3268 1   24.307808 -31.469710 -1.675
 3269 1   23.084610 -30.748470 -1.675
 3270 1   23.097623 -29.328530 -1.675
 3271 1   24.333834 -28.629829 -1.675
 3272 1   21.848399 -31.447171 -1.675
 3273 1   20.625201 -30.725932 -1.675
 3274 1   20.638214 -29.305991 -1.675
 3275 1   21.874425 -28.607290 -1.675
 3276 1   19.388991 -31.424632 -1.675
 3277 1   18.165793 -30.703393 -1.675
 3278 1   18.178805 -29.283452 -1.675
 3279 1   19.415016 -28.584752 -1.675
 3280 1   16.929582 -31.402094 -1.675
 3281 1   15.706384 -30.680854 -1.675
 3282 1   15.719396 -29.260914 -1.675
 3283 1   16.955607 -28.562213 -1.675
 3284 1   14.470173 -31.379555 -1.675
 3285 1   13.246975 -30.658315 -1.675
 3286 1   13.259988 -29.238375 -1.675
 3287 1   14.496198 -28.539674 -1.675
 3288 1   12.010764 -31.357016 -1.675
 3289 1   10.787566 -30.635777 -1.675
 3290 1   10.800579 -29.215836 -1.675
 3291 1   12.036789 -28.517135 -1.675
 3292 1    9.551355 -31.334477 -1.675
 3293 1    8.328157 -30.613238 -1.675
 3294 1    8.341170 -29.193297 -1.675
 3295 1    9.577381 -28.494597 -1.675
 3296 1    7.091946 -31.311939 -1.675
 3297 1    5.868748 -30.590699 -1.675
 3298 1    5.881761 -29.170759 -1.675
 3299 1    7.117972 -28.472058 -1.675
 3300 1    4.632537 -31.289400 -1.675
 3301 1    3.409339 -30.568160 -1.675
 3302 1    3.422352 -29.148220 -1.675
 3303 1    4.658563 -28.449519 -1.675
 3304 1    2.173128 -31.266861 -1.675
 3305 1    0.949930 -30.545622 -1.675
 3306 1    0.962943 -29.125681 -1.675
 3307 1    2.199154 -28.426980 -1.675
 3308 1   -0.286280 -31.244322 -1.675
 3309 1   -1.509478 -30.523083 -1.675
 3310 1   -1.496466 -29.103143 -1.675
 3311 1   -0.260255 -28.404442 -1.675
 3312 1   -2.745689 -31.221784 -1.675
 3313 1   -3.968887 -30.500544 -1.675
 3314 1   -3.955875 -29.080604 -1.675
 3315 1   -2.719664 -28.381903 -1.675
 3316 1   -5.205098 -31.199245 -1.675
 3317 1   -6.428296 -30.478005 -1.675
 3318 1   -6.415283 -29.058065 -1.675
 3319 1   -5.179073 -28.359364 -1.675
 3320 1   -7.664507 -31.176706 -1.675
 3321 1   -8.887705 -30.455467 -1.675
 3322 1   -8.874692 -29.035526 -1.675
 3323 1   -7.638482 -28.336826 -1.675
 3324 1  -10.123916 -31.154168 -1.675
 3325 1  -11.347114 -30.432928 -1.675
 3326 1  -11.334101 -29.012988 -1.675
 3327 1  -10.097890 -28.314287 -1.675
 3328 1  -12.583325 -31.131629 -1.675
 3329 1  -13.806523 -30.410389 -1.675
 3330 1  -13.793510 -28.990449 -1.675
 3331 1  -12.557299 -28.291748 -1.675
 3332 1  -15.042734 -31.109090 -1.675
 3333 1  -16.265932 -30.387850 -1.675
 3334 1  -16.252919 -28.967910 -1.675
 3335 1  -15.016708 -28.269209 -1.675
 3336 1  -17.502143 -31.086551 -1.675
 3337 1  -18.725341 -30.365312 -1.675
 3338 1  -18.712328 -28.945371 -1.675
 3339 1  -17.476117 -28.246671 -1.675
 3340 1  -19.961551 -31.064013 -1.675
 3341 1  -21.184749 -30.342773 -1.675
 3342 1  -21.171737 -28.922833 -1.675
 3343 1  -19.935526 -28.224132 -1.675
 3344 1  -22.420960 -31.041474 -1.675
 3345 1  -23.644158 -30.320234 -1.675
 3346 1  -23.631146 -28.900294 -1.675
 3347 1  -22.394935 -28.201593 -1.675
 3348 1  -24.880369 -31.018935 -1.675
 3349 1  -26.103567 -30.297696 -1.675
 3350 1  -26.090554 -28.877755 -1.675
 3351 1  -24.854344 -28.179054 -1.675
 3352 1  -27.339778 -30.996396 -1.675
 3353 1  -28.562976 -30.275157 -1.675
 3354 1  -28.549963 -28.855216 -1.675
 3355 1  -27.313753 -28.156516 -1.675
 3356 1  -29.799187 -30.973858 -1.675
 3357 1  -31.022385 -30.252618 -1.675
 3358 1  -31.009372 -28.832678 -1.675
 3359 1  -29.773161 -28.133977 -1.675
 3360 1  -32.258596 -30.951319 -1.675
 3361 1  -33.481794 -30.230079 -1.675
 3362 1  -33.468781 -28.810139 -1.675
 3363 1  -32.232570 -28.111438 -1.675
 3364 1  -34.718005 -30.928780 -1.675
 3365 1  -35.941203 -30.207541 -1.675
 3366 1  -35.928190 -28.787600 -1.675
 3367 1  -34.691979 -28.088899 -1.675
 3368 1  -37.177413 -30.906241 -1.675
 3369 1  -38.400612 -30.185002 -1.675
 3370 1  -38.387599 -28.765061 -1.675
 3371 1  -37.151388 -28.066361 -1.675
 3372 1  -39.636822 -30.883703 -1.675
 3373 1  -40.860020 -30.162463 -1.675
 3374 1  -40.847008 -28.742523 -1.675
 3375 1  -39.610797 -28.043822 -1.675
 3376 1  -42.096231 -30.861164 -1.675
 3377 1  -43.319429 -30.139924 -1.675
 3378 1  -43.306417 -28.719984 -1.675
 3379 1  -42.070206 -28.021283 -1.675
 3380 1  -44.555640 -30.838625 -1.675
 3381 1  -45.778838 -30.117386 -1.675
 3382 1  -45.765825 -28.697445 -1.675
 3383 1  -44.529615 -27.998744 -1.675
 3384 1  -47.015049 -30.816086 -1.675
 3385 1  -48.238247 -30.094847 -1.675
 3386 1  -48.225234 -28.674907 -1.675
 3387 1  -46.989023 -27.976206 -1.675
 3388 1  -49.474458 -30.793548 -1.675
 3389 1  -50.697656 -30.072308 -1.675
 3390 1  -50.684643 -28.652368 -1.675
 3391 1  -49.448432 -27.953667 -1.675
 3392 1  -51.933867 -30.771009 -1.675
 3393 1  -53.157065 -30.049769 -1.675
 3394 1  -53.144052 -28.629829 -1.675
 3395 1  -51.907841 -27.931128 -1.675
 3396 1  -54.393276 -30.748470 -1.675
 3397 1  -55.616474 -30.027231 -1.675
 3398 1  -55.603461 -28.607290 -1.675
 3399 1  -54.367250 -27.908590 -1.675
 3400 1  -56.852684 -30.725932 -1.675
 3401 1  -58.075883 -30.004692 -1.675
 3402 1  -58.062870 -28.584752 -1.675
 3403 1  -56.826659 -27.886051 -1.675
 3404 1  -59.312093 -30.703393 -1.675
 3405 1  -60.535291 -29.982153 -1.675
 3406 1  -60.522279 -28.562213 -1.675
 3407 1  -59.286068 -27.863512 -1.675
 3408 1  -61.771502 -30.680854 -1.675
 3409 1  -62.994700 -29.959615 -1.675
 3410 1  -62.981688 -28.539674 -1.675
 3411 1  -61.745477 -27.840973 -1.675
 3412 1  -64.230911 -30.658315 -1.675
 3413 1  -65.454109 -29.937076 -1.675
 3414 1  -65.441096 -28.517135 -1.675
 3415 1  -64.204886 -27.818435 -1.675
 3416 1  -66.690320 -30.635777 -1.675
 3417 1  -67.913518 -29.914537 -1.675
 3418 1  -67.900505 -28.494597 -1.675
 3419 1  -66.664294 -27.795896 -1.675
 3420 1  -69.149729 -30.613238 -1.675
 3421 1  -70.372927 -29.891998 -1.675
 3422 1  -70.359914 -28.472058 -1.675
 3423 1  -69.123703 -27.773357 -1.675
 3424 1  -71.609138 -30.590699 -1.675
 3425 1  -72.832336 -29.869460 -1.675
 3426 1  -72.819323 -28.449519 -1.675
 3427 1  -71.583112 -27.750818 -1.675
 3428 1  -74.068547 -30.568160 -1.675
 3429 1  -75.291745 -29.846921 -1.675
 3430 1  -75.278732 -28.426980 -1.675
 3431 1  -74.042521 -27.728280 -1.675
 3432 1  -76.527955 -30.545622 -1.675
 3433 1  -77.751154 -29.824382 -1.675
 3434 1  -77.738141 -28.404442 -1.675
 3435 1  -76.501930 -27.705741 -1.675
 3436 1  -78.987364 -30.523083 -1.675
 3437 1  -80.210562 -29.801843 -1.675
 3438 1  -80.197550 -28.381903 -1.675
 3439 1  -78.961339 -27.683202 -1.675
 3440 1  -81.446773 -30.500544 -1.675
 3441 1  -82.669971 -29.779305 -1.675
 3442 1  -82.656959 -28.359364 -1.675
 3443 1  -81.420748 -27.660663 -1.675
 3444 1  -83.906182 -30.478005 -1.675
 3445 1  -85.129380 -29.756766 -1.675
 3446 1  -85.116367 -28.336826 -1.675
 3447 1  -83.880157 -27.638125 -1.675
 3448 1  -86.365591 -30.455467 -1.675
 3449 1  -87.588789 -29.734227 -1.675
 3450 1  -87.575776 -28.314287 -1.675
 3451 1  -86.339565 -27.615586 -1.675
 3452 1  -88.825000 -30.432928 -1.675
 3453 1  -90.048198 -29.711688 -1.675
 3454 1  -90.035185 -28.291748 -1.675
 3455 1  -88.798974 -27.593047 -1.675
 3456 1  -91.284409 -30.410389 -1.675
 3457 1  -92.507607 -29.689150 -1.675
 3458 1  -92.494594 -28.269209 -1.675
 3459 1  -91.258383 -27.570508 -1.675
 3460 1  -93.743818 -30.387850 -1.675
 3461 1  -94.967016 -29.666611 -1.675
 3462 1  -94.954003 -28.246671 -1.675
 3463 1  -93.717792 -27.547970 -1.675
 3464 1  -96.203226 -30.365312 -1.675
 3465 1  -97.426425 -29.644072 -1.675
 3466 1  -97.413412 -28.224132 -1.675
 3467 1  -96.177201 -27.525431 -1.675
 3468 1  -98.662635 -30.342773 -1.675
 3469 1  -99.885833 -29.621533 -1.675
 3470 1  -99.872821 -28.201593 -1.675
 3471 1  -98.636610 -27.502892 -1.675
 3472 1 -101.122044 -30.320234 -1.675
 3473 1 -102.345242 -29.598995 -1.675
 3474 1 -102.332230 -28.179054 -1.675
 3475 1 -101.096019 -27.480354 -1.675
 3476 1 -103.581453 -30.297696 -1.675
 3477 1 -104.804651 -29.576456 -1.675
 3478 1 -104.791638 -28.156516 -1.675
 3479 1 -103.555428 -27.457815 -1.675
 3480 1 -106.040862 -30.275157 -1.675
 3481 1 -107.264060 -29.553917 -1.675
 3482 1 -107.251047 -28.133977 -1.675
 3483 1 -106.014836 -27.435276 -1.675
 3484 1 -108.500271 -30.252618 -1.675
 3485 1 -109.723469 -29.531379 -1.675
 3486 1 -109.710456 -28.111438 -1.675
 3487 1 -108.474245 -27.412737 -1.675
 3488 1 -110.959680 -30.230079 -1.675
 3489 1 -112.182878 -29.508840 -1.675
 3490 1 -112.169865 -28.088899 -1.675
 3491 1 -110.933654 -27.390199 -1.675
 3492 1 -113.419089 -30.207541 -1.675
 3493 1 -114.642287 -29.486301 -1.675
 3494 1 -114.629274 -28.066361 -1.675
 3495 1 -113.393063 -27.367660 -1.675
 3496 1 -115.878497 -30.185002 -1.675
 3497 1 -115.852472 -27.345121 -1.675
 3498 1  115.344975 -28.043822 -1.675
 3499 1  114.121777 -27.322582 -1.675
 3500 1  114.134790 -25.902642 -1.675
 3501 1  115.371000 -25.203941 -1.675
 3502 1  112.885566 -28.021283 -1.675
 3503 1  111.662368 -27.300044 -1.675
 3504 1  111.675381 -25.880103 -1.675
 3505 1  112.911591 -25.181402 -1.675
 3506 1  110.426157 -27.998744 -1.675
 3507 1  109.202959 -27.277505 -1.675
 3508 1  109.215972 -25.857565 -1.675
 3509 1  110.452183 -25.158864 -1.675
 3510 1  107.966748 -27.976206 -1.675
 3511 1  106.743550 -27.254966 -1.675
 3512 1  106.756563 -25.835026 -1.675
 3513 1  107.992774 -25.136325 -1.675
 3514 1  105.507339 -27.953667 -1.675
 3515 1  104.284141 -27.232427 -1.675
 3516 1  104.297154 -25.812487 -1.675
 3517 1  105.533365 -25.113786 -1.675
 3518 1  103.047931 -27.931128 -1.675
 3519 1  101.824732 -27.209889 -1.675
 3520 1  101.837745 -25.789948 -1.675
 3521 1  103.073956 -25.091248 -1.675
 3522 1  100.588522 -27.908590 -1.675
 3523 1   99.365324 -27.187350 -1.675
 3524 1   99.378336 -25.767410 -1.675
 3525 1  100.614547 -25.068709 -1.675
 3526 1   98.129113 -27.886051 -1.675
 3527 1   96.905915 -27.164811 -1.675
 3528 1   96.918927 -25.744871 -1.675
 3529 1   98.155138 -25.046170 -1.675
 3530 1   95.669704 -27.863512 -1.675
 3531 1   94.446506 -27.142272 -1.675
 3532 1   94.459519 -25.722332 -1.675
 3533 1   95.695729 -25.023631 -1.675
 3534 1   93.210295 -27.840973 -1.675
 3535 1   91.987097 -27.119734 -1.675
 3536 1   92.000110 -25.699793 -1.675
 3537 1   93.236321 -25.001093 -1.675
 3538 1   90.750886 -27.818435 -1.675
 3539 1   89.527688 -27.097195 -1.675
 3540 1   89.540701 -25.677255 -1.675
 3541 1   90.776912 -24.978554 -1.675
 3542 1   88.291477 -27.795896 -1.675
 3543 1   87.068279 -27.074656 -1.675
 3544 1   87.081292 -25.654716 -1.675
 3545 1   88.317503 -24.956015 -1.675
 3546 1   85.832068 -27.773357 -1.675
 3547 1   84.608870 -27.052118 -1.675
 3548 1   84.621883 -25.632177 -1.675
 3549 1   85.858094 -24.933476 -1.675
 3550 1   83.372660 -27.750818 -1.675
 3551 1   82.149461 -27.029579 -1.675
 3552 1   82.162474 -25.609638 -1.675
 3553 1   83.398685 -24.910938 -1.675
 3554 1   80.913251 -27.728280 -1.675
 3555 1   79.690053 -27.007040 -1.675
 3556 1   79.703065 -25.587100 -1.675
 3557 1   80.939276 -24.888399 -1.675
 3558 1   78.453842 -27.705741 -1.675
 3559 1   77.230644 -26.984501 -1.675
 3560 1   77.243656 -25.564561 -1.675
 3561 1   78.479867 -24.865860 -1.675
 3562 1   75.994433 -27.683202 -1.675
 3563 1   74.771235 -26.961963 -1.675
 3564 1   74.784248 -25.542022 -1.675
 3565 1   76.020458 -24.843321 -1.675
 3566 1   73.535024 -27.660663 -1.675
 3567 1   72.311826 -26.939424 -1.675
 3568 1   72.324839 -25.519483 -1.675
 3569 1   73.561050 -24.820783 -1.675
 3570 1   71.075615 -27.638125 -1.675
 3571 1   69.852417 -26.916885 -1.675
 3572 1   69.865430 -25.496945 -1.675
 3573 1   71.101641 -24.798244 -1.675
 3574 1   68.616206 -27.615586 -1.675
 3575 1   67.393008 -26.894346 -1.675
 3576 1   67.406021 -25.474406 -1.675
 3577 1   68.642232 -24.775705 -1.675
 3578 1   66.156797 -27.593047 -1.675
 3579 1   64.933599 -26.871808 -1.675
 3580 1   64.946612 -25.451867 -1.675
 3581 1   66.182823 -24.753166 -1.675
 3582 1   63.697389 -27.570508 -1.675
 3583 1   62.474190 -26.849269 -1.675
 3584 1   62.487203 -25.429329 -1.675
 3585 1   63.723414 -24.730628 -1.675
 3586 1   61.237980 -27.547970 -1.675
 3587 1   60.014782 -26.826730 -1.675
 3588 1   60.027794 -25.406790 -1.675
 3589 1   61.264005 -24.708089 -1.675
 3590 1   58.778571 -27.525431 -1.675
 3591 1   57.555373 -26.804191 -1.675
 3592 1   57.568385 -25.384251 -1.675
 3593 1   58.804596 -24.685550 -1.675
 3594 1   56.319162 -27.502892 -1.675
 3595 1   55.095964 -26.781653 -1.675
 3596 1   55.108977 -25.361712 -1.675
 3597 1   56.345187 -24.663012 -1.675
 3598 1   53.859753 -27.480354 -1.675
 3599 1   52.636555 -26.759114 -1.675
 3600 1   52.649568 -25.339174 -1.675
 3601 1   53.885779 -24.640473 -1.675
 3602 1   51.400344 -27.457815 -1.675
 3603 1   50.177146 -26.736575 -1.675
 3604 1   50.190159 -25.316635 -1.675
 3605 1   51.426370 -24.617934 -1.675
 3606 1   48.940935 -27.435276 -1.675
 3607 1   47.717737 -26.714037 -1.675
 3608 1   47.730750 -25.294096 -1.675
 3609 1   48.966961 -24.595395 -1.675
 3610 1   46.481526 -27.412737 -1.675
 3611 1   45.258328 -26.691498 -1.675
 3612 1   45.271341 -25.271557 -1.675
 3613 1   46.507552 -24.572857 -1.675
 3614 1   44.022118 -27.390199 -1.675
 3615 1   42.798919 -26.668959 -1.675
 3616 1   42.811932 -25.249019 -1.675
 3617 1   44.048143 -24.550318 -1.675
 3618 1   41.562709 -27.367660 -1.675
 3619 1   40.339511 -26.646420 -1.675
 3620 1   40.352523 -25.226480 -1.675
 3621 1   41.588734 -24.527779 -1.675
 3622 1   39.103300 -27.345121 -1.675
 3623 1   37.880102 -26.623882 -1.675
 3624 1   37.893114 -25.203941 -1.675
 3625 1   39.129325 -24.505240 -1.675
 3626 1   36.643891 -27.322582 -1.675
 3627 1   35.420693 -26.601343 -1.675
 3628 1   35.433706 -25.181402 -1.675
 3629 1   36.669916 -24.482702 -1.675
 3630 1   34.184482 -27.300044 -1.675
 3631 1   32.961284 -26.578804 -1.675
 3632 1   32.974297 -25.158864 -1.675
 3633 1   34.210508 -24.460163 -1.675
 3634 1   31.725073 -27.277505 -1.675
 3635 1   30.501875 -26.556265 -1.675
 3636 1   30.514888 -25.136325 -1.675
 3637 1   31.751099 -24.437624 -1.675
 3638 1   29.265664 -27.254966 -1.675
 3639 1   28.042466 -26.533727 -1.675
 3640 1   28.055479 -25.113786 -1.675
 3641 1   29.291690 -24.415085 -1.675
 3642 1   26.806255 -27.232427 -1.675
 3643 1   25.583057 -26.511188 -1.675
 3644 1   25.596070 -25.091248 -1.675
 3645 1   26.832281 -24.392547 -1.675
 3646 1   24.346847 -27.209889 -1.675
 3647 1   23.123649 -26.488649 -1.675
 3648 1   23.136661 -25.068709 -1.675
 3649 1   24.372872 -24.370008 -1.675
 3650 1   21.887438 -27.187350 -1.675
 3651 1   20.664240 -26.466110 -1.675
 3652 1   20.677252 -25.046170 -1.675
 3653 1   21.913463 -24.347469 -1.675
 3654 1   19.428029 -27.164811 -1.675
 3655 1   18.204831 -26.443572 -1.675
 3656 1   18.217844 -25.023631 -1.675
 3657 1   19.454054 -24.324930 -1.675
 3658 1   16.968620 -27.142272 -1.675
 3659 1   15.745422 -26.421033 -1.675
 3660 1   15.758435 -25.001093 -1.675
 3661 1   16.994645 -24.302392 -1.675
 3662 1   14.509211 -27.119734 -1.675
 3663 1   13.286013 -26.398494 -1.675
 3664 1   13.299026 -24.978554 -1.675
 3665 1   14.535237 -24.279853 -1.675
 3666 1   12.049802 -27.097195 -1.675
 3667 1   10.826604 -26.375955 -1.675
 3668 1   10.839617 -24.956015 -1.675
 3669 1   12.075828 -24.257314 -1.675
 3670 1    9.590393 -27.074656 -1.675
 3671 1    8.367195 -26.353417 -1.675
 3672 1    8.380208 -24.933476 -1.675
 3673 1    9.616419 -24.234776 -1.675
 3674 1    7.130984 -27.052118 -1.675
 3675 1    5.907786 -26.330878 -1.675
 3676 1    5.920799 -24.910938 -1.675
 3677 1    7.157010 -24.212237 -1.675
 3678 1    4.671576 -27.029579 -1.675
 3679 1    3.448378 -26.308339 -1.675
 3680 1    3.461390 -24.888399 -1.675
 3681 1    4.697601 -24.189698 -1.675
 3682 1    2.212167 -27.007040 -1.675
 3683 1    0.988969 -26.285801 -1.675
 3684 1    1.001981 -24.865860 -1.675
 3685 1    2.238192 -24.167159 -1.675
 3686 1   -0.247242 -26.984501 -1.675
 3687 1   -1.470440 -26.263262 -1.675
 3688 1   -1.457427 -24.843321 -1.675
 3689 1   -0.221217 -24.144621 -1.675
 3690 1   -2.706651 -26.961963 -1.675
 3691 1   -3.929849 -26.240723 -1.675
 3692 1   -3.916836 -24.820783 -1.675
 3693 1   -2.680626 -24.122082 -1.675
 3694 1   -5.166060 -26.939424 -1.675
 3695 1   -6.389258 -26.218184 -1.675
 3696 1   -6.376245 -24.798244 -1.675
 3697 1   -5.140034 -24.099543 -1.675
 3698 1   -7.625469 -26.916885 -1.675
 3699 1   -8.848667 -26.195646 -1.675
 3700 1   -8.835654 -24.775705 -1.675
 3701 1   -7.599443 -24.077004 -1.675
 3702 1  -10.084878 -26.894346 -1.675
 3703 1  -11.308076 -26.173107 -1.675
 3704 1  -11.295063 -24.753166 -1.675
 3705 1  -10.058852 -24.054466 -1.675
 3706 1  -12.544287 -26.871808 -1.675
 3707 1  -13.767485 -26.150568 -1.675
 3708 1  -13.754472 -24.730628 -1.675
 3709 1  -12.518261 -24.031927 -1.675
 3710 1  -15.003695 -26.849269 -1.675
 3711 1  -16.226893 -26.128029 -1.675
 3712 1  -16.213881 -24.708089 -1.675
 3713 1  -14.977670 -24.009388 -1.675
 3714 1  -17.463104 -26.826730 -1.675
 3715 1  -18.686302 -26.105491 -1.675
 3716 1  -18.673290 -24.685550 -1.675
 3717 1  -17.437079 -23.986849 -1.675
 3718 1  -19.922513 -26.804191 -1.675
 3719 1  -21.145711 -26.082952 -1.675
 3720 1  -21.132698 -24.663012 -1.675
 3721 1  -19.896488 -23.964311 -1.675
 3722 1  -22.381922 -26.781653 -1.675
 3723 1  -23.605120 -26.060413 -1.675
 3724 1  -23.592107 -24.640473 -1.675
 3725 1  -22.355897 -23.941772 -1.675
 3726 1  -24.841331 -26.759114 -1.675
 3727 1  -26.064529 -26.037874 -1.675
 3728 1  -26.051516 -24.617934 -1.675
 3729 1  -24.815305 -23.919233 -1.675
 3730 1  -27.300740 -26.736575 -1.675
 3731 1  -28.523938 -26.015336 -1.675
 3732 1  -28.510925 -24.595395 -1.675
 3733 1  -27.274714 -23.896694 -1.675
 3734 1  -29.760149 -26.714037 -1.675
 3735 1  -30.983347 -25.992797 -1.675
 3736 1  -30.970334 -24.572857 -1.675
 3737 1  -29.734123 -23.874156 -1.675
 3738 1  -32.219558 -26.691498 -1.675
 3739 1  -33.442756 -25.970258 -1.675
 3740 1  -33.429743 -24.550318 -1.675
 3741 1  -32.193532 -23.851617 -1.675
 3742 1  -34.678966 -26.668959 -1.675
 3743 1  -35.902164 -25.947719 -1.675
 3744 1  -35.889152 -24.527779 -1.675
 3745 1  -34.652941 -23.829078 -1.675
 3746 1  -37.138375 -26.646420 -1.675
 3747 1  -38.361573 -25.925181 -1.675
 3748 1  -38.348561 -24.505240 -1.675
 3749 1  -37.112350 -23.806540 -1.675
 3750 1  -39.597784 -26.623882 -1.675
 3751 1  -40.820982 -25.902642 -1.675
 3752 1  -40.807969 -24.482702 -1.675
 3753 1  -39.571759 -23.784001 -1.675
 3754 1  -42.057193 -26.601343 -1.675
 3755 1  -43.280391 -25.880103 -1.675
 3756 1  -43.267378 -24.460163 -1.675
 3757 1  -42.031168 -23.761462 -1.675
 3758 1  -44.516602 -26.578804 -1.675
 3759 1  -45.739800 -25.857565 -1.675
 3760 1  -45.726787 -24.437624 -1.675
 3761 1  -44.490576 -23.738923 -1.675
 3762 1  -46.976011 -26.556265 -1.675
 3763 1  -48.199209 -25.835026 -1.675
 3764 1  -48.186196 -24.415085 -1.675
 3765 1  -46.949985 -23.716385 -1.675
 3766 1  -49.435420 -26.533727 -1.675
 3767 1  -50.658618 -25.812487 -1.675
 3768 1  -50.645605 -24.392547 -1.675
 3769 1  -49.409394 -23.693846 -1.675
 3770 1  -51.894828 -26.511188 -1.675
 3771 1  -53.118027 -25.789948 -1.675
 3772 1  -53.105014 -24.370008 -1.675
 3773 1  -51.868803 -23.671307 -1.675
 3774 1  -54.354237 -26.488649 -1.675
 3775 1  -55.577435 -25.767410 -1.675
 3776 1  -55.564423 -24.347469 -1.675
 3777 1  -54.328212 -23.648768 -1.675
 3778 1  -56.813646 -26.466110 -1.675
 3779 1  -58.036844 -25.744871 -1.675
 3780 1  -58.023832 -24.324930 -1.675
 3781 1  -56.787621 -23.626230 -1.675
 3782 1  -59.273055 -26.443572 -1.675
 3783 1  -60.496253 -25.722332 -1.675
 3784 1  -60.483240 -24.302392 -1.675
 3785 1  -59.247030 -23.603691 -1.675
 3786 1  -61.732464 -26.421033 -1.675
 3787 1  -62.955662 -25.699793 -1.675
 3788 1  -62.942649 -24.279853 -1.675
 3789 1  -61.706439 -23.581152 -1.675
 3790 1  -64.191873 -26.398494 -1.675
 3791 1  -65.415071 -25.677255 -1.675
 3792 1  -65.402058 -24.257314 -1.675
 3793 1  -64.165847 -23.558613 -1.675
 3794 1  -66.651282 -26.375955 -1.675
 3795 1  -67.874480 -25.654716 -1.675
 3796 1  -67.861467 -24.234776 -1.675
 3797 1  -66.625256 -23.536075 -1.675
 3798 1  -69.110691 -26.353417 -1.675
 3799 1  -70.333889 -25.632177 -1.675
 3800 1  -70.320876 -24.212237 -1.675
 3801 1  -69.084665 -23.513536 -1.675
 3802 1  -71.570099 -26.330878 -1.675
 3803 1  -72.793298 -25.609638 -1.675
 3804 1  -72.780285 -24.189698 -1.675
 3805 1  -71.544074 -23.490997 -1.675
 3806 1  -74.029508 -26.308339 -1.675
 3807 1  -75.252706 -25.587100 -1.675
 3808 1  -75.239694 -24.167159 -1.675
 3809 1  -74.003483 -23.468459 -1.675
 3810 1  -76.488917 -26.285801 -1.675
 3811 1  -77.712115 -25.564561 -1.675
 3812 1  -77.699103 -24.144621 -1.675
 3813 1  -76.462892 -23.445920 -1.675
 3814 1  -78.948326 -26.263262 -1.675
 3815 1  -80.171524 -25.542022 -1.675
 3816 1  -80.158511 -24.122082 -1.675
 3817 1  -78.922301 -23.423381 -1.675
 3818 1  -81.407735 -26.240723 -1.675
 3819 1  -82.630933 -25.519483 -1.675
 3820 1  -82.617920 -24.099543 -1.675
 3821 1  -81.381709 -23.400842 -1.675
 3822 1  -83.867144 -26.218184 -1.675
 3823 1  -85.090342 -25.496945 -1.675
 3824 1  -85.077329 -24.077004 -1.675
 3825 1  -83.841118 -23.378304 -1.675
 3826 1  -86.326553 -26.195646 -1.675
 3827 1  -87.549751 -25.474406 -1.675
 3828 1  -87.536738 -24.054466 -1.675
 3829 1  -86.300527 -23.355765 -1.675
 3830 1  -88.785962 -26.173107 -1.675
 3831 1  -90.009160 -25.451867 -1.675
 3832 1  -89.996147 -24.031927 -1.675
 3833 1  -88.759936 -23.333226 -1.675
 3834 1  -91.245370 -26.150568 -1.675
 3835 1  -92.468569 -25.429329 -1.675
 3836 1  -92.455556 -24.009388 -1.675
 3837 1  -91.219345 -23.310687 -1.675
 3838 1  -93.704779 -26.128029 -1.675
 3839 1  -94.927977 -25.406790 -1.675
 3840 1  -94.914965 -23.986849 -1.675
 3841 1  -93.678754 -23.288149 -1.675
 3842 1  -96.164188 -26.105491 -1.675
 3843 1  -97.387386 -25.384251 -1.675
 3844 1  -97.374374 -23.964311 -1.675
 3845 1  -96.138163 -23.265610 -1.675
 3846 1  -98.623597 -26.082952 -1.675
 3847 1  -99.846795 -25.361712 -1.675
 3848 1  -99.833782 -23.941772 -1.675
 3849 1  -98.597572 -23.243071 -1.675
 3850 1 -101.083006 -26.060413 -1.675
 3851 1 -102.306204 -25.339174 -1.675
 3852 1 -102.293191 -23.919233 -1.675
 3853 1 -101.056980 -23.220532 -1.675
 3854 1 -103.542415 -26.037874 -1.675
 3855 1 -104.765613 -25.316635 -1.675
 3856 1 -104.752600 -23.896694 -1.675
 3857 1 -103.516389 -23.197994 -1.675
 3858 1 -106.001824 -26.015336 -1.675
 3859 1 -107.225022 -25.294096 -1.675
 3860 1 -107.212009 -23.874156 -1.675
 3861 1 -105.975798 -23.175455 -1.675
 3862 1 -108.461233 -25.992797 -1.675
 3863 1 -109.684431 -25.271557 -1.675
 3864 1 -109.671418 -23.851617 -1.675
 3865 1 -108.435207 -23.152916 -1.675
 3866 1 -110.920641 -25.970258 -1.675
 3867 1 -112.143840 -25.249019 -1.675
 3868 1 -112.130827 -23.829078 -1.675
 3869 1 -110.894616 -23.130377 -1.675
 3870 1 -113.380050 -25.947719 -1.675
 3871 1 -114.603248 -25.226480 -1.675
 3872 1 -114.590236 -23.806540 -1.675
 3873 1 -113.354025 -23.107839 -1.675
 3874 1 -115.839459 -25.925181 -1.675
 3875 1 -115.813434 -23.085300 -1.675
 3876 1  115.384013 -23.784001 -1.675
 3877 1  114.160815 -23.062761 -1.675
 3878 1  114.173828 -21.642821 -1.675
 3879 1  115.410039 -20.944120 -1.675
 3880 1  112.924604 -23.761462 -1.675
 3881 1  111.701406 -23.040223 -1.675
 3882 1  111.714419 -21.620282 -1.675
 3883 1  112.950630 -20.921581 -1.675
 3884 1  110.465195 -23.738923 -1.675
 3885 1  109.241997 -23.017684 -1.675
 3886 1  109.255010 -21.597743 -1.675
 3887 1  110.491221 -20.899043 -1.675
 3888 1  108.005786 -23.716385 -1.675
 3889 1  106.782588 -22.995145 -1.675
 3890 1  106.795601 -21.575205 -1.675
 3891 1  108.031812 -20.876504 -1.675
 3892 1  105.546378 -23.693846 -1.675
 3893 1  104.323180 -22.972606 -1.675
 3894 1  104.336192 -21.552666 -1.675
 3895 1  105.572403 -20.853965 -1.675
 3896 1  103.086969 -23.671307 -1.675
 3897 1  101.863771 -22.950068 -1.675
 3898 1  101.876783 -21.530127 -1.675
 3899 1  103.112994 -20.831426 -1.675
 3900 1  100.627560 -23.648768 -1.675
 3901 1   99.404362 -22.927529 -1.675
 3902 1   99.417375 -21.507588 -1.675
 3903 1  100.653585 -20.808888 -1.675
 3904 1   98.168151 -23.626230 -1.675
 3905 1   96.944953 -22.904990 -1.675
 3906 1   96.957966 -21.485050 -1.675
 3907 1   98.194176 -20.786349 -1.675
 3908 1   95.708742 -23.603691 -1.675
 3909 1   94.485544 -22.882451 -1.675
 3910 1   94.498557 -21.462511 -1.675
 3911 1   95.734768 -20.763810 -1.675
 3912 1   93.249333 -23.581152 -1.675
 3913 1   92.026135 -22.859913 -1.675
 3914 1   92.039148 -21.439972 -1.675
 3915 1   93.275359 -20.741271 -1.675
 3916 1   90.789924 -23.558613 -1.675
 3917 1   89.566726 -22.837374 -1.675
 3918 1   89.579739 -21.417434 -1.675
 3919 1   90.815950 -20.718733 -1.675
 3920 1   88.330516 -23.536075 -1.675
 3921 1   87.107317 -22.814835 -1.675
 3922 1   87.120330 -21.394895 -1.675
 3923 1   88.356541 -20.696194 -1.675
 3924 1   85.871107 -23.513536 -1.675
 3925 1   84.647909 -22.792296 -1.675
 3926 1   84.660921 -21.372356 -1.675
 3927 1   85.897132 -20.673655 -1.675
 3928 1   83.411698 -23.490997 -1.675
 3929 1   82.188500 -22.769758 -1.675
 3930 1   82.201512 -21.349817 -1.675
 3931 1   83.437723 -20.651116 -1.675
 3932 1   80.952289 -23.468459 -1.675
 3933 1   79.729091 -22.747219 -1.675
 3934 1   79.742104 -21.327279 -1.675
 3935 1   80.978314 -20.628578 -1.675
 3936 1   78.492880 -23.445920 -1.675
 3937 1   77.269682 -22.724680 -1.675
 3938 1   77.282695 -21.304740 -1.675
 3939 1   78.518906 -20.606039 -1.675
 3940 1   76.033471 -23.423381 -1.675
 3941 1   74.810273 -22.702141 -1.675
 3942 1   74.823286 -21.282201 -1.675
 3943 1   76.059497 -20.583500 -1.675
 3944 1   73.574062 -23.400842 -1.675
 3945 1   72.350864 -22.679603 -1.675
 3946 1   72.363877 -21.259662 -1.675
 3947 1   73.600088 -20.560962 -1.675
 3948 1   71.114653 -23.378304 -1.675
 3949 1   69.891455 -22.657064 -1.675
 3950 1   69.904468 -21.237124 -1.675
 3951 1   71.140679 -20.538423 -1.675
 3952 1   68.655245 -23.355765 -1.675
 3953 1   67.432046 -22.634525 -1.675
 3954 1   67.445059 -21.214585 -1.675
 3955 1   68.681270 -20.515884 -1.675
 3956 1   66.195836 -23.333226 -1.675
 3957 1   64.972638 -22.611987 -1.675
 3958 1   64.985650 -21.192046 -1.675
 3959 1   66.221861 -20.493345 -1.675
 3960 1   63.736427 -23.310687 -1.675
 3961 1   62.513229 -22.589448 -1.675
 3962 1   62.526241 -21.169507 -1.675
 3963 1   63.762452 -20.470807 -1.675
 3964 1   61.277018 -23.288149 -1.675
 3965 1   60.053820 -22.566909 -1.675
 3966 1   60.066833 -21.146969 -1.675
 3967 1   61.303043 -20.448268 -1.675
 3968 1   58.817609 -23.265610 -1.675
 3969 1   57.594411 -22.544370 -1.675
 3970 1   57.607424 -21.124430 -1.675
 3971 1   58.843635 -20.425729 -1.675
 3972 1   56.358200 -23.243071 -1.675
 3973 1   55.135002 -22.521832 -1.675
 3974 1   55.148015 -21.101891 -1.675
 3975 1   56.384226 -20.403190 -1.675
 3976 1   53.898791 -23.220532 -1.675
 3977 1   52.675593 -22.499293 -1.675
 3978 1   52.688606 -21.079352 -1.675
 3979 1   53.924817 -20.380652 -1.675
 3980 1   51.439382 -23.197994 -1.675
 3981 1   50.216184 -22.476754 -1.675
 3982 1   50.229197 -21.056814 -1.675
 3983 1   51.465408 -20.358113 -1.675
 3984 1   48.979974 -23.175455 -1.675
 3985 1   47.756775 -22.454215 -1.675
 3986 1   47.769788 -21.034275 -1.675
 3987 1   49.005999 -20.335574 -1.675
 3988 1   46.520565 -23.152916 -1.675
 3989 1   45.297367 -22.431677 -1.675
 3990 1   45.310379 -21.011736 -1.675
 3991 1   46.546590 -20.313035 -1.675
 3992 1   44.061156 -23.130377 -1.675
 3993 1   42.837958 -22.409138 -1.675
 3994 1   42.850970 -20.989198 -1.675
 3995 1   44.087181 -20.290497 -1.675
 3996 1   41.601747 -23.107839 -1.675
 3997 1   40.378549 -22.386599 -1.675
 3998 1   40.391562 -20.966659 -1.675
 3999 1   41.627772 -20.267958 -1.675
 4000 1   39.142338 -23.085300 -1.675
 4001 1   37.919140 -22.364060 -1.675
 4002 1   37.932153 -20.944120 -1.675
 4003 1   39.168364 -20.245419 -1.675
 4004 1   36.682929 -23.062761 -1.675
 4005 1   35.459731 -22.341522 -1.675
 4006 1   35.472744 -20.921581 -1.675
 4007 1   36.708955 -20.222881 -1.675
 4008 1   34.223520 -23.040223 -1.675
 4009 1   33.000322 -22.318983 -1.675
 4010 1   33.013335 -20.899043 -1.675
 4011 1   34.249546 -20.200342 -1.675
 4012 1   31.764111 -23.017684 -1.675
 4013 1   30.540913 -22.296444 -1.675
 4014 1   30.553926 -20.876504 -1.675
 4015 1   31.790137 -20.177803 -1.675
 4016 1   29.304703 -22.995145 -1.675
 4017 1   28.081504 -22.273905 -1.675
 4018 1   28.094517 -20.853965 -1.675
 4019 1   29.330728 -20.155264 -1.675
 4020 1   26.845294 -22.972606 -1.675
 4021 1   25.622096 -22.251367 -1.675
 4022 1   25.635108 -20.831426 -1.675
 4023 1   26.871319 -20.132726 -1.675
 4024 1   24.385885 -22.950068 -1.675
 4025 1   23.162687 -22.228828 -1.675
 4026 1   23.175699 -20.808888 -1.675
 4027 1   24.411910 -20.110187 -1.675
 4028 1   21.926476 -22.927529 -1.675
 4029 1   20.703278 -22.206289 -1.675
 4030 1   20.716291 -20.786349 -1.675
 4031 1   21.952501 -20.087648 -1.675
 4032 1   19.467067 -22.904990 -1.675
 4033 1   18.243869 -22.183751 -1.675
 4034 1   18.256882 -20.763810 -1.675
 4035 1   19.493093 -20.065109 -1.675
 4036 1   17.007658 -22.882451 -1.675
 4037 1   15.784460 -22.161212 -1.675
 4038 1   15.797473 -20.741271 -1.675
 4039 1   17.033684 -20.042571 -1.675
 4040 1   14.548249 -22.859913 -1.675
 4041 1   13.325051 -22.138673 -1.675
 4042 1   13.338064 -20.718733 -1.675
 4043 1   14.574275 -20.020032 -1.675
 4044 1   12.088840 -22.837374 -1.675
 4045 1   10.865642 -22.116134 -1.675
 4046 1   10.878655 -20.696194 -1.675
 4047 1   12.114866 -19.997493 -1.675
 4048 1    9.629432 -22.814835 -1.675
 4049 1    8.406234 -22.093596 -1.675
 4050 1    8.419246 -20.673655 -1.675
 4051 1    9.655457 -19.974954 -1.675
 4052 1    7.170023 -22.792296 -1.675
 4053 1    5.946825 -22.071057 -1.675
 4054 1    5.959837 -20.651116 -1.675
 4055 1    7.196048 -19.952416 -1.675
 4056 1    4.710614 -22.769758 -1.675
 4057 1    3.487416 -22.048518 -1.675
 4058 1    3.500429 -20.628578 -1.675
 4059 1    4.736639 -19.929877 -1.675
 4060 1    2.251205 -22.747219 -1.675
 4061 1    1.028007 -22.025979 -1.675
 4062 1    1.041020 -20.606039 -1.675
 4063 1    2.277230 -19.907338 -1.675
 4064 1   -0.208204 -22.724680 -1.675
 4065 1   -1.431402 -22.003441 -1.675
 4066 1   -1.418389 -20.583500 -1.675
 4067 1   -0.182178 -19.884799 -1.675
 4068 1   -2.667613 -22.702141 -1.675
 4069 1   -3.890811 -21.980902 -1.675
 4070 1   -3.877798 -20.560962 -1.675
 4071 1   -2.641587 -19.862261 -1.675
 4072 1   -5.127022 -22.679603 -1.675
 4073 1   -6.350220 -21.958363 -1.675
 4074 1   -6.337207 -20.538423 -1.675
 4075 1   -5.100996 -19.839722 -1.675
 4076 1   -7.586431 -22.657064 -1.675
 4077 1   -8.809629 -21.935824 -1.675
 4078 1   -8.796616 -20.515884 -1.675
 4079 1   -7.560405 -19.817183 -1.675
 4080 1  -10.045839 -22.634525 -1.675
 4081 1  -11.269037 -21.913286 -1.675
 4082 1  -11.256025 -20.493345 -1.675
 4083 1  -10.019814 -19.794645 -1.675
 4084 1  -12.505248 -22.611987 -1.675
 4085 1  -13.728446 -21.890747 -1.675
 4086 1  -13.715434 -20.470807 -1.675
 4087 1  -12.479223 -19.772106 -1.675
 4088 1  -14.964657 -22.589448 -1.675
 4089 1  -16.187855 -21.868208 -1.675
 4090 1  -16.174842 -20.448268 -1.675
 4091 1  -14.938632 -19.749567 -1.675
 4092 1  -17.424066 -22.566909 -1.675
 4093 1  -18.647264 -21.845670 -1.675
 4094 1  -18.634251 -20.425729 -1.675
 4095 1  -17.398041 -19.727028 -1.675
 4096 1  -19.883475 -22.544370 -1.675
 4097 1  -21.106673 -21.823131 -1.675
 4098 1  -21.093660 -20.403190 -1.675
 4099 1  -19.857449 -19.704490 -1.675
 4100 1  -22.342884 -22.521832 -1.675
 4101 1  -23.566082 -21.800592 -1.675
 4102 1  -23.553069 -20.380652 -1.675
 4103 1  -22.316858 -19.681951 -1.675
 4104 1  -24.802293 -22.499293 -1.675
 4105 1  -26.025491 -21.778053 -1.675
 4106 1  -26.012478 -20.358113 -1.675
 4107 1  -24.776267 -19.659412 -1.675
 4108 1  -27.261702 -22.476754 -1.675
 4109 1  -28.484900 -21.755515 -1.675
 4110 1  -28.471887 -20.335574 -1.675
 4111 1  -27.235676 -19.636873 -1.675
 4112 1  -29.721110 -22.454215 -1.675
 4113 1  -30.944308 -21.732976 -1.675
 4114 1  -30.931296 -20.313035 -1.675
 4115 1  -29.695085 -19.614335 -1.675
 4116 1  -32.180519 -22.431677 -1.675
 4117 1  -33.403717 -21.710437 -1.675
 4118 1  -33.390705 -20.290497 -1.675
 4119 1  -32.154494 -19.591796 -1.675
 4120 1  -34.639928 -22.409138 -1.675
 4121 1  -35.863126 -21.687898 -1.675
 4122 1  -35.850113 -20.267958 -1.675
 4123 1  -34.613903 -19.569257 -1.675
 4124 1  -37.099337 -22.386599 -1.675
 4125 1  -38.322535 -21.665360 -1.675
 4126 1  -38.309522 -20.245419 -1.675
 4127 1  -37.073312 -19.546718 -1.675
 4128 1  -39.558746 -22.364060 -1.675
 4129 1  -40.781944 -21.642821 -1.675
 4130 1  -40.768931 -20.222881 -1.675
 4131 1  -39.532720 -19.524180 -1.675
 4132 1  -42.018155 -22.341522 -1.675
 4133 1  -43.241353 -21.620282 -1.675
 4134 1  -43.228340 -20.200342 -1.675
 4135 1  -41.992129 -19.501641 -1.675
 4136 1  -44.477564 -22.318983 -1.675
 4137 1  -45.700762 -21.597743 -1.675
 4138 1  -45.687749 -20.177803 -1.675
 4139 1  -44.451538 -19.479102 -1.675
 4140 1  -46.936973 -22.296444 -1.675
 4141 1  -48.160171 -21.575205 -1.675
 4142 1  -48.147158 -20.155264 -1.675
 4143 1  -46.910947 -19.456563 -1.675
 4144 1  -49.396381 -22.273905 -1.675
 4145 1  -50.619579 -21.552666 -1.675
 4146 1  -50.606567 -20.132726 -1.675
 4147 1  -49.370356 -19.434025 -1.675
 4148 1  -51.855790 -22.251367 -1.675
 4149 1  -53.078988 -21.530127 -1.675
 4150 1  -53.065976 -20.110187 -1.675
 4151 1  -51.829765 -19.411486 -1.675
 4152 1  -54.315199 -22.228828 -1.675
 4153 1  -55.538397 -21.507588 -1.675
 4154 1  -55.525384 -20.087648 -1.675
 4155 1  -54.289174 -19.388947 -1.675
 4156 1  -56.774608 -22.206289 -1.675
 4157 1  -57.997806 -21.485050 -1.675
 4158 1  -57.984793 -20.065109 -1.675
 4159 1  -56.748583 -19.366409 -1.675
 4160 1  -59.234017 -22.183751 -1.675
 4161 1  -60.457215 -21.462511 -1.675
 4162 1  -60.444202 -20.042571 -1.675
 4163 1  -59.207991 -19.343870 -1.675
 4164 1  -61.693426 -22.161212 -1.675
 4165 1  -62.916624 -21.439972 -1.675
 4166 1  -62.903611 -20.020032 -1.675
 4167 1  -61.667400 -19.321331 -1.675
 4168 1  -64.152835 -22.138673 -1.675
 4169 1  -65.376033 -21.417434 -1.675
 4170 1  -65.363020 -19.997493 -1.675
 4171 1  -64.126809 -19.298792 -1.675
 4172 1  -66.612244 -22.116134 -1.675
 4173 1  -67.835442 -21.394895 -1.675
 4174 1  -67.822429 -19.974954 -1.675
 4175 1  -66.586218 -19.276254 -1.675
 4176 1  -69.071652 -22.093596 -1.675
 4177 1  -70.294850 -21.372356 -1.675
 4178 1  -70.281838 -19.952416 -1.675
 4179 1  -69.045627 -19.253715 -1.675
 4180 1  -71.531061 -22.071057 -1.675
 4181 1  -72.754259 -21.349817 -1.675
 4182 1  -72.741247 -19.929877 -1.675
 4183 1  -71.505036 -19.231176 -1.675
 4184 1  -73.990470 -22.048518 -1.675
 4185 1  -75.213668 -21.327279 -1.675
 4186 1  -75.200655 -19.907338 -1.675
 4187 1  -73.964445 -19.208637 -1.675
 4188 1  -76.449879 -22.025979 -1.675
 4189 1  -77.673077 -21.304740 -1.675
 4190 1  -77.660064 -19.884799 -1.675
 4191 1  -76.423854 -19.186099 -1.675
 4192 1  -78.909288 -22.003441 -1.675
 4193 1  -80.132486 -21.282201 -1.675
 4194 1  -80.119473 -19.862261 -1.675
 4195 1  -78.883262 -19.163560 -1.675
 4196 1  -81.368697 -21.980902 -1.675
 4197 1  -82.591895 -21.259662 -1.675
 4198 1  -82.578882 -19.839722 -1.675
 4199 1  -81.342671 -19.141021 -1.675
 4200 1  -83.828106 -21.958363 -1.675
 4201 1  -85.051304 -21.237124 -1.675
 4202 1  -85.038291 -19.817183 -1.675
 4203 1  -83.802080 -19.118482 -1.675
 4204 1  -86.287514 -21.935824 -1.675
 4205 1  -87.510713 -21.214585 -1.675
 4206 1  -87.497700 -19.794645 -1.675
 4207 1  -86.261489 -19.095944 -1.675
 4208 1  -88.746923 -21.913286 -1.675
 4209 1  -89.970121 -21.192046 -1.675
 4210 1  -89.957109 -19.772106 -1.675
 4211 1  -88.720898 -19.073405 -1.675
 4212 1  -91.206332 -21.890747 -1.675
 4213 1  -92.429530 -21.169507 -1.675
 4214 1  -92.416518 -19.749567 -1.675
 4215 1  -91.180307 -19.050866 -1.675
 4216 1  -93.665741 -21.868208 -1.675
 4217 1  -94.888939 -21.146969 -1.675
 4218 1  -94.875926 -19.727028 -1.675
 4219 1  -93.639716 -19.028327 -1.675
 4220 1  -96.125150 -21.845670 -1.675
 4221 1  -97.348348 -21.124430 -1.675
 4222 1  -97.335335 -19.704490 -1.675
 4223 1  -96.099124 -19.005789 -1.675
 4224 1  -98.584559 -21.823131 -1.675
 4225 1  -99.807757 -21.101891 -1.675
 4226 1  -99.794744 -19.681951 -1.675
 4227 1  -98.558533 -18.983250 -1.675
 4228 1 -101.043968 -21.800592 -1.675
 4229 1 -102.267166 -21.079352 -1.675
 4230 1 -102.254153 -19.659412 -1.675
 4231 1 -101.017942 -18.960711 -1.675
 4232 1 -103.503377 -21.778053 -1.675
 4233 1 -104.726575 -21.056814 -1.675
 4234 1 -104.713562 -19.636873 -1.675
 4235 1 -103.477351 -18.938173 -1.675
 4236 1 -105.962785 -21.755515 -1.675
 4237 1 -107.185984 -21.034275 -1.675
 4238 1 -107.172971 -19.614335 -1.675
 4239 1 -105.936760 -18.915634 -1.675
 4240 1 -108.422194 -21.732976 -1.675
 4241 1 -109.645392 -21.011736 -1.675
 4242 1 -109.632380 -19.591796 -1.675
 4243 1 -108.396169 -18.893095 -1.675
 4244 1 -110.881603 -21.710437 -1.675
 4245 1 -112.104801 -20.989198 -1.675
 4246 1 -112.091789 -19.569257 -1.675
 4247 1 -110.855578 -18.870556 -1.675
 4248 1 -113.341012 -21.687898 -1.675
 4249 1 -114.564210 -20.966659 -1.675
 4250 1 -114.551197 -19.546718 -1.675
 4251 1 -113.314987 -18.848018 -1.675
 4252 1 -115.800421 -21.665360 -1.675
 4253 1 -115.774395 -18.825479 -1.675
 4254 1  115.423051 -19.524180 -1.675
 4255 1  114.199853 -18.802940 -1.675
 4256 1  114.212866 -17.383000 -1.675
 4257 1  115.449077 -16.684299 -1.675
 4258 1  112.963642 -19.501641 -1.675
 4259 1  111.740444 -18.780401 -1.675
 4260 1  111.753457 -17.360461 -1.675
 4261 1  112.989668 -16.661760 -1.675
 4262 1  110.504234 -19.479102 -1.675
 4263 1  109.281036 -18.757863 -1.675
 4264 1  109.294048 -17.337922 -1.675
 4265 1  110.530259 -16.639221 -1.675
 4266 1  108.044825 -19.456563 -1.675
 4267 1  106.821627 -18.735324 -1.675
 4268 1  106.834639 -17.315384 -1.675
 4269 1  108.070850 -16.616683 -1.675
 4270 1  105.585416 -19.434025 -1.675
 4271 1  104.362218 -18.712785 -1.675
 4272 1  104.375231 -17.292845 -1.675
 4273 1  105.611441 -16.594144 -1.675
 4274 1  103.126007 -19.411486 -1.675
 4275 1  101.902809 -18.690246 -1.675
 4276 1  101.915822 -17.270306 -1.675
 4277 1  103.152032 -16.571605 -1.675
 4278 1  100.666598 -19.388947 -1.675
 4279 1   99.443400 -18.667708 -1.675
 4280 1   99.456413 -17.247767 -1.675
 4281 1  100.692624 -16.549067 -1.675
 4282 1   98.207189 -19.366409 -1.675
 4283 1   96.983991 -18.645169 -1.675
 4284 1   96.997004 -17.225229 -1.675
 4285 1   98.233215 -16.526528 -1.675
 4286 1   95.747780 -19.343870 -1.675
 4287 1   94.524582 -18.622630 -1.675
 4288 1   94.537595 -17.202690 -1.675
 4289 1   95.773806 -16.503989 -1.675
 4290 1   93.288371 -19.321331 -1.675
 4291 1   92.065173 -18.600092 -1.675
 4292 1   92.078186 -17.180151 -1.675
 4293 1   93.314397 -16.481450 -1.675
 4294 1   90.828963 -19.298792 -1.675
 4295 1   89.605765 -18.577553 -1.675
 4296 1   89.618777 -17.157612 -1.675
 4297 1   90.854988 -16.458912 -1.675
 4298 1   88.369554 -19.276254 -1.675
 4299 1   87.146356 -18.555014 -1.675
 4300 1   87.159368 -17.135074 -1.675
 4301 1   88.395579 -16.436373 -1.675
 4302 1   85.910145 -19.253715 -1.675
 4303 1   84.686947 -18.532475 -1.675
 4304 1   84.699960 -17.112535 -1.675
 4305 1   85.936170 -16.413834 -1.675
 4306 1   83.450736 -19.231176 -1.675
 4307 1   82.227538 -18.509937 -1.675
 4308 1   82.240551 -17.089996 -1.675
 4309 1   83.476761 -16.391295 -1.675
 4310 1   80.991327 -19.208637 -1.675
 4311 1   79.768129 -18.487398 -1.675
 4312 1   79.781142 -17.067457 -1.675
 4313 1   81.017353 -16.368757 -1.675
 4314 1   78.531918 -19.186099 -1.675
 4315 1   77.308720 -18.464859 -1.675
 4316 1   77.321733 -17.044919 -1.675
 4317 1   78.557944 -16.346218 -1.675
 4318 1   76.072509 -19.163560 -1.675
 4319 1   74.849311 -18.442320 -1.675
 4320 1   74.862324 -17.022380 -1.675
 4321 1   76.098535 -16.323679 -1.675
 4322 1   73.613101 -19.141021 -1.675
 4323 1   72.389902 -18.419782 -1.675
 4324 1   72.402915 -16.999841 -1.675
 4325 1   73.639126 -16.301140 -1.675
 4326 1   71.153692 -19.118482 -1.675
 4327 1   69.930494 -18.397243 -1.675
 4328 1   69.943506 -16.977303 -1.675
 4329 1   71.179717 -16.278602 -1.675
 4330 1   68.694283 -19.095944 -1.675
 4331 1   67.471085 -18.374704 -1.675
 4332 1   67.484097 -16.954764 -1.675
 4333 1   68.720308 -16.256063 -1.675
 4334 1   66.234874 -19.073405 -1.675
 4335 1   65.011676 -18.352165 -1.675
 4336 1   65.024689 -16.932225 -1.675
 4337 1   66.260899 -16.233524 -1.675
 4338 1   63.775465 -19.050866 -1.675
 4339 1   62.552267 -18.329627 -1.675
 4340 1   62.565280 -16.909686 -1.675
 4341 1   63.801491 -16.210985 -1.675
 4342 1   61.316056 -19.028327 -1.675
 4343 1   60.092858 -18.307088 -1.675
 4344 1   60.105871 -16.887148 -1.675
 4345 1   61.342082 -16.188447 -1.675
 4346 1   58.856647 -19.005789 -1.675
 4347 1   57.633449 -18.284549 -1.675
 4348 1   57.646462 -16.864609 -1.675
 4349 1   58.882673 -16.165908 -1.675
 4350 1   56.397238 -18.983250 -1.675
 4351 1   55.174040 -18.262010 -1.675
 4352 1   55.187053 -16.842070 -1.675
 4353 1   56.423264 -16.143369 -1.675
 4354 1   53.937830 -18.960711 -1.675
 4355 1   52.714631 -18.239472 -1.675
 4356 1   52.727644 -16.819531 -1.675
 4357 1   53.963855 -16.120831 -1.675
 4358 1   51.478421 -18.938173 -1.675
 4359 1   50.255223 -18.216933 -1.675
 4360 1   50.268235 -16.796993 -1.675
 4361 1   51.504446 -16.098292 -1.675
 4362 1   49.019012 -18.915634 -1.675
 4363 1   47.795814 -18.194394 -1.675
 4364 1   47.808826 -16.774454 -1.675
 4365 1   49.045037 -16.075753 -1.675
 4366 1   46.559603 -18.893095 -1.675
 4367 1   45.336405 -18.171856 -1.675
 4368 1   45.349418 -16.751915 -1.675
 4369 1   46.585628 -16.053214 -1.675
 4370 1   44.100194 -18.870556 -1.675
 4371 1   42.876996 -18.149317 -1.675
 4372 1   42.890009 -16.729376 -1.675
 4373 1   44.126220 -16.030676 -1.675
 4374 1   41.640785 -18.848018 -1.675
 4375 1   40.417587 -18.126778 -1.675
 4376 1   40.430600 -16.706838 -1.675
 4377 1   41.666811 -16.008137 -1.675
 4378 1   39.181376 -18.825479 -1.675
 4379 1   37.958178 -18.104239 -1.675
 4380 1   37.971191 -16.684299 -1.675
 4381 1   39.207402 -15.985598 -1.675
 4382 1   36.721967 -18.802940 -1.675
 4383 1   35.498769 -18.081701 -1.675
 4384 1   35.511782 -16.661760 -1.675
 4385 1   36.747993 -15.963059 -1.675
 4386 1   34.262559 -18.780401 -1.675
 4387 1   33.039360 -18.059162 -1.675
 4388 1   33.052373 -16.639221 -1.675
 4389 1   34.288584 -15.940521 -1.675
 4390 1   31.803150 -18.757863 -1.675
 4391 1   30.579952 -18.036623 -1.675
 4392 1   30.592964 -16.616683 -1.675
 4393 1   31.829175 -15.917982 -1.675
 4394 1   29.343741 -18.735324 -1.675
 4395 1   28.120543 -18.014084 -1.675
 4396 1   28.133555 -16.594144 -1.675
 4397 1   29.369766 -15.895443 -1.675
 4398 1   26.884332 -18.712785 -1.675
 4399 1   25.661134 -17.991546 -1.675
 4400 1   25.674147 -16.571605 -1.675
 4401 1   26.910357 -15.872904 -1.675
 4402 1   24.424923 -18.690246 -1.675
 4403 1   23.201725 -17.969007 -1.675
 4404 1   23.214738 -16.549067 -1.675
 4405 1   24.450949 -15.850366 -1.675
 4406 1   21.965514 -18.667708 -1.675
 4407 1   20.742316 -17.946468 -1.675
 4408 1   20.755329 -16.526528 -1.675
 4409 1   21.991540 -15.827827 -1.675
 4410 1   19.506105 -18.645169 -1.675
 4411 1   18.282907 -17.923929 -1.675
 4412 1   18.295920 -16.503989 -1.675
 4413 1   19.532131 -15.805288 -1.675
 4414 1   17.046696 -18.622630 -1.675
 4415 1   15.823498 -17.901391 -1.675
 4416 1   15.836511 -16.481450 -1.675
 4417 1   17.072722 -15.782749 -1.675
 4418 1   14.587288 -18.600092 -1.675
 4419 1   13.364089 -17.878852 -1.675
 4420 1   13.377102 -16.458912 -1.675
 4421 1   14.613313 -15.760211 -1.675
 4422 1   12.127879 -18.577553 -1.675
 4423 1   10.904681 -17.856313 -1.675
 4424 1   10.917693 -16.436373 -1.675
 4425 1   12.153904 -15.737672 -1.675
 4426 1    9.668470 -18.555014 -1.675
 4427 1    8.445272 -17.833774 -1.675
 4428 1    8.458284 -16.413834 -1.675
 4429 1    9.694495 -15.715133 -1.675
 4430 1    7.209061 -18.532475 -1.675
 4431 1    5.985863 -17.811236 -1.675
 4432 1    5.998876 -16.391295 -1.675
 4433 1    7.235086 -15.692595 -1.675
 4434 1    4.749652 -18.509937 -1.675
 4435 1    3.526454 -17.788697 -1.675
 4436 1    3.539467 -16.368757 -1.675
 4437 1    4.775678 -15.670056 -1.675
 4438 1    2.290243 -18.487398 -1.675
 4439 1    1.067045 -17.766158 -1.675
 4440 1    1.080058 -16.346218 -1.675
 4441 1    2.316269 -15.647517 -1.675
 4442 1   -0.169166 -18.464859 -1.675
 4443 1   -1.392364 -17.743620 -1.675
 4444 1   -1.379351 -16.323679 -1.675
 4445 1   -0.143140 -15.624978 -1.675
 4446 1   -2.628575 -18.442320 -1.675
 4447 1   -3.851773 -17.721081 -1.675
 4448 1   -3.838760 -16.301140 -1.675
 4449 1   -2.602549 -15.602440 -1.675
 4450 1   -5.087983 -18.419782 -1.675
 4451 1   -6.311181 -17.698542 -1.675
 4452 1   -6.298169 -16.278602 -1.675
 4453 1   -5.061958 -15.579901 -1.675
 4454 1   -7.547392 -18.397243 -1.675
 4455 1   -8.770590 -17.676003 -1.675
 4456 1   -8.757578 -16.256063 -1.675
 4457 1   -7.521367 -15.557362 -1.675
 4458 1  -10.006801 -18.374704 -1.675
 4459 1  -11.229999 -17.653465 -1.675
 4460 1  -11.216987 -16.233524 -1.675
 4461 1   -9.980776 -15.534823 -1.675
 4462 1  -12.466210 -18.352165 -1.675
 4463 1  -13.689408 -17.630926 -1.675
 4464 1  -13.676395 -16.210985 -1.675
 4465 1  -12.440185 -15.512285 -1.675
 4466 1  -14.925619 -18.329627 -1.675
 4467 1  -16.148817 -17.608387 -1.675
 4468 1  -16.135804 -16.188447 -1.675
 4469 1  -14.899593 -15.489746 -1.675
 4470 1  -17.385028 -18.307088 -1.675
 4471 1  -18.608226 -17.585848 -1.675
 4472 1  -18.595213 -16.165908 -1.675
 4473 1  -17.359002 -15.467207 -1.675
 4474 1  -19.844437 -18.284549 -1.675
 4475 1  -21.067635 -17.563310 -1.675
 4476 1  -21.054622 -16.143369 -1.675
 4477 1  -19.818411 -15.444668 -1.675
 4478 1  -22.303846 -18.262010 -1.675
 4479 1  -23.527044 -17.540771 -1.675
 4480 1  -23.514031 -16.120831 -1.675
 4481 1  -22.277820 -15.422130 -1.675
 4482 1  -24.763254 -18.239472 -1.675
 4483 1  -25.986452 -17.518232 -1.675
 4484 1  -25.973440 -16.098292 -1.675
 4485 1  -24.737229 -15.399591 -1.675
 4486 1  -27.222663 -18.216933 -1.675
 4487 1  -28.445861 -17.495693 -1.675
 4488 1  -28.432849 -16.075753 -1.675
 4489 1  -27.196638 -15.377052 -1.675
 4490 1  -29.682072 -18.194394 -1.675
 4491 1  -30.905270 -17.473155 -1.675
 4492 1  -30.892257 -16.053214 -1.675
 4493 1  -29.656047 -15.354514 -1.675
 4494 1  -32.141481 -18.171856 -1.675
 4495 1  -33.364679 -17.450616 -1.675
 4496 1  -33.351666 -16.030676 -1.675
 4497 1  -32.115456 -15.331975 -1.675
 4498 1  -34.600890 -18.149317 -1.675
 4499 1  -35.824088 -17.428077 -1.675
 4500 1  -35.811075 -16.008137 -1.675
 4501 1  -34.574864 -15.309436 -1.675
 4502 1  -37.060299 -18.126778 -1.675
 4503 1  -38.283497 -17.405538 -1.675
 4504 1  -38.270484 -15.985598 -1.675
 4505 1  -37.034273 -15.286897 -1.675
 4506 1  -39.519708 -18.104239 -1.675
 4507 1  -40.742906 -17.383000 -1.675
 4508 1  -40.729893 -15.963059 -1.675
 4509 1  -39.493682 -15.264359 -1.675
 4510 1  -41.979117 -18.081701 -1.675
 4511 1  -43.202315 -17.360461 -1.675
 4512 1  -43.189302 -15.940521 -1.675
 4513 1  -41.953091 -15.241820 -1.675
 4514 1  -44.438525 -18.059162 -1.675
 4515 1  -45.661723 -17.337922 -1.675
 4516 1  -45.648711 -15.917982 -1.675
 4517 1  -44.412500 -15.219281 -1.675
 4518 1  -46.897934 -18.036623 -1.675
 4519 1  -48.121132 -17.315384 -1.675
 4520 1  -48.108120 -15.895443 -1.675
 4521 1  -46.871909 -15.196742 -1.675
 4522 1  -49.357343 -18.014084 -1.675
 4523 1  -50.580541 -17.292845 -1.675
 4524 1  -50.567528 -15.872904 -1.675
 4525 1  -49.331318 -15.174204 -1.675
 4526 1  -51.816752 -17.991546 -1.675
 4527 1  -53.039950 -17.270306 -1.675
 4528 1  -53.026937 -15.850366 -1.675
 4529 1  -51.790727 -15.151665 -1.675
 4530 1  -54.276161 -17.969007 -1.675
 4531 1  -55.499359 -17.247767 -1.675
 4532 1  -55.486346 -15.827827 -1.675
 4533 1  -54.250135 -15.129126 -1.675
 4534 1  -56.735570 -17.946468 -1.675
 4535 1  -57.958768 -17.225229 -1.675
 4536 1  -57.945755 -15.805288 -1.675
 4537 1  -56.709544 -15.106587 -1.675
 4538 1  -59.194979 -17.923929 -1.675
 4539 1  -60.418177 -17.202690 -1.675
 4540 1  -60.405164 -15.782749 -1.675
 4541 1  -59.168953 -15.084049 -1.675
 4542 1  -61.654388 -17.901391 -1.675
 4543 1  -62.877586 -17.180151 -1.675
 4544 1  -62.864573 -15.760211 -1.675
 4545 1  -61.628362 -15.061510 -1.675
 4546 1  -64.113796 -17.878852 -1.675
 4547 1  -65.336994 -17.157612 -1.675
 4548 1  -65.323982 -15.737672 -1.675
 4549 1  -64.087771 -15.038971 -1.675
 4550 1  -66.573205 -17.856313 -1.675
 4551 1  -67.796403 -17.135074 -1.675
 4552 1  -67.783391 -15.715133 -1.675
 4553 1  -66.547180 -15.016432 -1.675
 4554 1  -69.032614 -17.833774 -1.675
 4555 1  -70.255812 -17.112535 -1.675
 4556 1  -70.242799 -15.692595 -1.675
 4557 1  -69.006589 -14.993894 -1.675
 4558 1  -71.492023 -17.811236 -1.675
 4559 1  -72.715221 -17.089996 -1.675
 4560 1  -72.702208 -15.670056 -1.675
 4561 1  -71.465998 -14.971355 -1.675
 4562 1  -73.951432 -17.788697 -1.675
 4563 1  -75.174630 -17.067457 -1.675
 4564 1  -75.161617 -15.647517 -1.675
 4565 1  -73.925406 -14.948816 -1.675
 4566 1  -76.410841 -17.766158 -1.675
 4567 1  -77.634039 -17.044919 -1.675
 4568 1  -77.621026 -15.624978 -1.675
 4569 1  -76.384815 -14.926278 -1.675
 4570 1  -78.870250 -17.743620 -1.675
 4571 1  -80.093448 -17.022380 -1.675
 4572 1  -80.080435 -15.602440 -1.675
 4573 1  -78.844224 -14.903739 -1.675
 4574 1  -81.329659 -17.721081 -1.675
 4575 1  -82.552857 -16.999841 -1.675
 4576 1  -82.539844 -15.579901 -1.675
 4577 1  -81.303633 -14.881200 -1.675
 4578 1  -83.789067 -17.698542 -1.675
 4579 1  -85.012265 -16.977303 -1.675
 4580 1  -84.999253 -15.557362 -1.675
 4581 1  -83.763042 -14.858661 -1.675
 4582 1  -86.248476 -17.676003 -1.675
 4583 1  -87.471674 -16.954764 -1.675
 4584 1  -87.458662 -15.534823 -1.675
 4585 1  -86.222451 -14.836123 -1.675
 4586 1  -88.707885 -17.653465 -1.675
 4587 1  -89.931083 -16.932225 -1.675
 4588 1  -89.918070 -15.512285 -1.675
 4589 1  -88.681860 -14.813584 -1.675
 4590 1  -91.167294 -17.630926 -1.675
 4591 1  -92.390492 -16.909686 -1.675
 4592 1  -92.377479 -15.489746 -1.675
 4593 1  -91.141269 -14.791045 -1.675
 4594 1  -93.626703 -17.608387 -1.675
 4595 1  -94.849901 -16.887148 -1.675
 4596 1  -94.836888 -15.467207 -1.675
 4597 1  -93.600677 -14.768506 -1.675
 4598 1  -96.086112 -17.585848 -1.675
 4599 1  -97.309310 -16.864609 -1.675
 4600 1  -97.296297 -15.444668 -1.675
 4601 1  -96.060086 -14.745968 -1.675
 4602 1  -98.545521 -17.563310 -1.675
 4603 1  -99.768719 -16.842070 -1.675
 4604 1  -99.755706 -15.422130 -1.675
 4605 1  -98.519495 -14.723429 -1.675
 4606 1 -101.004929 -17.540771 -1.675
 4607 1 -102.228128 -16.819531 -1.675
 4608 1 -102.215115 -15.399591 -1.675
 4609 1 -100.978904 -14.700890 -1.675
 4610 1 -103.464338 -17.518232 -1.675
 4611 1 -104.687536 -16.796993 -1.675
 4612 1 -104.674524 -15.377052 -1.675
 4613 1 -103.438313 -14.678351 -1.675
 4614 1 -105.923747 -17.495693 -1.675
 4615 1 -107.146945 -16.774454 -1.675
 4616 1 -107.133933 -15.354514 -1.675
 4617 1 -105.897722 -14.655813 -1.675
 4618 1 -108.383156 -17.473155 -1.675
 4619 1 -109.606354 -16.751915 -1.675
 4620 1 -109.593341 -15.331975 -1.675
 4621 1 -108.357131 -14.633274 -1.675
 4622 1 -110.842565 -17.450616 -1.675
 4623 1 -112.065763 -16.729376 -1.675
 4624 1 -112.052750 -15.309436 -1.675
 4625 1 -110.816539 -14.610735 -1.675
 4626 1 -113.301974 -17.428077 -1.675
 4627 1 -114.525172 -16.706838 -1.675
 4628 1 -114.512159 -15.286897 -1.675
 4629 1 -113.275948 -14.588196 -1.675
 4630 1 -115.761383 -17.405538 -1.675
 4631 1 -115.735357 -14.565658 -1.675
 4632 1  115.462090 -15.264359 -1.675
 4633 1  114.238892 -14.543119 -1.675
 4634 1  114.251904 -13.123179 -1.675
 4635 1  115.488115 -12.424478 -1.675
 4636 1  113.002681 -15.241820 -1.675
 4637 1  111.779483 -14.520580 -1.675
 4638 1  111.792495 -13.100640 -1.675
 4639 1  113.028706 -12.401939 -1.675
 4640 1  110.543272 -15.219281 -1.675
 4641 1  109.320074 -14.498042 -1.675
 4642 1  109.333087 -13.078101 -1.675
 4643 1  110.569297 -12.379400 -1.675
 4644 1  108.083863 -15.196742 -1.675
 4645 1  106.860665 -14.475503 -1.675
 4646 1  106.873678 -13.055562 -1.675
 4647 1  108.109888 -12.356862 -1.675
 4648 1  105.624454 -15.174204 -1.675
 4649 1  104.401256 -14.452964 -1.675
 4650 1  104.414269 -13.033024 -1.675
 4651 1  105.650480 -12.334323 -1.675
 4652 1  103.165045 -15.151665 -1.675
 4653 1  101.941847 -14.430425 -1.675
 4654 1  101.954860 -13.010485 -1.675
 4655 1  103.191071 -12.311784 -1.675
 4656 1  100.705636 -15.129126 -1.675
 4657 1   99.482438 -14.407887 -1.675
 4658 1   99.495451 -12.987946 -1.675
 4659 1  100.731662 -12.289245 -1.675
 4660 1   98.246227 -15.106587 -1.675
 4661 1   97.023029 -14.385348 -1.675
 4662 1   97.036042 -12.965407 -1.675
 4663 1   98.272253 -12.266707 -1.675
 4664 1   95.786819 -15.084049 -1.675
 4665 1   94.563621 -14.362809 -1.675
 4666 1   94.576633 -12.942869 -1.675
 4667 1   95.812844 -12.244168 -1.675
 4668 1   93.327410 -15.061510 -1.675
 4669 1   92.104212 -14.340270 -1.675
 4670 1   92.117224 -12.920330 -1.675
 4671 1   93.353435 -12.221629 -1.675
 4672 1   90.868001 -15.038971 -1.675
 4673 1   89.644803 -14.317732 -1.675
 4674 1   89.657816 -12.897791 -1.675
 4675 1   90.894026 -12.199090 -1.675
 4676 1   88.408592 -15.016432 -1.675
 4677 1   87.185394 -14.295193 -1.675
 4678 1   87.198407 -12.875253 -1.675
 4679 1   88.434617 -12.176552 -1.675
 4680 1   85.949183 -14.993894 -1.675
 4681 1   84.725985 -14.272654 -1.675
 4682 1   84.738998 -12.852714 -1.675
 4683 1   85.975209 -12.154013 -1.675
 4684 1   83.489774 -14.971355 -1.675
 4685 1   82.266576 -14.250115 -1.675
 4686 1   82.279589 -12.830175 -1.675
 4687 1   83.515800 -12.131474 -1.675
 4688 1   81.030365 -14.948816 -1.675
 4689 1   79.807167 -14.227577 -1.675
 4690 1   79.820180 -12.807636 -1.675
 4691 1   81.056391 -12.108936 -1.675
 4692 1   78.570956 -14.926278 -1.675
 4693 1   77.347758 -14.205038 -1.675
 4694 1   77.360771 -12.785098 -1.675
 4695 1   78.596982 -12.086397 -1.675
 4696 1   76.111548 -14.903739 -1.675
 4697 1   74.888350 -14.182499 -1.675
 4698 1   74.901362 -12.762559 -1.675
 4699 1   76.137573 -12.063858 -1.675
 4700 1   73.652139 -14.881200 -1.675
 4701 1   72.428941 -14.159960 -1.675
 4702 1   72.441953 -12.740020 -1.675
 4703 1   73.678164 -12.041319 -1.675
 4704 1   71.192730 -14.858661 -1.675
 4705 1   69.969532 -14.137422 -1.675
 4706 1   69.982545 -12.717481 -1.675
 4707 1   71.218755 -12.018781 -1.675
 4708 1   68.733321 -14.836123 -1.675
 4709 1   67.510123 -14.114883 -1.675
 4710 1   67.523136 -12.694943 -1.675
 4711 1   68.759346 -11.996242 -1.675
 4712 1   66.273912 -14.813584 -1.675
 4713 1   65.050714 -14.092344 -1.675
 4714 1   65.063727 -12.672404 -1.675
 4715 1   66.299938 -11.973703 -1.675
 4716 1   63.814503 -14.791045 -1.675
 4717 1   62.591305 -14.069806 -1.675
 4718 1   62.604318 -12.649865 -1.675
 4719 1   63.840529 -11.951164 -1.675
 4720 1   61.355094 -14.768506 -1.675
 4721 1   60.131896 -14.047267 -1.675
 4722 1   60.144909 -12.627326 -1.675
 4723 1   61.381120 -11.928626 -1.675
 4724 1   58.895686 -14.745968 -1.675
 4725 1   57.672487 -14.024728 -1.675
 4726 1   57.685500 -12.604788 -1.675
 4727 1   58.921711 -11.906087 -1.675
 4728 1   56.436277 -14.723429 -1.675
 4729 1   55.213079 -14.002189 -1.675
 4730 1   55.226091 -12.582249 -1.675
 4731 1   56.462302 -11.883548 -1.675
 4732 1   53.976868 -14.700890 -1.675
 4733 1   52.753670 -13.979651 -1.675
 4734 1   52.766682 -12.559710 -1.675
 4735 1   54.002893 -11.861009 -1.675
 4736 1   51.517459 -14.678351 -1.675
 4737 1   50.294261 -13.957112 -1.675
 4738 1   50.307274 -12.537171 -1.675
 4739 1   51.543484 -11.838471 -1.675
 4740 1   49.058050 -14.655813 -1.675
 4741 1   47.834852 -13.934573 -1.675
 4742 1   47.847865 -12.514633 -1.675
 4743 1   49.084076 -11.815932 -1.675
 4744 1   46.598641 -14.633274 -1.675
 4745 1   45.375443 -13.912034 -1.675
 4746 1   45.388456 -12.492094 -1.675
 4747 1   46.624667 -11.793393 -1.675
 4748 1   44.139232 -14.610735 -1.675
 4749 1   42.916034 -13.889496 -1.675
 4750 1   42.929047 -12.469555 -1.675
 4751 1   44.165258 -11.770854 -1.675
 4752 1   41.679823 -14.588196 -1.675
 4753 1   40.456625 -13.866957 -1.675
 4754 1   40.469638 -12.447017 -1.675
 4755 1   41.705849 -11.748316 -1.675
 4756 1   39.220415 -14.565658 -1.675
 4757 1   37.997216 -13.844418 -1.675
 4758 1   38.010229 -12.424478 -1.675
 4759 1   39.246440 -11.725777 -1.675
 4760 1   36.761006 -14.543119 -1.675
 4761 1   35.537808 -13.821879 -1.675
 4762 1   35.550820 -12.401939 -1.675
 4763 1   36.787031 -11.703238 -1.675
 4764 1   34.301597 -14.520580 -1.675
 4765 1   33.078399 -13.799341 -1.675
 4766 1   33.091411 -12.379400 -1.675
 4767 1   34.327622 -11.680700 -1.675
 4768 1   31.842188 -14.498042 -1.675
 4769 1   30.618990 -13.776802 -1.675
 4770 1   30.632003 -12.356862 -1.675
 4771 1   31.868213 -11.658161 -1.675
 4772 1   29.382779 -14.475503 -1.675
 4773 1   28.159581 -13.754263 -1.675
 4774 1   28.172594 -12.334323 -1.675
 4775 1   29.408805 -11.635622 -1.675
 4776 1   26.923370 -14.452964 -1.675
 4777 1   25.700172 -13.731725 -1.675
 4778 1   25.713185 -12.311784 -1.675
 4779 1   26.949396 -11.613083 -1.675
 4780 1   24.463961 -14.430425 -1.675
 4781 1   23.240763 -13.709186 -1.675
 4782 1   23.253776 -12.289245 -1.675
 4783 1   24.489987 -11.590545 -1.675
 4784 1   22.004552 -14.407887 -1.675
 4785 1   20.781354 -13.686647 -1.675
 4786 1   20.794367 -12.266707 -1.675
 4787 1   22.030578 -11.568006 -1.675
 4788 1   19.545144 -14.385348 -1.675
 4789 1   18.321945 -13.664108 -1.675
 4790 1   18.334958 -12.244168 -1.675
 4791 1   19.571169 -11.545467 -1.675
 4792 1   17.085735 -14.362809 -1.675
 4793 1   15.862537 -13.641570 -1.675
 4794 1   15.875549 -12.221629 -1.675
 4795 1   17.111760 -11.522928 -1.675
 4796 1   14.626326 -14.340270 -1.675
 4797 1   13.403128 -13.619031 -1.675
 4798 1   13.416140 -12.199090 -1.675
 4799 1   14.652351 -11.500390 -1.675
 4800 1   12.166917 -14.317732 -1.675
 4801 1   10.943719 -13.596492 -1.675
 4802 1   10.956732 -12.176552 -1.675
 4803 1   12.192942 -11.477851 -1.675
 4804 1    9.707508 -14.295193 -1.675
 4805 1    8.484310 -13.573953 -1.675
 4806 1    8.497323 -12.154013 -1.675
 4807 1    9.733534 -11.455312 -1.675
 4808 1    7.248099 -14.272654 -1.675
 4809 1    6.024901 -13.551415 -1.675
 4810 1    6.037914 -12.131474 -1.675
 4811 1    7.274125 -11.432773 -1.675
 4812 1    4.788690 -14.250115 -1.675
 4813 1    3.565492 -13.528876 -1.675
 4814 1    3.578505 -12.108936 -1.675
 4815 1    4.814716 -11.410235 -1.675
 4816 1    2.329281 -14.227577 -1.675
 4817 1    1.106083 -13.506337 -1.675
 4818 1    1.119096 -12.086397 -1.675
 4819 1    2.355307 -11.387696 -1.675
 4820 1   -0.130127 -14.205038 -1.675
 4821 1   -1.353326 -13.483798 -1.675
 4822 1   -1.340313 -12.063858 -1.675
 4823 1   -0.104102 -11.365157 -1.675
 4824 1   -2.589536 -14.182499 -1.675
 4825 1   -3.812734 -13.461260 -1.675
 4826 1   -3.799722 -12.041319 -1.675
 4827 1   -2.563511 -11.342618 -1.675
 4828 1   -5.048945 -14.159960 -1.675
 4829 1   -6.272143 -13.438721 -1.675
 4830 1   -6.259131 -12.018781 -1.675
 4831 1   -5.022920 -11.320080 -1.675
 4832 1   -7.508354 -14.137422 -1.675
 4833 1   -8.731552 -13.416182 -1.675
 4834 1   -8.718539 -11.996242 -1.675
 4835 1   -7.482329 -11.297541 -1.675
 4836 1   -9.967763 -14.114883 -1.675
 4837 1  -11.190961 -13.393643 -1.675
 4838 1  -11.177948 -11.973703 -1.675
 4839 1   -9.941737 -11.275002 -1.675
 4840 1  -12.427172 -14.092344 -1.675
 4841 1  -13.650370 -13.371105 -1.675
 4842 1  -13.637357 -11.951164 -1.675
 4843 1  -12.401146 -11.252464 -1.675
 4844 1  -14.886581 -14.069806 -1.675
 4845 1  -16.109779 -13.348566 -1.675
 4846 1  -16.096766 -11.928626 -1.675
 4847 1  -14.860555 -11.229925 -1.675
 4848 1  -17.345990 -14.047267 -1.675
 4849 1  -18.569188 -13.326027 -1.675
 4850 1  -18.556175 -11.906087 -1.675
 4851 1  -17.319964 -11.207386 -1.675
 4852 1  -19.805398 -14.024728 -1.675
 4853 1  -21.028597 -13.303489 -1.675
 4854 1  -21.015584 -11.883548 -1.675
 4855 1  -19.779373 -11.184847 -1.675
 4856 1  -22.264807 -14.002189 -1.675
 4857 1  -23.488005 -13.280950 -1.675
 4858 1  -23.474993 -11.861009 -1.675
 4859 1  -22.238782 -11.162309 -1.675
 4860 1  -24.724216 -13.979651 -1.675
 4861 1  -25.947414 -13.258411 -1.675
 4862 1  -25.934402 -11.838471 -1.675
 4863 1  -24.698191 -11.139770 -1.675
 4864 1  -27.183625 -13.957112 -1.675
 4865 1  -28.406823 -13.235872 -1.675
 4866 1  -28.393810 -11.815932 -1.675
 4867 1  -27.157600 -11.117231 -1.675
 4868 1  -29.643034 -13.934573 -1.675
 4869 1  -30.866232 -13.213334 -1.675
 4870 1  -30.853219 -11.793393 -1.675
 4871 1  -29.617008 -11.094692 -1.675
 4872 1  -32.102443 -13.912034 -1.675
 4873 1  -33.325641 -13.190795 -1.675
 4874 1  -33.312628 -11.770854 -1.675
 4875 1  -32.076417 -11.072154 -1.675
 4876 1  -34.561852 -13.889496 -1.675
 4877 1  -35.785050 -13.168256 -1.675
 4878 1  -35.772037 -11.748316 -1.675
 4879 1  -34.535826 -11.049615 -1.675
 4880 1  -37.021261 -13.866957 -1.675
 4881 1  -38.244459 -13.145717 -1.675
 4882 1  -38.231446 -11.725777 -1.675
 4883 1  -36.995235 -11.027076 -1.675
 4884 1  -39.480669 -13.844418 -1.675
 4885 1  -40.703867 -13.123179 -1.675
 4886 1  -40.690855 -11.703238 -1.675
 4887 1  -39.454644 -11.004537 -1.675
 4888 1  -41.940078 -13.821879 -1.675
 4889 1  -43.163276 -13.100640 -1.675
 4890 1  -43.150264 -11.680700 -1.675
 4891 1  -41.914053 -10.981999 -1.675
 4892 1  -44.399487 -13.799341 -1.675
 4893 1  -45.622685 -13.078101 -1.675
 4894 1  -45.609672 -11.658161 -1.675
 4895 1  -44.373462 -10.959460 -1.675
 4896 1  -46.858896 -13.776802 -1.675
 4897 1  -48.082094 -13.055562 -1.675
 4898 1  -48.069081 -11.635622 -1.675
 4899 1  -46.832871 -10.936921 -1.675
 4900 1  -49.318305 -13.754263 -1.675
 4901 1  -50.541503 -13.033024 -1.675
 4902 1  -50.528490 -11.613083 -1.675
 4903 1  -49.292279 -10.914382 -1.675
 4904 1  -51.777714 -13.731725 -1.675
 4905 1  -53.000912 -13.010485 -1.675
 4906 1  -52.987899 -11.590545 -1.675
 4907 1  -51.751688 -10.891844 -1.675
 4908 1  -54.237123 -13.709186 -1.675
 4909 1  -55.460321 -12.987946 -1.675
 4910 1  -55.447308 -11.568006 -1.675
 4911 1  -54.211097 -10.869305 -1.675
 4912 1  -56.696532 -13.686647 -1.675
 4913 1  -57.919730 -12.965407 -1.675
 4914 1  -57.906717 -11.545467 -1.675
 4915 1  -56.670506 -10.846766 -1.675
 4916 1  -59.155940 -13.664108 -1.675
 4917 1  -60.379138 -12.942869 -1.675
 4918 1  -60.366126 -11.522928 -1.675
 4919 1  -59.129915 -10.824228 -1.675
 4920 1  -61.615349 -13.641570 -1.675
 4921 1  -62.838547 -12.920330 -1.675
 4922 1  -62.825535 -11.500390 -1.675
 4923 1  -61.589324 -10.801689 -1.675
 4924 1  -64.074758 -13.619031 -1.675
 4925 1  -65.297956 -12.897791 -1.675
 4926 1  -65.284943 -11.477851 -1.675
 4927 1  -64.048733 -10.779150 -1.675
 4928 1  -66.534167 -13.596492 -1.675
 4929 1  -67.757365 -12.875253 -1.675
 4930 1  -67.744352 -11.455312 -1.675
 4931 1  -66.508142 -10.756611 -1.675
 4932 1  -68.993576 -13.573953 -1.675
 4933 1  -70.216774 -12.852714 -1.675
 4934 1  -70.203761 -11.432773 -1.675
 4935 1  -68.967550 -10.734073 -1.675
 4936 1  -71.452985 -13.551415 -1.675
 4937 1  -72.676183 -12.830175 -1.675
 4938 1  -72.663170 -11.410235 -1.675
 4939 1  -71.426959 -10.711534 -1.675
 4940 1  -73.912394 -13.528876 -1.675
 4941 1  -75.135592 -12.807636 -1.675
 4942 1  -75.122579 -11.387696 -1.675
 4943 1  -73.886368 -10.688995 -1.675
 4944 1  -76.371803 -13.506337 -1.675
 4945 1  -77.595001 -12.785098 -1.675
 4946 1  -77.581988 -11.365157 -1.675
 4947 1  -76.345777 -10.666456 -1.675
 4948 1  -78.831211 -13.483798 -1.675
 4949 1  -80.054409 -12.762559 -1.675
 4950 1  -80.041397 -11.342618 -1.675
 4951 1  -78.805186 -10.643918 -1.675
 4952 1  -81.290620 -13.461260 -1.675
 4953 1  -82.513818 -12.740020 -1.675
 4954 1  -82.500806 -11.320080 -1.675
 4955 1  -81.264595 -10.621379 -1.675
 4956 1  -83.750029 -13.438721 -1.675
 4957 1  -84.973227 -12.717481 -1.675
 4958 1  -84.960214 -11.297541 -1.675
 4959 1  -83.724004 -10.598840 -1.675
 4960 1  -86.209438 -13.416182 -1.675
 4961 1  -87.432636 -12.694943 -1.675
 4962 1  -87.419623 -11.275002 -1.675
 4963 1  -86.183413 -10.576301 -1.675
 4964 1  -88.668847 -13.393643 -1.675
 4965 1  -89.892045 -12.672404 -1.675
 4966 1  -89.879032 -11.252464 -1.675
 4967 1  -88.642821 -10.553763 -1.675
 4968 1  -91.128256 -13.371105 -1.675
 4969 1  -92.351454 -12.649865 -1.675
 4970 1  -92.338441 -11.229925 -1.675
 4971 1  -91.102230 -10.531224 -1.675
 4972 1  -93.587665 -13.348566 -1.675
 4973 1  -94.810863 -12.627326 -1.675
 4974 1  -94.797850 -11.207386 -1.675
 4975 1  -93.561639 -10.508685 -1.675
 4976 1  -96.047074 -13.326027 -1.675
 4977 1  -97.270272 -12.604788 -1.675
 4978 1  -97.257259 -11.184847 -1.675
 4979 1  -96.021048 -10.486147 -1.675
 4980 1  -98.506482 -13.303489 -1.675
 4981 1  -99.729680 -12.582249 -1.675
 4982 1  -99.716668 -11.162309 -1.675
 4983 1  -98.480457 -10.463608 -1.675
 4984 1 -100.965891 -13.280950 -1.675
 4985 1 -102.189089 -12.559710 -1.675
 4986 1 -102.176077 -11.139770 -1.675
 4987 1 -100.939866 -10.441069 -1.675
 4988 1 -103.425300 -13.258411 -1.675
 4989 1 -104.648498 -12.537171 -1.675
 4990 1 -104.635485 -11.117231 -1.675
 4991 1 -103.399275 -10.418530 -1.675
 4992 1 -105.884709 -13.235872 -1.675
 4993 1 -107.107907 -12.514633 -1.675
 4994 1 -107.094894 -11.094692 -1.675
 4995 1 -105.858684 -10.395992 -1.675
 4996 1 -108.344118 -13.213334 -1.675
 4997 1 -109.567316 -12.492094 -1.675
 4998 1 -109.554303 -11.072154 -1.675
 4999 1 -108.318092 -10.373453 -1.675
 5000 1 -110.803527 -13.190795 -1.675
 5001 1 -112.026725 -12.469555 -1.675
 5002 1 -112.013712 -11.049615 -1.675
 5003 1 -110.777501 -10.350914 -1.675
 5004 1 -113.262936 -13.168256 -1.675
 5005 1 -114.486134 -12.447017 -1.675
 5006 1 -114.473121 -11.027076 -1.675
 5007 1 -113.236910 -10.328375 -1.675
 5008 1 -115.722344 -13.145717 -1.675
 5009 1 -115.696319 -10.305837 -1.675
 5010 1  115.501128 -11.004537 -1.675
 5011 1  114.277930 -10.283298 -1.675
 5012 1  114.290943  -8.863358 -1.675
 5013 1  115.527153  -8.164657 -1.675
 5014 1  113.041719 -10.981999 -1.675
 5015 1  111.818521 -10.260759 -1.675
 5016 1  111.831534  -8.840819 -1.675
 5017 1  113.067744  -8.142118 -1.675
 5018 1  110.582310 -10.959460 -1.675
 5019 1  109.359112 -10.238220 -1.675
 5020 1  109.372125  -8.818280 -1.675
 5021 1  110.608336  -8.119579 -1.675
 5022 1  108.122901 -10.936921 -1.675
 5023 1  106.899703 -10.215682 -1.675
 5024 1  106.912716  -8.795741 -1.675
 5025 1  108.148927  -8.097040 -1.675
 5026 1  105.663492 -10.914382 -1.675
 5027 1  104.440294 -10.193143 -1.675
 5028 1  104.453307  -8.773203 -1.675
 5029 1  105.689518  -8.074502 -1.675
 5030 1  103.204083 -10.891844 -1.675
 5031 1  101.980885 -10.170604 -1.675
 5032 1  101.993898  -8.750664 -1.675
 5033 1  103.230109  -8.051963 -1.675
 5034 1  100.744675 -10.869305 -1.675
 5035 1   99.521477 -10.148065 -1.675
 5036 1   99.534489  -8.728125 -1.675
 5037 1  100.770700  -8.029424 -1.675
 5038 1   98.285266 -10.846766 -1.675
 5039 1   97.062068 -10.125527 -1.675
 5040 1   97.075080  -8.705586 -1.675
 5041 1   98.311291  -8.006886 -1.675
 5042 1   95.825857 -10.824228 -1.675
 5043 1   94.602659 -10.102988 -1.675
 5044 1   94.615672  -8.683048 -1.675
 5045 1   95.851882  -7.984347 -1.675
 5046 1   93.366448 -10.801689 -1.675
 5047 1   92.143250 -10.080449 -1.675
 5048 1   92.156263  -8.660509 -1.675
 5049 1   93.392473  -7.961808 -1.675
 5050 1   90.907039 -10.779150 -1.675
 5051 1   89.683841 -10.057911 -1.675
 5052 1   89.696854  -8.637970 -1.675
 5053 1   90.933065  -7.939269 -1.675
 5054 1   88.447630 -10.756611 -1.675
 5055 1   87.224432 -10.035372 -1.675
 5056 1   87.237445  -8.615431 -1.675
 5057 1   88.473656  -7.916731 -1.675
 5058 1   85.988221 -10.734073 -1.675
 5059 1   84.765023 -10.012833 -1.675
 5060 1   84.778036  -8.592893 -1.675
 5061 1   86.014247  -7.894192 -1.675
 5062 1   83.528812 -10.711534 -1.675
 5063 1   82.305614  -9.990294 -1.675
 5064 1   82.318627  -8.570354 -1.675
 5065 1   83.554838  -7.871653 -1.675
 5066 1   81.069404 -10.688995 -1.675
 5067 1   79.846206  -9.967756 -1.675
 5068 1   79.859218  -8.547815 -1.675
 5069 1   81.095429  -7.849114 -1.675
 5070 1   78.609995 -10.666456 -1.675
 5071 1   77.386797  -9.945217 -1.675
 5072 1   77.399809  -8.525276 -1.675
 5073 1   78.636020  -7.826576 -1.675
 5074 1   76.150586 -10.643918 -1.675
 5075 1   74.927388  -9.922678 -1.675
 5076 1   74.940401  -8.502738 -1.675
 5077 1   76.176611  -7.804037 -1.675
 5078 1   73.691177 -10.621379 -1.675
 5079 1   72.467979  -9.900139 -1.675
 5080 1   72.480992  -8.480199 -1.675
 5081 1   73.717202  -7.781498 -1.675
 5082 1   71.231768 -10.598840 -1.675
 5083 1   70.008570  -9.877601 -1.675
 5084 1   70.021583  -8.457660 -1.675
 5085 1   71.257794  -7.758959 -1.675
 5086 1   68.772359 -10.576301 -1.675
 5087 1   67.549161  -9.855062 -1.675
 5088 1   67.562174  -8.435122 -1.675
 5089 1   68.798385  -7.736421 -1.675
 5090 1   66.312950 -10.553763 -1.675
 5091 1   65.089752  -9.832523 -1.675
 5092 1   65.102765  -8.412583 -1.675
 5093 1   66.338976  -7.713882 -1.675
 5094 1   63.853541 -10.531224 -1.675
 5095 1   62.630343  -9.809984 -1.675
 5096 1   62.643356  -8.390044 -1.675
 5097 1   63.879567  -7.691343 -1.675
 5098 1   61.394133 -10.508685 -1.675
 5099 1   60.170935  -9.787446 -1.675
 5100 1   60.183947  -8.367505 -1.675
 5101 1   61.420158  -7.668804 -1.675
 5102 1   58.934724 -10.486147 -1.675
 5103 1   57.711526  -9.764907 -1.675
 5104 1   57.724538  -8.344967 -1.675
 5105 1   58.960749  -7.646266 -1.675
 5106 1   56.475315 -10.463608 -1.675
 5107 1   55.252117  -9.742368 -1.675
 5108 1   55.265130  -8.322428 -1.675
 5109 1   56.501340  -7.623727 -1.675
 5110 1   54.015906 -10.441069 -1.675
 5111 1   52.792708  -9.719829 -1.675
 5112 1   52.805721  -8.299889 -1.675
 5113 1   54.041931  -7.601188 -1.675
 5114 1   51.556497 -10.418530 -1.675
 5115 1   50.333299  -9.697291 -1.675
 5116 1   50.346312  -8.277350 -1.675
 5117 1   51.582523  -7.578650 -1.675
 5118 1   49.097088 -10.395992 -1.675
 5119 1   47.873890  -9.674752 -1.675
 5120 1   47.886903  -8.254812 -1.675
 5121 1   49.123114  -7.556111 -1.675
 5122 1   46.637679 -10.373453 -1.675
 5123 1   45.414481  -9.652213 -1.675
 5124 1   45.427494  -8.232273 -1.675
 5125 1   46.663705  -7.533572 -1.675
 5126 1   44.178270 -10.350914 -1.675
 5127 1   42.955072  -9.629675 -1.675
 5128 1   42.968085  -8.209734 -1.675
 5129 1   44.204296  -7.511033 -1.675
 5130 1   41.718862 -10.328375 -1.675
 5131 1   40.495664  -9.607136 -1.675
 5132 1   40.508676  -8.187195 -1.675
 5133 1   41.744887  -7.488495 -1.675
 5134 1   39.259453 -10.305837 -1.675
 5135 1   38.036255  -9.584597 -1.675
 5136 1   38.049267  -8.164657 -1.675
 5137 1   39.285478  -7.465956 -1.675
 5138 1   36.800044 -10.283298 -1.675
 5139 1   35.576846  -9.562058 -1.675
 5140 1   35.589859  -8.142118 -1.675
 5141 1   36.826069  -7.443417 -1.675
 5142 1   34.340635 -10.260759 -1.675
 5143 1   33.117437  -9.539520 -1.675
 5144 1   33.130450  -8.119579 -1.675
 5145 1   34.366660  -7.420878 -1.675
 5146 1   31.881226 -10.238220 -1.675
 5147 1   30.658028  -9.516981 -1.675
 5148 1   30.671041  -8.097040 -1.675
 5149 1   31.907252  -7.398340 -1.675
 5150 1   29.421817 -10.215682 -1.675
 5151 1   28.198619  -9.494442 -1.675
 5152 1   28.211632  -8.074502 -1.675
 5153 1   29.447843  -7.375801 -1.675
 5154 1   26.962408 -10.193143 -1.675
 5155 1   25.739210  -9.471903 -1.675
 5156 1   25.752223  -8.051963 -1.675
 5157 1   26.988434  -7.353262 -1.675
 5158 1   24.503000 -10.170604 -1.675
 5159 1   23.279801  -9.449365 -1.675
 5160 1   23.292814  -8.029424 -1.675
 5161 1   24.529025  -7.330723 -1.675
 5162 1   22.043591 -10.148065 -1.675
 5163 1   20.820393  -9.426826 -1.675
 5164 1   20.833405  -8.006886 -1.675
 5165 1   22.069616  -7.308185 -1.675
 5166 1   19.584182 -10.125527 -1.675
 5167 1   18.360984  -9.404287 -1.675
 5168 1   18.373996  -7.984347 -1.675
 5169 1   19.610207  -7.285646 -1.675
 5170 1   17.124773 -10.102988 -1.675
 5171 1   15.901575  -9.381748 -1.675
 5172 1   15.914588  -7.961808 -1.675
 5173 1   17.150798  -7.263107 -1.675
 5174 1   14.665364 -10.080449 -1.675
 5175 1   13.442166  -9.359210 -1.675
 5176 1   13.455179  -7.939269 -1.675
 5177 1   14.691390  -7.240569 -1.675
 5178 1   12.205955 -10.057911 -1.675
 5179 1   10.982757  -9.336671 -1.675
 5180 1   10.995770  -7.916731 -1.675
 5181 1   12.231981  -7.218030 -1.675
 5182 1    9.746546 -10.035372 -1.675
 5183 1    8.523348  -9.314132 -1.675
 5184 1    8.536361  -7.894192 -1.675
 5185 1    9.772572  -7.195491 -1.675
 5186 1    7.287137 -10.012833 -1.675
 5187 1    6.063939  -9.291593 -1.675
 5188 1    6.076952  -7.871653 -1.675
 5189 1    7.313163  -7.172952 -1.675
 5190 1    4.827729  -9.990294 -1.675
 5191 1    3.604530  -9.269055 -1.675
 5192 1    3.617543  -7.849114 -1.675
 5193 1    4.853754  -7.150414 -1.675
 5194 1    2.368320  -9.967756 -1.675
 5195 1    1.145122  -9.246516 -1.675
 5196 1    1.158134  -7.826576 -1.675
 5197 1    2.394345  -7.127875 -1.675
 5198 1   -0.091089  -9.945217 -1.675
 5199 1   -1.314287  -9.223977 -1.675
 5200 1   -1.301275  -7.804037 -1.675
 5201 1   -0.065064  -7.105336 -1.675
 5202 1   -2.550498  -9.922678 -1.675
 5203 1   -3.773696  -9.201439 -1.675
 5204 1   -3.760683  -7.781498 -1.675
 5205 1   -2.524473  -7.082797 -1.675
 5206 1   -5.009907  -9.900139 -1.675
 5207 1   -6.233105  -9.178900 -1.675
 5208 1   -6.220092  -7.758959 -1.675
 5209 1   -4.983881  -7.060259 -1.675
 5210 1   -7.469316  -9.877601 -1.675
 5211 1   -8.692514  -9.156361 -1.675
 5212 1   -8.679501  -7.736421 -1.675
 5213 1   -7.443290  -7.037720 -1.675
 5214 1   -9.928725  -9.855062 -1.675
 5215 1  -11.151923  -9.133822 -1.675
 5216 1  -11.138910  -7.713882 -1.675
 5217 1   -9.902699  -7.015181 -1.675
 5218 1  -12.388134  -9.832523 -1.675
 5219 1  -13.611332  -9.111284 -1.675
 5220 1  -13.598319  -7.691343 -1.675
 5221 1  -12.362108  -6.992642 -1.675
 5222 1  -14.847542  -9.809984 -1.675
 5223 1  -16.070741  -9.088745 -1.675
 5224 1  -16.057728  -7.668804 -1.675
 5225 1  -14.821517  -6.970104 -1.675
 5226 1  -17.306951  -9.787446 -1.675
 5227 1  -18.530149  -9.066206 -1.675
 5228 1  -18.517137  -7.646266 -1.675
 5229 1  -17.280926  -6.947565 -1.675
 5230 1  -19.766360  -9.764907 -1.675
 5231 1  -20.989558  -9.043667 -1.675
 5232 1  -20.976546  -7.623727 -1.675
 5233 1  -19.740335  -6.925026 -1.675
 5234 1  -22.225769  -9.742368 -1.675
 5235 1  -23.448967  -9.021129 -1.675
 5236 1  -23.435954  -7.601188 -1.675
 5237 1  -22.199744  -6.902487 -1.675
 5238 1  -24.685178  -9.719829 -1.675
 5239 1  -25.908376  -8.998590 -1.675
 5240 1  -25.895363  -7.578650 -1.675
 5241 1  -24.659152  -6.879949 -1.675
 5242 1  -27.144587  -9.697291 -1.675
 5243 1  -28.367785  -8.976051 -1.675
 5244 1  -28.354772  -7.556111 -1.675
 5245 1  -27.118561  -6.857410 -1.675
 5246 1  -29.603996  -9.674752 -1.675
 5247 1  -30.827194  -8.953512 -1.675
 5248 1  -30.814181  -7.533572 -1.675
 5249 1  -29.577970  -6.834871 -1.675
 5250 1  -32.063405  -9.652213 -1.675
 5251 1  -33.286603  -8.930974 -1.675
 5252 1  -33.273590  -7.511033 -1.675
 5253 1  -32.037379  -6.812333 -1.675
 5254 1  -34.522813  -9.629675 -1.675
 5255 1  -35.746012  -8.908435 -1.675
 5256 1  -35.732999  -7.488495 -1.675
 5257 1  -34.496788  -6.789794 -1.675
 5258 1  -36.982222  -9.607136 -1.675
 5259 1  -38.205420  -8.885896 -1.675
 5260 1  -38.192408  -7.465956 -1.675
 5261 1  -36.956197  -6.767255 -1.675
 5262 1  -39.441631  -9.584597 -1.675
 5263 1  -40.664829  -8.863358 -1.675
 5264 1  -40.651817  -7.443417 -1.675
 5265 1  -39.415606  -6.744716 -1.675
 5266 1  -41.901040  -9.562058 -1.675
 5267 1  -43.124238  -8.840819 -1.675
 5268 1  -43.111225  -7.420878 -1.675
 5269 1  -41.875015  -6.722178 -1.675
 5270 1  -44.360449  -9.539520 -1.675
 5271 1  -45.583647  -8.818280 -1.675
 5272 1  -45.570634  -7.398340 -1.675
 5273 1  -44.334423  -6.699639 -1.675
 5274 1  -46.819858  -9.516981 -1.675
 5275 1  -48.043056  -8.795741 -1.675
 5276 1  -48.030043  -7.375801 -1.675
 5277 1  -46.793832  -6.677100 -1.675
 5278 1  -49.279267  -9.494442 -1.675
 5279 1  -50.502465  -8.773203 -1.675
 5280 1  -50.489452  -7.353262 -1.675
 5281 1  -49.253241  -6.654561 -1.675
 5282 1  -51.738676  -9.471903 -1.675
 5283 1  -52.961874  -8.750664 -1.675
 5284 1  -52.948861  -7.330723 -1.675
 5285 1  -51.712650  -6.632023 -1.675
 5286 1  -54.198084  -9.449365 -1.675
 5287 1  -55.421282  -8.728125 -1.675
 5288 1  -55.408270  -7.308185 -1.675
 5289 1  -54.172059  -6.609484 -1.675
 5290 1  -56.657493  -9.426826 -1.675
 5291 1  -57.880691  -8.705586 -1.675
 5292 1  -57.867679  -7.285646 -1.675
 5293 1  -56.631468  -6.586945 -1.675
 5294 1  -59.116902  -9.404287 -1.675
 5295 1  -60.340100  -8.683048 -1.675
 5296 1  -60.327087  -7.263107 -1.675
 5297 1  -59.090877  -6.564406 -1.675
 5298 1  -61.576311  -9.381748 -1.675
 5299 1  -62.799509  -8.660509 -1.675
 5300 1  -62.786496  -7.240569 -1.675
 5301 1  -61.550286  -6.541868 -1.675
 5302 1  -64.035720  -9.359210 -1.675
 5303 1  -65.258918  -8.637970 -1.675
 5304 1  -65.245905  -7.218030 -1.675
 5305 1  -64.009694  -6.519329 -1.675
 5306 1  -66.495129  -9.336671 -1.675
 5307 1  -67.718327  -8.615431 -1.675
 5308 1  -67.705314  -7.195491 -1.675
 5309 1  -66.469103  -6.496790 -1.675
 5310 1  -68.954538  -9.314132 -1.675
 5311 1  -70.177736  -8.592893 -1.675
 5312 1  -70.164723  -7.172952 -1.675
 5313 1  -68.928512  -6.474251 -1.675
 5314 1  -71.413947  -9.291593 -1.675
 5315 1  -72.637145  -8.570354 -1.675
 5316 1  -72.624132  -7.150414 -1.675
 5317 1  -71.387921  -6.451713 -1.675
 5318 1  -73.873355  -9.269055 -1.675
 5319 1  -75.096553  -8.547815 -1.675
 5320 1  -75.083541  -7.127875 -1.675
 5321 1  -73.847330  -6.429174 -1.675
 5322 1  -76.332764  -9.246516 -1.675
 5323 1  -77.555962  -8.525276 -1.675
 5324 1  -77.542950  -7.105336 -1.675
 5325 1  -76.306739  -6.406635 -1.675
 5326 1  -78.792173  -9.223977 -1.675
 5327 1  -80.015371  -8.502738 -1.675
 5328 1  -80.002358  -7.082797 -1.675
 5329 1  -78.766148  -6.384097 -1.675
 5330 1  -81.251582  -9.201439 -1.675
 5331 1  -82.474780  -8.480199 -1.675
 5332 1  -82.461767  -7.060259 -1.675
 5333 1  -81.225557  -6.361558 -1.675
 5334 1  -83.710991  -9.178900 -1.675
 5335 1  -84.934189  -8.457660 -1.675
 5336 1  -84.921176  -7.037720 -1.675
 5337 1  -83.684965  -6.339019 -1.675
 5338 1  -86.170400  -9.156361 -1.675
 5339 1  -87.393598  -8.435122 -1.675
 5340 1  -87.380585  -7.015181 -1.675
 5341 1  -86.144374  -6.316480 -1.675
 5342 1  -88.629809  -9.133822 -1.675
 5343 1  -89.853007  -8.412583 -1.675
 5344 1  -89.839994  -6.992642 -1.675
 5345 1  -88.603783  -6.293942 -1.675
 5346 1  -91.089218  -9.111284 -1.675
 5347 1  -92.312416  -8.390044 -1.675
 5348 1  -92.299403  -6.970104 -1.675
 5349 1  -91.063192  -6.271403 -1.675
 5350 1  -93.548626  -9.088745 -1.675
 5351 1  -94.771824  -8.367505 -1.675
 5352 1  -94.758812  -6.947565 -1.675
 5353 1  -93.522601  -6.248864 -1.675
 5354 1  -96.008035  -9.066206 -1.675
 5355 1  -97.231233  -8.344967 -1.675
 5356 1  -97.218221  -6.925026 -1.675
 5357 1  -95.982010  -6.226325 -1.675
 5358 1  -98.467444  -9.043667 -1.675
 5359 1  -99.690642  -8.322428 -1.675
 5360 1  -99.677629  -6.902487 -1.675
 5361 1  -98.441419  -6.203787 -1.675
 5362 1 -100.926853  -9.021129 -1.675
 5363 1 -102.150051  -8.299889 -1.675
 5364 1 -102.137038  -6.879949 -1.675
 5365 1 -100.900828  -6.181248 -1.675
 5366 1 -103.386262  -8.998590 -1.675
 5367 1 -104.609460  -8.277350 -1.675
 5368 1 -104.596447  -6.857410 -1.675
 5369 1 -103.360236  -6.158709 -1.675
 5370 1 -105.845671  -8.976051 -1.675
 5371 1 -107.068869  -8.254812 -1.675
 5372 1 -107.055856  -6.834871 -1.675
 5373 1 -105.819645  -6.136170 -1.675
 5374 1 -108.305080  -8.953512 -1.675
 5375 1 -109.528278  -8.232273 -1.675
 5376 1 -109.515265  -6.812333 -1.675
 5377 1 -108.279054  -6.113632 -1.675
 5378 1 -110.764489  -8.930974 -1.675
 5379 1 -111.987687  -8.209734 -1.675
 5380 1 -111.974674  -6.789794 -1.675
 5381 1 -110.738463  -6.091093 -1.675
 5382 1 -113.223897  -8.908435 -1.675
 5383 1 -114.447095  -8.187195 -1.675
 5384 1 -114.434083  -6.767255 -1.675
 5385 1 -113.197872  -6.068554 -1.675
 5386 1 -115.683306  -8.885896 -1.675
 5387 1 -115.657281  -6.046015 -1.675
 5388 1  115.540166  -6.744716 -1.675
 5389 1  114.316968  -6.023477 -1.675
 5390 1  114.329981  -4.603536 -1.675
 5391 1  115.566192  -3.904836 -1.675
 5392 1  113.080757  -6.722178 -1.675
 5393 1  111.857559  -6.000938 -1.675
 5394 1  111.870572  -4.580998 -1.675
 5395 1  113.106783  -3.882297 -1.675
 5396 1  110.621348  -6.699639 -1.675
 5397 1  109.398150  -5.978399 -1.675
 5398 1  109.411163  -4.558459 -1.675
 5399 1  110.647374  -3.859758 -1.675
 5400 1  108.161939  -6.677100 -1.675
 5401 1  106.938741  -5.955861 -1.675
 5402 1  106.951754  -4.535920 -1.675
 5403 1  108.187965  -3.837219 -1.675
 5404 1  105.702531  -6.654561 -1.675
 5405 1  104.479333  -5.933322 -1.675
 5406 1  104.492345  -4.513381 -1.675
 5407 1  105.728556  -3.814681 -1.675
 5408 1  103.243122  -6.632023 -1.675
 5409 1  102.019924  -5.910783 -1.675
 5410 1  102.032936  -4.490843 -1.675
 5411 1  103.269147  -3.792142 -1.675
 5412 1  100.783713  -6.609484 -1.675
 5413 1   99.560515  -5.888244 -1.675
 5414 1   99.573527  -4.468304 -1.675
 5415 1  100.809738  -3.769603 -1.675
 5416 1   98.324304  -6.586945 -1.675
 5417 1   97.101106  -5.865706 -1.675
 5418 1   97.114119  -4.445765 -1.675
 5419 1   98.350329  -3.747064 -1.675
 5420 1   95.864895  -6.564406 -1.675
 5421 1   94.641697  -5.843167 -1.675
 5422 1   94.654710  -4.423226 -1.675
 5423 1   95.890921  -3.724526 -1.675
 5424 1   93.405486  -6.541868 -1.675
 5425 1   92.182288  -5.820628 -1.675
 5426 1   92.195301  -4.400688 -1.675
 5427 1   93.431512  -3.701987 -1.675
 5428 1   90.946077  -6.519329 -1.675
 5429 1   89.722879  -5.798089 -1.675
 5430 1   89.735892  -4.378149 -1.675
 5431 1   90.972103  -3.679448 -1.675
 5432 1   88.486668  -6.496790 -1.675
 5433 1   87.263470  -5.775551 -1.675
 5434 1   87.276483  -4.355610 -1.675
 5435 1   88.512694  -3.656909 -1.675
 5436 1   86.027260  -6.474251 -1.675
 5437 1   84.804062  -5.753012 -1.675
 5438 1   84.817074  -4.333072 -1.675
 5439 1   86.053285  -3.634371 -1.675
 5440 1   83.567851  -6.451713 -1.675
 5441 1   82.344653  -5.730473 -1.675
 5442 1   82.357665  -4.310533 -1.675
 5443 1   83.593876  -3.611832 -1.675
 5444 1   81.108442  -6.429174 -1.675
 5445 1   79.885244  -5.707934 -1.675
 5446 1   79.898257  -4.287994 -1.675
 5447 1   81.134467  -3.589293 -1.675
 5448 1   78.649033  -6.406635 -1.675
 5449 1   77.425835  -5.685396 -1.675
 5450 1   77.438848  -4.265455 -1.675
 5451 1   78.675058  -3.566755 -1.675
 5452 1   76.189624  -6.384097 -1.675
 5453 1   74.966426  -5.662857 -1.675
 5454 1   74.979439  -4.242917 -1.675
 5455 1   76.215650  -3.544216 -1.675
 5456 1   73.730215  -6.361558 -1.675
 5457 1   72.507017  -5.640318 -1.675
 5458 1   72.520030  -4.220378 -1.675
 5459 1   73.756241  -3.521677 -1.675
 5460 1   71.270806  -6.339019 -1.675
 5461 1   70.047608  -5.617780 -1.675
 5462 1   70.060621  -4.197839 -1.675
 5463 1   71.296832  -3.499138 -1.675
 5464 1   68.811397  -6.316480 -1.675
 5465 1   67.588199  -5.595241 -1.675
 5466 1   67.601212  -4.175300 -1.675
 5467 1   68.837423  -3.476600 -1.675
 5468 1   66.351989  -6.293942 -1.675
 5469 1   65.128791  -5.572702 -1.675
 5470 1   65.141803  -4.152762 -1.675
 5471 1   66.378014  -3.454061 -1.675
 5472 1   63.892580  -6.271403 -1.675
 5473 1   62.669382  -5.550163 -1.675
 5474 1   62.682394  -4.130223 -1.675
 5475 1   63.918605  -3.431522 -1.675
 5476 1   61.433171  -6.248864 -1.675
 5477 1   60.209973  -5.527625 -1.675
 5478 1   60.222986  -4.107684 -1.675
 5479 1   61.459196  -3.408983 -1.675
 5480 1   58.973762  -6.226325 -1.675
 5481 1   57.750564  -5.505086 -1.675
 5482 1   57.763577  -4.085145 -1.675
 5483 1   58.999787  -3.386445 -1.675
 5484 1   56.514353  -6.203787 -1.675
 5485 1   55.291155  -5.482547 -1.675
 5486 1   55.304168  -4.062607 -1.675
 5487 1   56.540379  -3.363906 -1.675
 5488 1   54.054944  -6.181248 -1.675
 5489 1   52.831746  -5.460008 -1.675
 5490 1   52.844759  -4.040068 -1.675
 5491 1   54.080970  -3.341367 -1.675
 5492 1   51.595535  -6.158709 -1.675
 5493 1   50.372337  -5.437470 -1.675
 5494 1   50.385350  -4.017529 -1.675
 5495 1   51.621561  -3.318828 -1.675
 5496 1   49.136126  -6.136170 -1.675
 5497 1   47.912928  -5.414931 -1.675
 5498 1   47.925941  -3.994991 -1.675
 5499 1   49.162152  -3.296290 -1.675
 5500 1   46.676718  -6.113632 -1.675
 5501 1   45.453520  -5.392392 -1.675
 5502 1   45.466532  -3.972452 -1.675
 5503 1   46.702743  -3.273751 -1.675
 5504 1   44.217309  -6.091093 -1.675
 5505 1   42.994111  -5.369853 -1.675
 5506 1   43.007123  -3.949913 -1.675
 5507 1   44.243334  -3.251212 -1.675
 5508 1   41.757900  -6.068554 -1.675
 5509 1   40.534702  -5.347315 -1.675
 5510 1   40.547715  -3.927374 -1.675
 5511 1   41.783925  -3.228673 -1.675
 5512 1   39.298491  -6.046015 -1.675
 5513 1   38.075293  -5.324776 -1.675
 5514 1   38.088306  -3.904836 -1.675
 5515 1   39.324516  -3.206135 -1.675
 5516 1   36.839082  -6.023477 -1.675
 5517 1   35.615884  -5.302237 -1.675
 5518 1   35.628897  -3.882297 -1.675
 5519 1   36.865108  -3.183596 -1.675
 5520 1   34.379673  -6.000938 -1.675
 5521 1   33.156475  -5.279698 -1.675
 5522 1   33.169488  -3.859758 -1.675
 5523 1   34.405699  -3.161057 -1.675
 5524 1   31.920264  -5.978399 -1.675
 5525 1   30.697066  -5.257160 -1.675
 5526 1   30.710079  -3.837219 -1.675
 5527 1   31.946290  -3.138519 -1.675
 5528 1   29.460855  -5.955861 -1.675
 5529 1   28.237657  -5.234621 -1.675
 5530 1   28.250670  -3.814681 -1.675
 5531 1   29.486881  -3.115980 -1.675
 5532 1   27.001447  -5.933322 -1.675
 5533 1   25.778249  -5.212082 -1.675
 5534 1   25.791261  -3.792142 -1.675
 5535 1   27.027472  -3.093441 -1.675
 5536 1   24.542038  -5.910783 -1.675
 5537 1   23.318840  -5.189544 -1.675
 5538 1   23.331852  -3.769603 -1.675
 5539 1   24.568063  -3.070902 -1.675
 5540 1   22.082629  -5.888244 -1.675
 5541 1   20.859431  -5.167005 -1.675
 5542 1   20.872444  -3.747064 -1.675
 5543 1   22.108654  -3.048364 -1.675
 5544 1   19.623220  -5.865706 -1.675
 5545 1   18.400022  -5.144466 -1.675
 5546 1   18.413035  -3.724526 -1.675
 5547 1   19.649245  -3.025825 -1.675
 5548 1   17.163811  -5.843167 -1.675
 5549 1   15.940613  -5.121927 -1.675
 5550 1   15.953626  -3.701987 -1.675
 5551 1   17.189837  -3.003286 -1.675
 5552 1   14.704402  -5.820628 -1.675
 5553 1   13.481204  -5.099389 -1.675
 5554 1   13.494217  -3.679448 -1.675
 5555 1   14.730428  -2.980747 -1.675
 5556 1   12.244993  -5.798089 -1.675
 5557 1   11.021795  -5.076850 -1.675
 5558 1   11.034808  -3.656909 -1.675
 5559 1   12.271019  -2.958209 -1.675
 5560 1    9.785585  -5.775551 -1.675
 5561 1    8.562386  -5.054311 -1.675
 5562 1    8.575399  -3.634371 -1.675
 5563 1    9.811610  -2.935670 -1.675
 5564 1    7.326176  -5.753012 -1.675
 5565 1    6.102978  -5.031772 -1.675
 5566 1    6.115990  -3.611832 -1.675
 5567 1    7.352201  -2.913131 -1.675
 5568 1    4.866767  -5.730473 -1.675
 5569 1    3.643569  -5.009234 -1.675
 5570 1    3.656581  -3.589293 -1.675
 5571 1    4.892792  -2.890592 -1.675
 5572 1    2.407358  -5.707934 -1.675
 5573 1    1.184160  -4.986695 -1.675
 5574 1    1.197173  -3.566755 -1.675
 5575 1    2.433383  -2.868054 -1.675
 5576 1   -0.052051  -5.685396 -1.675
 5577 1   -1.275249  -4.964156 -1.675
 5578 1   -1.262236  -3.544216 -1.675
 5579 1   -0.026025  -2.845515 -1.675
 5580 1   -2.511460  -5.662857 -1.675
 5581 1   -3.734658  -4.941617 -1.675
 5582 1   -3.721645  -3.521677 -1.675
 5583 1   -2.485434  -2.822976 -1.675
 5584 1   -4.970869  -5.640318 -1.675
 5585 1   -6.194067  -4.919079 -1.675
 5586 1   -6.181054  -3.499138 -1.675
 5587 1   -4.944843  -2.800437 -1.675
 5588 1   -7.430278  -5.617780 -1.675
 5589 1   -8.653476  -4.896540 -1.675
 5590 1   -8.640463  -3.476600 -1.675
 5591 1   -7.404252  -2.777899 -1.675
 5592 1   -9.889686  -5.595241 -1.675
 5593 1  -11.112885  -4.874001 -1.675
 5594 1  -11.099872  -3.454061 -1.675
 5595 1   -9.863661  -2.755360 -1.675
 5596 1  -12.349095  -5.572702 -1.675
 5597 1  -13.572293  -4.851462 -1.675
 5598 1  -13.559281  -3.431522 -1.675
 5599 1  -12.323070  -2.732821 -1.675
 5600 1  -14.808504  -5.550163 -1.675
 5601 1  -16.031702  -4.828924 -1.675
 5602 1  -16.018690  -3.408983 -1.675
 5603 1  -14.782479  -2.710283 -1.675
 5604 1  -17.267913  -5.527625 -1.675
 5605 1  -18.491111  -4.806385 -1.675
 5606 1  -18.478098  -3.386445 -1.675
 5607 1  -17.241888  -2.687744 -1.675
 5608 1  -19.727322  -5.505086 -1.675
 5609 1  -20.950520  -4.783846 -1.675
 5610 1  -20.937507  -3.363906 -1.675
 5611 1  -19.701296  -2.665205 -1.675
 5612 1  -22.186731  -5.482547 -1.675
 5613 1  -23.409929  -4.761308 -1.675
 5614 1  -23.396916  -3.341367 -1.675
 5615 1  -22.160705  -2.642666 -1.675
 5616 1  -24.646140  -5.460008 -1.675
 5617 1  -25.869338  -4.738769 -1.675
 5618 1  -25.856325  -3.318828 -1.675
 5619 1  -24.620114  -2.620128 -1.675
 5620 1  -27.105549  -5.437470 -1.675
 5621 1  -28.328747  -4.716230 -1.675
 5622 1  -28.315734  -3.296290 -1.675
 5623 1  -27.079523  -2.597589 -1.675
 5624 1  -29.564957  -5.414931 -1.675
 5625 1  -30.788156  -4.693691 -1.675
 5626 1  -30.775143  -3.273751 -1.675
 5627 1  -29.538932  -2.575050 -1.675
 5628 1  -32.024366  -5.392392 -1.675
 5629 1  -33.247564  -4.671153 -1.675
 5630 1  -33.234552  -3.251212 -1.675
 5631 1  -31.998341  -2.552511 -1.675
 5632 1  -34.483775  -5.369853 -1.675
 5633 1  -35.706973  -4.648614 -1.675
 5634 1  -35.693961  -3.228673 -1.675
 5635 1  -34.457750  -2.529973 -1.675
 5636 1  -36.943184  -5.347315 -1.675
 5637 1  -38.166382  -4.626075 -1.675
 5638 1  -38.153369  -3.206135 -1.675
 5639 1  -36.917159  -2.507434 -1.675
 5640 1  -39.402593  -5.324776 -1.675
 5641 1  -40.625791  -4.603536 -1.675
 5642 1  -40.612778  -3.183596 -1.675
 5643 1  -39.376567  -2.484895 -1.675
 5644 1  -41.862002  -5.302237 -1.675
 5645 1  -43.085200  -4.580998 -1.675
 5646 1  -43.072187  -3.161057 -1.675
 5647 1  -41.835976  -2.462356 -1.675
 5648 1  -44.321411  -5.279698 -1.675
 5649 1  -45.544609  -4.558459 -1.675
 5650 1  -45.531596  -3.138519 -1.675
 5651 1  -44.295385  -2.439818 -1.675
 5652 1  -46.780820  -5.257160 -1.675
 5653 1  -48.004018  -4.535920 -1.675
 5654 1  -47.991005  -3.115980 -1.675
 5655 1  -46.754794  -2.417279 -1.675
 5656 1  -49.240228  -5.234621 -1.675
 5657 1  -50.463427  -4.513381 -1.675
 5658 1  -50.450414  -3.093441 -1.675
 5659 1  -49.214203  -2.394740 -1.675
 5660 1  -51.699637  -5.212082 -1.675
 5661 1  -52.922835  -4.490843 -1.675
 5662 1  -52.909823  -3.070902 -1.675
 5663 1  -51.673612  -2.372202 -1.675
 5664 1  -54.159046  -5.189544 -1.675
 5665 1  -55.382244  -4.468304 -1.675
 5666 1  -55.369232  -3.048364 -1.675
 5667 1  -54.133021  -2.349663 -1.675
 5668 1  -56.618455  -5.167005 -1.675
 5669 1  -57.841653  -4.445765 -1.675
 5670 1  -57.828640  -3.025825 -1.675
 5671 1  -56.592430  -2.327124 -1.675
 5672 1  -59.077864  -5.144466 -1.675
 5673 1  -60.301062  -4.423226 -1.675
 5674 1  -60.288049  -3.003286 -1.675
 5675 1  -59.051838  -2.304585 -1.675
 5676 1  -61.537273  -5.121927 -1.675
 5677 1  -62.760471  -4.400688 -1.675
 5678 1  -62.747458  -2.980747 -1.675
 5679 1  -61.511247  -2.282047 -1.675
 5680 1  -63.996682  -5.099389 -1.675
 5681 1  -65.219880  -4.378149 -1.675
 5682 1  -65.206867  -2.958209 -1.675
 5683 1  -63.970656  -2.259508 -1.675
 5684 1  -66.456091  -5.076850 -1.675
 5685 1  -67.679289  -4.355610 -1.675
 5686 1  -67.666276  -2.935670 -1.675
 5687 1  -66.430065  -2.236969 -1.675
 5688 1  -68.915499  -5.054311 -1.675
 5689 1  -70.138697  -4.333072 -1.675
 5690 1  -70.125685  -2.913131 -1.675
 5691 1  -68.889474  -2.214430 -1.675
 5692 1  -71.374908  -5.031772 -1.675
 5693 1  -72.598106  -4.310533 -1.675
 5694 1  -72.585094  -2.890592 -1.675
 5695 1  -71.348883  -2.191892 -1.675
 5696 1  -73.834317  -5.009234 -1.675
 5697 1  -75.057515  -4.287994 -1.675
 5698 1  -75.044502  -2.868054 -1.675
 5699 1  -73.808292  -2.169353 -1.675
 5700 1  -76.293726  -4.986695 -1.675
 5701 1  -77.516924  -4.265455 -1.675
 5702 1  -77.503911  -2.845515 -1.675
 5703 1  -76.267701  -2.146814 -1.675
 5704 1  -78.753135  -4.964156 -1.675
 5705 1  -79.976333  -4.242917 -1.675
 5706 1  -79.963320  -2.822976 -1.675
 5707 1  -78.727109  -2.124275 -1.675
 5708 1  -81.212544  -4.941617 -1.675
 5709 1  -82.435742  -4.220378 -1.675
 5710 1  -82.422729  -2.800437 -1.675
 5711 1  -81.186518  -2.101737 -1.675
 5712 1  -83.671953  -4.919079 -1.675
 5713 1  -84.895151  -4.197839 -1.675
 5714 1  -84.882138  -2.777899 -1.675
 5715 1  -83.645927  -2.079198 -1.675
 5716 1  -86.131362  -4.896540 -1.675
 5717 1  -87.354560  -4.175300 -1.675
 5718 1  -87.341547  -2.755360 -1.675
 5719 1  -86.105336  -2.056659 -1.675
 5720 1  -88.590770  -4.874001 -1.675
 5721 1  -89.813968  -4.152762 -1.675
 5722 1  -89.800956  -2.732821 -1.675
 5723 1  -88.564745  -2.034120 -1.675
 5724 1  -91.050179  -4.851462 -1.675
 5725 1  -92.273377  -4.130223 -1.675
 5726 1  -92.260365  -2.710283 -1.675
 5727 1  -91.024154  -2.011582 -1.675
 5728 1  -93.509588  -4.828924 -1.675
 5729 1  -94.732786  -4.107684 -1.675
 5730 1  -94.719773  -2.687744 -1.675
 5731 1  -93.483563  -1.989043 -1.675
 5732 1  -95.968997  -4.806385 -1.675
 5733 1  -97.192195  -4.085145 -1.675
 5734 1  -97.179182  -2.665205 -1.675
 5735 1  -95.942972  -1.966504 -1.675
 5736 1  -98.428406  -4.783846 -1.675
 5737 1  -99.651604  -4.062607 -1.675
 5738 1  -99.638591  -2.642666 -1.675
 5739 1  -98.402380  -1.943966 -1.675
 5740 1 -100.887815  -4.761308 -1.675
 5741 1 -102.111013  -4.040068 -1.675
 5742 1 -102.098000  -2.620128 -1.675
 5743 1 -100.861789  -1.921427 -1.675
 5744 1 -103.347224  -4.738769 -1.675
 5745 1 -104.570422  -4.017529 -1.675
 5746 1 -104.557409  -2.597589 -1.675
 5747 1 -103.321198  -1.898888 -1.675
 5748 1 -105.806633  -4.716230 -1.675
 5749 1 -107.029831  -3.994991 -1.675
 5750 1 -107.016818  -2.575050 -1.675
 5751 1 -105.780607  -1.876349 -1.675
 5752 1 -108.266041  -4.693691 -1.675
 5753 1 -109.489239  -3.972452 -1.675
 5754 1 -109.476227  -2.552511 -1.675
 5755 1 -108.240016  -1.853811 -1.675
 5756 1 -110.725450  -4.671153 -1.675
 5757 1 -111.948648  -3.949913 -1.675
 5758 1 -111.935636  -2.529973 -1.675
 5759 1 -110.699425  -1.831272 -1.675
 5760 1 -113.184859  -4.648614 -1.675
 5761 1 -114.408057  -3.927374 -1.675
 5762 1 -114.395044  -2.507434 -1.675
 5763 1 -113.158834  -1.808733 -1.675
 5764 1 -115.644268  -4.626075 -1.675
 5765 1 -115.618243  -1.786194 -1.675
 5766 1  115.579204  -2.484895 -1.675
 5767 1  114.356006  -1.763656 -1.675
 5768 1  114.369019  -0.343715 -1.675
 5769 1  115.605230   0.354986 -1.675
 5770 1  113.119795  -2.462356 -1.675
 5771 1  111.896597  -1.741117 -1.675
 5772 1  111.909610  -0.321177 -1.675
 5773 1  113.145821   0.377524 -1.675
 5774 1  110.660387  -2.439818 -1.675
 5775 1  109.437188  -1.718578 -1.675
 5776 1  109.450201  -0.298638 -1.675
 5777 1  110.686412   0.400063 -1.675
 5778 1  108.200978  -2.417279 -1.675
 5779 1  106.977780  -1.696039 -1.675
 5780 1  106.990792  -0.276099 -1.675
 5781 1  108.227003   0.422602 -1.675
 5782 1  105.741569  -2.394740 -1.675
 5783 1  104.518371  -1.673501 -1.675
 5784 1  104.531383  -0.253560 -1.675
 5785 1  105.767594   0.445141 -1.675
 5786 1  103.282160  -2.372202 -1.675
 5787 1  102.058962  -1.650962 -1.675
 5788 1  102.071975  -0.231022 -1.675
 5789 1  103.308185   0.467679 -1.675
 5790 1  100.822751  -2.349663 -1.675
 5791 1   99.599553  -1.628423 -1.675
 5792 1   99.612566  -0.208483 -1.675
 5793 1  100.848777   0.490218 -1.675
 5794 1   98.363342  -2.327124 -1.675
 5795 1   97.140144  -1.605884 -1.675
 5796 1   97.153157  -0.185944 -1.675
 5797 1   98.389368   0.512757 -1.675
 5798 1   95.903933  -2.304585 -1.675
 5799 1   94.680735  -1.583346 -1.675
 5800 1   94.693748  -0.163405 -1.675
 5801 1   95.929959   0.535295 -1.675
 5802 1   93.444524  -2.282047 -1.675
 5803 1   92.221326  -1.560807 -1.675
 5804 1   92.234339  -0.140867 -1.675
 5805 1   93.470550   0.557834 -1.675
 5806 1   90.985116  -2.259508 -1.675
 5807 1   89.761917  -1.538268 -1.675
 5808 1   89.774930  -0.118328 -1.675
 5809 1   91.011141   0.580373 -1.675
 5810 1   88.525707  -2.236969 -1.675
 5811 1   87.302509  -1.515730 -1.675
 5812 1   87.315521  -0.095789 -1.675
 5813 1   88.551732   0.602912 -1.675
 5814 1   86.066298  -2.214430 -1.675
 5815 1   84.843100  -1.493191 -1.675
 5816 1   84.856112  -0.073250 -1.675
 5817 1   86.092323   0.625450 -1.675
 5818 1   83.606889  -2.191892 -1.675
 5819 1   82.383691  -1.470652 -1.675
 5820 1   82.396704  -0.050712 -1.675
 5821 1   83.632914   0.647989 -1.675
 5822 1   81.147480  -2.169353 -1.675
 5823 1   79.924282  -1.448113 -1.675
 5824 1   79.937295  -0.028173 -1.675
 5825 1   81.173506   0.670528 -1.675
 5826 1   78.688071  -2.146814 -1.675
 5827 1   77.464873  -1.425575 -1.675
 5828 1   77.477886  -0.005634 -1.675
 5829 1   78.714097   0.693067 -1.675
 5830 1   76.228662  -2.124275 -1.675
 5831 1   75.005464  -1.403036 -1.675
 5832 1   75.018477   0.016905 -1.675
 5833 1   76.254688   0.715605 -1.675
 5834 1   73.769253  -2.101737 -1.675
 5835 1   72.546055  -1.380497 -1.675
 5836 1   72.559068   0.039443 -1.675
 5837 1   73.795279   0.738144 -1.675
 5838 1   71.309845  -2.079198 -1.675
 5839 1   70.086647  -1.357958 -1.675
 5840 1   70.099659   0.061982 -1.675
 5841 1   71.335870   0.760683 -1.675
 5842 1   68.850436  -2.056659 -1.675
 5843 1   67.627238  -1.335420 -1.675
 5844 1   67.640250   0.084521 -1.675
 5845 1   68.876461   0.783222 -1.675
 5846 1   66.391027  -2.034120 -1.675
 5847 1   65.167829  -1.312881 -1.675
 5848 1   65.180842   0.107059 -1.675
 5849 1   66.417052   0.805760 -1.675
 5850 1   63.931618  -2.011582 -1.675
 5851 1   62.708420  -1.290342 -1.675
 5852 1   62.721433   0.129598 -1.675
 5853 1   63.957643   0.828299 -1.675
 5854 1   61.472209  -1.989043 -1.675
 5855 1   60.249011  -1.267803 -1.675
 5856 1   60.262024   0.152137 -1.675
 5857 1   61.498235   0.850838 -1.675
 5858 1   59.012800  -1.966504 -1.675
 5859 1   57.789602  -1.245265 -1.675
 5860 1   57.802615   0.174676 -1.675
 5861 1   59.038826   0.873376 -1.675
 5862 1   56.553391  -1.943966 -1.675
 5863 1   55.330193  -1.222726 -1.675
 5864 1   55.343206   0.197214 -1.675
 5865 1   56.579417   0.895915 -1.675
 5866 1   54.093982  -1.921427 -1.675
 5867 1   52.870784  -1.200187 -1.675
 5868 1   52.883797   0.219753 -1.675
 5869 1   54.120008   0.918454 -1.675
 5870 1   51.634574  -1.898888 -1.675
 5871 1   50.411376  -1.177648 -1.675
 5872 1   50.424388   0.242292 -1.675
 5873 1   51.660599   0.940993 -1.675
 5874 1   49.175165  -1.876349 -1.675
 5875 1   47.951967  -1.155110 -1.675
 5876 1   47.964979   0.264831 -1.675
 5877 1   49.201190   0.963531 -1.675
 5878 1   46.715756  -1.853811 -1.675
 5879 1   45.492558  -1.132571 -1.675
 5880 1   45.505571   0.287369 -1.675
 5881 1   46.741781   0.986070 -1.675
 5882 1   44.256347  -1.831272 -1.675
 5883 1   43.033149  -1.110032 -1.675
 5884 1   43.046162   0.309908 -1.675
 5885 1   44.282372   1.008609 -1.675
 5886 1   41.796938  -1.808733 -1.675
 5887 1   40.573740  -1.087494 -1.675
 5888 1   40.586753   0.332447 -1.675
 5889 1   41.822964   1.031148 -1.675
 5890 1   39.337529  -1.786194 -1.675
 5891 1   38.114331  -1.064955 -1.675
 5892 1   38.127344   0.354986 -1.675
 5893 1   39.363555   1.053686 -1.675
 5894 1   36.878120  -1.763656 -1.675
 5895 1   35.654922  -1.042416 -1.675
 5896 1   35.667935   0.377524 -1.675
 5897 1   36.904146   1.076225 -1.675
 5898 1   34.418711  -1.741117 -1.675
 5899 1   33.195513  -1.019877 -1.675
 5900 1   33.208526   0.400063 -1.675
 5901 1   34.444737   1.098764 -1.675
 5902 1   31.959303  -1.718578 -1.675
 5903 1   30.736105  -0.997339 -1.675
 5904 1   30.749117   0.422602 -1.675
 5905 1   31.985328   1.121303 -1.675
 5906 1   29.499894  -1.696039 -1.675
 5907 1   28.276696  -0.974800 -1.675
 5908 1   28.289708   0.445141 -1.675
 5909 1   29.525919   1.143841 -1.675
 5910 1   27.040485  -1.673501 -1.675
 5911 1   25.817287  -0.952261 -1.675
 5912 1   25.830300   0.467679 -1.675
 5913 1   27.066510   1.166380 -1.675
 5914 1   24.581076  -1.650962 -1.675
 5915 1   23.357878  -0.929722 -1.675
 5916 1   23.370891   0.490218 -1.675
 5917 1   24.607101   1.188919 -1.675
 5918 1   22.121667  -1.628423 -1.675
 5919 1   20.898469  -0.907184 -1.675
 5920 1   20.911482   0.512757 -1.675
 5921 1   22.147693   1.211458 -1.675
 5922 1   19.662258  -1.605884 -1.675
 5923 1   18.439060  -0.884645 -1.675
 5924 1   18.452073   0.535295 -1.675
 5925 1   19.688284   1.233996 -1.675
 5926 1   17.202849  -1.583346 -1.675
 5927 1   15.979651  -0.862106 -1.675
 5928 1   15.992664   0.557834 -1.675
 5929 1   17.228875   1.256535 -1.675
 5930 1   14.743440  -1.560807 -1.675
 5931 1   13.520242  -0.839567 -1.675
 5932 1   13.533255   0.580373 -1.675
 5933 1   14.769466   1.279074 -1.675
 5934 1   12.284032  -1.538268 -1.675
 5935 1   11.060834  -0.817029 -1.675
 5936 1   11.073846   0.602912 -1.675
 5937 1   12.310057   1.301612 -1.675
 5938 1    9.824623  -1.515730 -1.675
 5939 1    8.601425  -0.794490 -1.675
 5940 1    8.614437   0.625450 -1.675
 5941 1    9.850648   1.324151 -1.675
 5942 1    7.365214  -1.493191 -1.675
 5943 1    6.142016  -0.771951 -1.675
 5944 1    6.155029   0.647989 -1.675
 5945 1    7.391239   1.346690 -1.675
 5946 1    4.905805  -1.470652 -1.675
 5947 1    3.682607  -0.749413 -1.675
 5948 1    3.695620   0.670528 -1.675
 5949 1    4.931830   1.369229 -1.675
 5950 1    2.446396  -1.448113 -1.675
 5951 1    1.223198  -0.726874 -1.675
 5952 1    1.236211   0.693067 -1.675
 5953 1    2.472422   1.391767 -1.675
 5954 1   -0.013013  -1.425575 -1.675
 5955 1   -1.236211  -0.704335 -1.675
 5956 1   -1.223198   0.715605 -1.675
 5957 1    0.013013   1.414306 -1.675
 5958 1   -2.472422  -1.403036 -1.675
 5959 1   -3.695620  -0.681796 -1.675
 5960 1   -3.682607   0.738144 -1.675
 5961 1   -2.446396   1.436845 -1.675
 5962 1   -4.931830  -1.380497 -1.675
 5963 1   -6.155029  -0.659258 -1.675
 5964 1   -6.142016   0.760683 -1.675
 5965 1   -4.905805   1.459384 -1.675
 5966 1   -7.391239  -1.357958 -1.675
 5967 1   -8.614437  -0.636719 -1.675
 5968 1   -8.601425   0.783222 -1.675
 5969 1   -7.365214   1.481922 -1.675
 5970 1   -9.850648  -1.335420 -1.675
 5971 1  -11.073846  -0.614180 -1.675
 5972 1  -11.060834   0.805760 -1.675
 5973 1   -9.824623   1.504461 -1.675
 5974 1  -12.310057  -1.312881 -1.675
 5975 1  -13.533255  -0.591641 -1.675
 5976 1  -13.520242   0.828299 -1.675
 5977 1  -12.284032   1.527000 -1.675
 5978 1  -14.769466  -1.290342 -1.675
 5979 1  -15.992664  -0.569103 -1.675
 5980 1  -15.979651   0.850838 -1.675
 5981 1  -14.743440   1.549539 -1.675
 5982 1  -17.228875  -1.267803 -1.675
 5983 1  -18.452073  -0.546564 -1.675
 5984 1  -18.439060   0.873376 -1.675
 5985 1  -17.202849   1.572077 -1.675
 5986 1  -19.688284  -1.245265 -1.675
 5987 1  -20.911482  -0.524025 -1.675
 5988 1  -20.898469   0.895915 -1.675
 5989 1  -19.662258   1.594616 -1.675
 5990 1  -22.147693  -1.222726 -1.675
 5991 1  -23.370891  -0.501486 -1.675
 5992 1  -23.357878   0.918454 -1.675
 5993 1  -22.121667   1.617155 -1.675
 5994 1  -24.607101  -1.200187 -1.675
 5995 1  -25.830300  -0.478948 -1.675
 5996 1  -25.817287   0.940993 -1.675
 5997 1  -24.581076   1.639694 -1.675
 5998 1  -27.066510  -1.177648 -1.675
 5999 1  -28.289708  -0.456409 -1.675
 6000 1  -28.276696   0.963531 -1.675
 6001 1  -27.040485   1.662232 -1.675
 6002 1  -29.525919  -1.155110 -1.675
 6003 1  -30.749117  -0.433870 -1.675
 6004 1  -30.736105   0.986070 -1.675
 6005 1  -29.499894   1.684771 -1.675
 6006 1  -31.985328  -1.132571 -1.675
 6007 1  -33.208526  -0.411331 -1.675
 6008 1  -33.195513   1.008609 -1.675
 6009 1  -31.959303   1.707310 -1.675
 6010 1  -34.444737  -1.110032 -1.675
 6011 1  -35.667935  -0.388793 -1.675
 6012 1  -35.654922   1.031148 -1.675
 6013 1  -34.418711   1.729848 -1.675
 6014 1  -36.904146  -1.087494 -1.675
 6015 1  -38.127344  -0.366254 -1.675
 6016 1  -38.114331   1.053686 -1.675
 6017 1  -36.878120   1.752387 -1.675
 6018 1  -39.363555  -1.064955 -1.675
 6019 1  -40.586753  -0.343715 -1.675
 6020 1  -40.573740   1.076225 -1.675
 6021 1  -39.337529   1.774926 -1.675
 6022 1  -41.822964  -1.042416 -1.675
 6023 1  -43.046162  -0.321177 -1.675
 6024 1  -43.033149   1.098764 -1.675
 6025 1  -41.796938   1.797465 -1.675
 6026 1  -44.282372  -1.019877 -1.675
 6027 1  -45.505571  -0.298638 -1.675
 6028 1  -45.492558   1.121303 -1.675
 6029 1  -44.256347   1.820003 -1.675
 6030 1  -46.741781  -0.997339 -1.675
 6031 1  -47.964979  -0.276099 -1.675
 6032 1  -47.951967   1.143841 -1.675
 6033 1  -46.715756   1.842542 -1.675
 6034 1  -49.201190  -0.974800 -1.675
 6035 1  -50.424388  -0.253560 -1.675
 6036 1  -50.411376   1.166380 -1.675
 6037 1  -49.175165   1.865081 -1.675
 6038 1  -51.660599  -0.952261 -1.675
 6039 1  -52.883797  -0.231022 -1.675
 6040 1  -52.870784   1.188919 -1.675
 6041 1  -51.634574   1.887620 -1.675
 6042 1  -54.120008  -0.929722 -1.675
 6043 1  -55.343206  -0.208483 -1.675
 6044 1  -55.330193   1.211458 -1.675
 6045 1  -54.093982   1.910158 -1.675
 6046 1  -56.579417  -0.907184 -1.675
 6047 1  -57.802615  -0.185944 -1.675
 6048 1  -57.789602   1.233996 -1.675
 6049 1  -56.553391   1.932697 -1.675
 6050 1  -59.038826  -0.884645 -1.675
 6051 1  -60.262024  -0.163405 -1.675
 6052 1  -60.249011   1.256535 -1.675
 6053 1  -59.012800   1.955236 -1.675
 6054 1  -61.498235  -0.862106 -1.675
 6055 1  -62.721433  -0.140867 -1.675
 6056 1  -62.708420   1.279074 -1.675
 6057 1  -61.472209   1.977775 -1.675
 6058 1  -63.957643  -0.839567 -1.675
 6059 1  -65.180842  -0.118328 -1.675
 6060 1  -65.167829   1.301612 -1.675
 6061 1  -63.931618   2.000313 -1.675
 6062 1  -66.417052  -0.817029 -1.675
 6063 1  -67.640250  -0.095789 -1.675
 6064 1  -67.627238   1.324151 -1.675
 6065 1  -66.391027   2.022852 -1.675
 6066 1  -68.876461  -0.794490 -1.675
 6067 1  -70.099659  -0.073250 -1.675
 6068 1  -70.086647   1.346690 -1.675
 6069 1  -68.850436   2.045391 -1.675
 6070 1  -71.335870  -0.771951 -1.675
 6071 1  -72.559068  -0.050712 -1.675
 6072 1  -72.546055   1.369229 -1.675
 6073 1  -71.309845   2.067930 -1.675
 6074 1  -73.795279  -0.749413 -1.675
 6075 1  -75.018477  -0.028173 -1.675
 6076 1  -75.005464   1.391767 -1.675
 6077 1  -73.769253   2.090468 -1.675
 6078 1  -76.254688  -0.726874 -1.675
 6079 1  -77.477886  -0.005634 -1.675
 6080 1  -77.464873   1.414306 -1.675
 6081 1  -76.228662   2.113007 -1.675
 6082 1  -78.714097  -0.704335 -1.675
 6083 1  -79.937295   0.016905 -1.675
 6084 1  -79.924282   1.436845 -1.675
 6085 1  -78.688071   2.135546 -1.675
 6086 1  -81.173506  -0.681796 -1.675
 6087 1  -82.396704   0.039443 -1.675
 6088 1  -82.383691   1.459384 -1.675
 6089 1  -81.147480   2.158084 -1.675
 6090 1  -83.632914  -0.659258 -1.675
 6091 1  -84.856112   0.061982 -1.675
 6092 1  -84.843100   1.481922 -1.675
 6093 1  -83.606889   2.180623 -1.675
 6094 1  -86.092323  -0.636719 -1.675
 6095 1  -87.315521   0.084521 -1.675
 6096 1  -87.302509   1.504461 -1.675
 6097 1  -86.066298   2.203162 -1.675
 6098 1  -88.551732  -0.614180 -1.675
 6099 1  -89.774930   0.107059 -1.675
 6100 1  -89.761917   1.527000 -1.675
 6101 1  -88.525707   2.225701 -1.675
 6102 1  -91.011141  -0.591641 -1.675
 6103 1  -92.234339   0.129598 -1.675
 6104 1  -92.221326   1.549539 -1.675
 6105 1  -90.985116   2.248239 -1.675
 6106 1  -93.470550  -0.569103 -1.675
 6107 1  -94.693748   0.152137 -1.675
 6108 1  -94.680735   1.572077 -1.675
 6109 1  -93.444524   2.270778 -1.675
 6110 1  -95.929959  -0.546564 -1.675
 6111 1  -97.153157   0.174676 -1.675
 6112 1  -97.140144   1.594616 -1.675
 6113 1  -95.903933   2.293317 -1.675
 6114 1  -98.389368  -0.524025 -1.675
 6115 1  -99.612566   0.197214 -1.675
 6116 1  -99.599553   1.617155 -1.675
 6117 1  -98.363342   2.315856 -1.675
 6118 1 -100.848777  -0.501486 -1.675
 6119 1 -102.071975   0.219753 -1.675
 6120 1 -102.058962   1.639694 -1.675
 6121 1 -100.822751   2.338394 -1.675
 6122 1 -103.308185  -0.478948 -1.675
 6123 1 -104.531383   0.242292 -1.675
 6124 1 -104.518371   1.662232 -1.675
 6125 1 -103.282160   2.360933 -1.675
 6126 1 -105.767594  -0.456409 -1.675
 6127 1 -106.990792   0.264831 -1.675
 6128 1 -106.977780   1.684771 -1.675
 6129 1 -105.741569   2.383472 -1.675
 6130 1 -108.227003  -0.433870 -1.675
 6131 1 -109.450201   0.287369 -1.675
 6132 1 -109.437188   1.707310 -1.675
 6133 1 -108.200978   2.406011 -1.675
 6134 1 -110.686412  -0.411331 -1.675
 6135 1 -111.909610   0.309908 -1.675
 6136 1 -111.896597   1.729848 -1.675
 6137 1 -110.660387   2.428549 -1.675
 6138 1 -113.145821  -0.388793 -1.675
 6139 1 -114.369019   0.332447 -1.675
 6140 1 -114.356006   1.752387 -1.675
 6141 1 -113.119795   2.451088 -1.675
 6142 1 -115.605230  -0.366254 -1.675
 6143 1 -115.579204   2.473627 -1.675
 6144 1  115.618243   1.774926 -1.675
 6145 1  114.395044   2.496165 -1.675
 6146 1  114.408057   3.916106 -1.675
 6147 1  115.644268   4.614807 -1.675
 6148 1  113.158834   1.797465 -1.675
 6149 1  111.935636   2.518704 -1.675
 6150 1  111.948648   3.938645 -1.675
 6151 1  113.184859   4.637345 -1.675
 6152 1  110.699425   1.820003 -1.675
 6153 1  109.476227   2.541243 -1.675
 6154 1  109.489239   3.961183 -1.675
 6155 1  110.725450   4.659884 -1.675
 6156 1  108.240016   1.842542 -1.675
 6157 1  107.016818   2.563782 -1.675
 6158 1  107.029831   3.983722 -1.675
 6159 1  108.266041   4.682423 -1.675
 6160 1  105.780607   1.865081 -1.675
 6161 1  104.557409   2.586320 -1.675
 6162 1  104.570422   4.006261 -1.675
 6163 1  105.806633   4.704962 -1.675
 6164 1  103.321198   1.887620 -1.675
 6165 1  102.098000   2.608859 -1.675
 6166 1  102.111013   4.028800 -1.675
 6167 1  103.347224   4.727500 -1.675
 6168 1  100.861789   1.910158 -1.675
 6169 1   99.638591   2.631398 -1.675
 6170 1   99.651604   4.051338 -1.675
 6171 1  100.887815   4.750039 -1.675
 6172 1   98.402380   1.932697 -1.675
 6173 1   97.179182   2.653937 -1.675
 6174 1   97.192195   4.073877 -1.675
 6175 1   98.428406   4.772578 -1.675
 6176 1   95.942972   1.955236 -1.675
 6177 1   94.719773   2.676475 -1.675
 6178 1   94.732786   4.096416 -1.675
 6179 1   95.968997   4.795117 -1.675
 6180 1   93.483563   1.977775 -1.675
 6181 1   92.260365   2.699014 -1.675
 6182 1   92.273377   4.118954 -1.675
 6183 1   93.509588   4.817655 -1.675
 6184 1   91.024154   2.000313 -1.675
 6185 1   89.800956   2.721553 -1.675
 6186 1   89.813968   4.141493 -1.675
 6187 1   91.050179   4.840194 -1.675
 6188 1   88.564745   2.022852 -1.675
 6189 1   87.341547   2.744092 -1.675
 6190 1   87.354560   4.164032 -1.675
 6191 1   88.590770   4.862733 -1.675
 6192 1   86.105336   2.045391 -1.675
 6193 1   84.882138   2.766630 -1.675
 6194 1   84.895151   4.186571 -1.675
 6195 1   86.131362   4.885272 -1.675
 6196 1   83.645927   2.067930 -1.675
 6197 1   82.422729   2.789169 -1.675
 6198 1   82.435742   4.209109 -1.675
 6199 1   83.671953   4.907810 -1.675
 6200 1   81.186518   2.090468 -1.675
 6201 1   79.963320   2.811708 -1.675
 6202 1   79.976333   4.231648 -1.675
 6203 1   81.212544   4.930349 -1.675
 6204 1   78.727109   2.113007 -1.675
 6205 1   77.503911   2.834247 -1.675
 6206 1   77.516924   4.254187 -1.675
 6207 1   78.753135   4.952888 -1.675
 6208 1   76.267701   2.135546 -1.675
 6209 1   75.044502   2.856785 -1.675
 6210 1   75.057515   4.276726 -1.675
 6211 1   76.293726   4.975426 -1.675
 6212 1   73.808292   2.158084 -1.675
 6213 1   72.585094   2.879324 -1.675
 6214 1   72.598106   4.299264 -1.675
 6215 1   73.834317   4.997965 -1.675
 6216 1   71.348883   2.180623 -1.675
 6217 1   70.125685   2.901863 -1.675
 6218 1   70.138697   4.321803 -1.675
 6219 1   71.374908   5.020504 -1.675
 6220 1   68.889474   2.203162 -1.675
 6221 1   67.666276   2.924401 -1.675
 6222 1   67.679289   4.344342 -1.675
 6223 1   68.915499   5.043043 -1.675
 6224 1   66.430065   2.225701 -1.675
 6225 1   65.206867   2.946940 -1.675
 6226 1   65.219880   4.366881 -1.675
 6227 1   66.456091   5.065581 -1.675
 6228 1   63.970656   2.248239 -1.675
 6229 1   62.747458   2.969479 -1.675
 6230 1   62.760471   4.389419 -1.675
 6231 1   63.996682   5.088120 -1.675
 6232 1   61.511247   2.270778 -1.675
 6233 1   60.288049   2.992018 -1.675
 6234 1   60.301062   4.411958 -1.675
 6235 1   61.537273   5.110659 -1.675
 6236 1   59.051838   2.293317 -1.675
 6237 1   57.828640   3.014556 -1.675
 6238 1   57.841653   4.434497 -1.675
 6239 1   59.077864   5.133198 -1.675
 6240 1   56.592430   2.315856 -1.675
 6241 1   55.369232   3.037095 -1.675
 6242 1   55.382244   4.457036 -1.675
 6243 1   56.618455   5.155736 -1.675
 6244 1   54.133021   2.338394 -1.675
 6245 1   52.909823   3.059634 -1.675
 6246 1   52.922835   4.479574 -1.675
 6247 1   54.159046   5.178275 -1.675
 6248 1   51.673612   2.360933 -1.675
 6249 1   50.450414   3.082173 -1.675
 6250 1   50.463427   4.502113 -1.675
 6251 1   51.699637   5.200814 -1.675
 6252 1   49.214203   2.383472 -1.675
 6253 1   47.991005   3.104711 -1.675
 6254 1   48.004018   4.524652 -1.675
 6255 1   49.240228   5.223353 -1.675
 6256 1   46.754794   2.406011 -1.675
 6257 1   45.531596   3.127250 -1.675
 6258 1   45.544609   4.547190 -1.675
 6259 1   46.780820   5.245891 -1.675
 6260 1   44.295385   2.428549 -1.675
 6261 1   43.072187   3.149789 -1.675
 6262 1   43.085200   4.569729 -1.675
 6263 1   44.321411   5.268430 -1.675
 6264 1   41.835976   2.451088 -1.675
 6265 1   40.612778   3.172328 -1.675
 6266 1   40.625791   4.592268 -1.675
 6267 1   41.862002   5.290969 -1.675
 6268 1   39.376567   2.473627 -1.675
 6269 1   38.153369   3.194866 -1.675
 6270 1   38.166382   4.614807 -1.675
 6271 1   39.402593   5.313508 -1.675
 6272 1   36.917159   2.496165 -1.675
 6273 1   35.693961   3.217405 -1.675
 6274 1   35.706973   4.637345 -1.675
 6275 1   36.943184   5.336046 -1.675
 6276 1   34.457750   2.518704 -1.675
 6277 1   33.234552   3.239944 -1.675
 6278 1   33.247564   4.659884 -1.675
 6279 1   34.483775   5.358585 -1.675
 6280 1   31.998341   2.541243 -1.675
 6281 1   30.775143   3.262483 -1.675
 6282 1   30.788156   4.682423 -1.675
 6283 1   32.024366   5.381124 -1.675
 6284 1   29.538932   2.563782 -1.675
 6285 1   28.315734   3.285021 -1.675
 6286 1   28.328747   4.704962 -1.675
 6287 1   29.564957   5.403662 -1.675
 6288 1   27.079523   2.586320 -1.675
 6289 1   25.856325   3.307560 -1.675
 6290 1   25.869338   4.727500 -1.675
 6291 1   27.105549   5.426201 -1.675
 6292 1   24.620114   2.608859 -1.675
 6293 1   23.396916   3.330099 -1.675
 6294 1   23.409929   4.750039 -1.675
 6295 1   24.646140   5.448740 -1.675
 6296 1   22.160705   2.631398 -1.675
 6297 1   20.937507   3.352637 -1.675
 6298 1   20.950520   4.772578 -1.675
 6299 1   22.186731   5.471279 -1.675
 6300 1   19.701296   2.653937 -1.675
 6301 1   18.478098   3.375176 -1.675
 6302 1   18.491111   4.795117 -1.675
 6303 1   19.727322   5.493817 -1.675
 6304 1   17.241888   2.676475 -1.675
 6305 1   16.018690   3.397715 -1.675
 6306 1   16.031702   4.817655 -1.675
 6307 1   17.267913   5.516356 -1.675
 6308 1   14.782479   2.699014 -1.675
 6309 1   13.559281   3.420254 -1.675
 6310 1   13.572293   4.840194 -1.675
 6311 1   14.808504   5.538895 -1.675
 6312 1   12.323070   2.721553 -1.675
 6313 1   11.099872   3.442792 -1.675
 6314 1   11.112885   4.862733 -1.675
 6315 1   12.349095   5.561434 -1.675
 6316 1    9.863661   2.744092 -1.675
 6317 1    8.640463   3.465331 -1.675
 6318 1    8.653476   4.885272 -1.675
 6319 1    9.889686   5.583972 -1.675
 6320 1    7.404252   2.766630 -1.675
 6321 1    6.181054   3.487870 -1.675
 6322 1    6.194067   4.907810 -1.675
 6323 1    7.430278   5.606511 -1.675
 6324 1    4.944843   2.789169 -1.675
 6325 1    3.721645   3.510409 -1.675
 6326 1    3.734658   4.930349 -1.675
 6327 1    4.970869   5.629050 -1.675
 6328 1    2.485434   2.811708 -1.675
 6329 1    1.262236   3.532947 -1.675
 6330 1    1.275249   4.952888 -1.675
 6331 1    2.511460   5.651589 -1.675
 6332 1    0.026025   2.834247 -1.675
 6333 1   -1.197173   3.555486 -1.675
 6334 1   -1.184160   4.975426 -1.675
 6335 1    0.052051   5.674127 -1.675
 6336 1   -2.433383   2.856785 -1.675
 6337 1   -3.656581   3.578025 -1.675
 6338 1   -3.643569   4.997965 -1.675
 6339 1   -2.407358   5.696666 -1.675
 6340 1   -4.892792   2.879324 -1.675
 6341 1   -6.115990   3.600564 -1.675
 6342 1   -6.102978   5.020504 -1.675
 6343 1   -4.866767   5.719205 -1.675
 6344 1   -7.352201   2.901863 -1.675
 6345 1   -8.575399   3.623102 -1.675
 6346 1   -8.562386   5.043043 -1.675
 6347 1   -7.326176   5.741743 -1.675
 6348 1   -9.811610   2.924401 -1.675
 6349 1  -11.034808   3.645641 -1.675
 6350 1  -11.021795   5.065581 -1.675
 6351 1   -9.785585   5.764282 -1.675
 6352 1  -12.271019   2.946940 -1.675
 6353 1  -13.494217   3.668180 -1.675
 6354 1  -13.481204   5.088120 -1.675
 6355 1  -12.244993   5.786821 -1.675
 6356 1  -14.730428   2.969479 -1.675
 6357 1  -15.953626   3.690719 -1.675
 6358 1  -15.940613   5.110659 -1.675
 6359 1  -14.704402   5.809360 -1.675
 6360 1  -17.189837   2.992018 -1.675
 6361 1  -18.413035   3.713257 -1.675
 6362 1  -18.400022   5.133198 -1.675
 6363 1  -17.163811   5.831898 -1.675
 6364 1  -19.649245   3.014556 -1.675
 6365 1  -20.872444   3.735796 -1.675
 6366 1  -20.859431   5.155736 -1.675
 6367 1  -19.623220   5.854437 -1.675
 6368 1  -22.108654   3.037095 -1.675
 6369 1  -23.331852   3.758335 -1.675
 6370 1  -23.318840   5.178275 -1.675
 6371 1  -22.082629   5.876976 -1.675
 6372 1  -24.568063   3.059634 -1.675
 6373 1  -25.791261   3.780873 -1.675
 6374 1  -25.778249   5.200814 -1.675
 6375 1  -24.542038   5.899515 -1.675
 6376 1  -27.027472   3.082173 -1.675
 6377 1  -28.250670   3.803412 -1.675
 6378 1  -28.237657   5.223353 -1.675
 6379 1  -27.001447   5.922053 -1.675
 6380 1  -29.486881   3.104711 -1.675
 6381 1  -30.710079   3.825951 -1.675
 6382 1  -30.697066   5.245891 -1.675
 6383 1  -29.460855   5.944592 -1.675
 6384 1  -31.946290   3.127250 -1.675
 6385 1  -33.169488   3.848490 -1.675
 6386 1  -33.156475   5.268430 -1.675
 6387 1  -31.920264   5.967131 -1.675
 6388 1  -34.405699   3.149789 -1.675
 6389 1  -35.628897   3.871028 -1.675
 6390 1  -35.615884   5.290969 -1.675
 6391 1  -34.379673   5.989670 -1.675
 6392 1  -36.865108   3.172328 -1.675
 6393 1  -38.088306   3.893567 -1.675
 6394 1  -38.075293   5.313508 -1.675
 6395 1  -36.839082   6.012208 -1.675
 6396 1  -39.324516   3.194866 -1.675
 6397 1  -40.547715   3.916106 -1.675
 6398 1  -40.534702   5.336046 -1.675
 6399 1  -39.298491   6.034747 -1.675
 6400 1  -41.783925   3.217405 -1.675
 6401 1  -43.007123   3.938645 -1.675
 6402 1  -42.994111   5.358585 -1.675
 6403 1  -41.757900   6.057286 -1.675
 6404 1  -44.243334   3.239944 -1.675
 6405 1  -45.466532   3.961183 -1.675
 6406 1  -45.453520   5.381124 -1.675
 6407 1  -44.217309   6.079825 -1.675
 6408 1  -46.702743   3.262483 -1.675
 6409 1  -47.925941   3.983722 -1.675
 6410 1  -47.912928   5.403662 -1.675
 6411 1  -46.676718   6.102363 -1.675
 6412 1  -49.162152   3.285021 -1.675
 6413 1  -50.385350   4.006261 -1.675
 6414 1  -50.372337   5.426201 -1.675
 6415 1  -49.136126   6.124902 -1.675
 6416 1  -51.621561   3.307560 -1.675
 6417 1  -52.844759   4.028800 -1.675
 6418 1  -52.831746   5.448740 -1.675
 6419 1  -51.595535   6.147441 -1.675
 6420 1  -54.080970   3.330099 -1.675
 6421 1  -55.304168   4.051338 -1.675
 6422 1  -55.291155   5.471279 -1.675
 6423 1  -54.054944   6.169979 -1.675
 6424 1  -56.540379   3.352637 -1.675
 6425 1  -57.763577   4.073877 -1.675
 6426 1  -57.750564   5.493817 -1.675
 6427 1  -56.514353   6.192518 -1.675
 6428 1  -58.999787   3.375176 -1.675
 6429 1  -60.222986   4.096416 -1.675
 6430 1  -60.209973   5.516356 -1.675
 6431 1  -58.973762   6.215057 -1.675
 6432 1  -61.459196   3.397715 -1.675
 6433 1  -62.682394   4.118954 -1.675
 6434 1  -62.669382   5.538895 -1.675
 6435 1  -61.433171   6.237596 -1.675
 6436 1  -63.918605   3.420254 -1.675
 6437 1  -65.141803   4.141493 -1.675
 6438 1  -65.128791   5.561434 -1.675
 6439 1  -63.892580   6.260134 -1.675
 6440 1  -66.378014   3.442792 -1.675
 6441 1  -67.601212   4.164032 -1.675
 6442 1  -67.588199   5.583972 -1.675
 6443 1  -66.351989   6.282673 -1.675
 6444 1  -68.837423   3.465331 -1.675
 6445 1  -70.060621   4.186571 -1.675
 6446 1  -70.047608   5.606511 -1.675
 6447 1  -68.811397   6.305212 -1.675
 6448 1  -71.296832   3.487870 -1.675
 6449 1  -72.520030   4.209109 -1.675
 6450 1  -72.507017   5.629050 -1.675
 6451 1  -71.270806   6.327751 -1.675
 6452 1  -73.756241   3.510409 -1.675
 6453 1  -74.979439   4.231648 -1.675
 6454 1  -74.966426   5.651589 -1.675
 6455 1  -73.730215   6.350289 -1.675
 6456 1  -76.215650   3.532947 -1.675
 6457 1  -77.438848   4.254187 -1.675
 6458 1  -77.425835   5.674127 -1.675
 6459 1  -76.189624   6.372828 -1.675
 6460 1  -78.675058   3.555486 -1.675
 6461 1  -79.898257   4.276726 -1.675
 6462 1  -79.885244   5.696666 -1.675
 6463 1  -78.649033   6.395367 -1.675
 6464 1  -81.134467   3.578025 -1.675
 6465 1  -82.357665   4.299264 -1.675
 6466 1  -82.344653   5.719205 -1.675
 6467 1  -81.108442   6.417906 -1.675
 6468 1  -83.593876   3.600564 -1.675
 6469 1  -84.817074   4.321803 -1.675
 6470 1  -84.804062   5.741743 -1.675
 6471 1  -83.567851   6.440444 -1.675
 6472 1  -86.053285   3.623102 -1.675
 6473 1  -87.276483   4.344342 -1.675
 6474 1  -87.263470   5.764282 -1.675
 6475 1  -86.027260   6.462983 -1.675
 6476 1  -88.512694   3.645641 -1.675
 6477 1  -89.735892   4.366881 -1.675
 6478 1  -89.722879   5.786821 -1.675
 6479 1  -88.486668   6.485522 -1.675
 6480 1  -90.972103   3.668180 -1.675
 6481 1  -92.195301   4.389419 -1.675
 6482 1  -92.182288   5.809360 -1.675
 6483 1  -90.946077   6.508061 -1.675
 6484 1  -93.431512   3.690719 -1.675
 6485 1  -94.654710   4.411958 -1.675
 6486 1  -94.641697   5.831898 -1.675
 6487 1  -93.405486   6.530599 -1.675
 6488 1  -95.890921   3.713257 -1.675
 6489 1  -97.114119   4.434497 -1.675
 6490 1  -97.101106   5.854437 -1.675
 6491 1  -95.864895   6.553138 -1.675
 6492 1  -98.350329   3.735796 -1.675
 6493 1  -99.573527   4.457036 -1.675
 6494 1  -99.560515   5.876976 -1.675
 6495 1  -98.324304   6.575677 -1.675
 6496 1 -100.809738   3.758335 -1.675
 6497 1 -102.032936   4.479574 -1.675
 6498 1 -102.019924   5.899515 -1.675
 6499 1 -100.783713   6.598215 -1.675
 6500 1 -103.269147   3.780873 -1.675
 6501 1 -104.492345   4.502113 -1.675
 6502 1 -104.479333   5.922053 -1.675
 6503 1 -103.243122   6.620754 -1.675
 6504 1 -105.728556   3.803412 -1.675
 6505 1 -106.951754   4.524652 -1.675
 6506 1 -106.938741   5.944592 -1.675
 6507 1 -105.702531   6.643293 -1.675
 6508 1 -108.187965   3.825951 -1.675
 6509 1 -109.411163   4.547190 -1.675
 6510 1 -109.398150   5.967131 -1.675
 6511 1 -108.161939   6.665832 -1.675
 6512 1 -110.647374   3.848490 -1.675
 6513 1 -111.870572   4.569729 -1.675
 6514 1 -111.857559   5.989670 -1.675
 6515 1 -110.621348   6.688370 -1.675
 6516 1 -113.106783   3.871028 -1.675
 6517 1 -114.329981   4.592268 -1.675
 6518 1 -114.316968   6.012208 -1.675
 6519 1 -113.080757   6.710909 -1.675
 6520 1 -115.566192   3.893567 -1.675
 6521 1 -115.540166   6.733448 -1.675
 6522 1  115.657281   6.034747 -1.675
 6523 1  114.434083   6.755987 -1.675
 6524 1  114.447095   8.175927 -1.675
 6525 1  115.683306   8.874628 -1.675
 6526 1  113.197872   6.057286 -1.675
 6527 1  111.974674   6.778525 -1.675
 6528 1  111.987687   8.198466 -1.675
 6529 1  113.223897   8.897167 -1.675
 6530 1  110.738463   6.079825 -1.675
 6531 1  109.515265   6.801064 -1.675
 6532 1  109.528278   8.221004 -1.675
 6533 1  110.764489   8.919705 -1.675
 6534 1  108.279054   6.102363 -1.675
 6535 1  107.055856   6.823603 -1.675
 6536 1  107.068869   8.243543 -1.675
 6537 1  108.305080   8.942244 -1.675
 6538 1  105.819645   6.124902 -1.675
 6539 1  104.596447   6.846142 -1.675
 6540 1  104.609460   8.266082 -1.675
 6541 1  105.845671   8.964783 -1.675
 6542 1  103.360236   6.147441 -1.675
 6543 1  102.137038   6.868680 -1.675
 6544 1  102.150051   8.288621 -1.675
 6545 1  103.386262   8.987321 -1.675
 6546 1  100.900828   6.169979 -1.675
 6547 1   99.677629   6.891219 -1.675
 6548 1   99.690642   8.311159 -1.675
 6549 1  100.926853   9.009860 -1.675
 6550 1   98.441419   6.192518 -1.675
 6551 1   97.218221   6.913758 -1.675
 6552 1   97.231233   8.333698 -1.675
 6553 1   98.467444   9.032399 -1.675
 6554 1   95.982010   6.215057 -1.675
 6555 1   94.758812   6.936297 -1.675
 6556 1   94.771824   8.356237 -1.675
 6557 1   96.008035   9.054938 -1.675
 6558 1   93.522601   6.237596 -1.675
 6559 1   92.299403   6.958835 -1.675
 6560 1   92.312416   8.378776 -1.675
 6561 1   93.548626   9.077476 -1.675
 6562 1   91.063192   6.260134 -1.675
 6563 1   89.839994   6.981374 -1.675
 6564 1   89.853007   8.401314 -1.675
 6565 1   91.089218   9.100015 -1.675
 6566 1   88.603783   6.282673 -1.675
 6567 1   87.380585   7.003913 -1.675
 6568 1   87.393598   8.423853 -1.675
 6569 1   88.629809   9.122554 -1.675
 6570 1   86.144374   6.305212 -1.675
 6571 1   84.921176   7.026451 -1.675
 6572 1   84.934189   8.446392 -1.675
 6573 1   86.170400   9.145093 -1.675
 6574 1   83.684965   6.327751 -1.675
 6575 1   82.461767   7.048990 -1.675
 6576 1   82.474780   8.468931 -1.675
 6577 1   83.710991   9.167631 -1.675
 6578 1   81.225557   6.350289 -1.675
 6579 1   80.002358   7.071529 -1.675
 6580 1   80.015371   8.491469 -1.675
 6581 1   81.251582   9.190170 -1.675
 6582 1   78.766148   6.372828 -1.675
 6583 1   77.542950   7.094068 -1.675
 6584 1   77.555962   8.514008 -1.675
 6585 1   78.792173   9.212709 -1.675
 6586 1   76.306739   6.395367 -1.675
 6587 1   75.083541   7.116606 -1.675
 6588 1   75.096553   8.536547 -1.675
 6589 1   76.332764   9.235248 -1.675
 6590 1   73.847330   6.417906 -1.675
 6591 1   72.624132   7.139145 -1.675
 6592 1   72.637145   8.559086 -1.675
 6593 1   73.873355   9.257786 -1.675
 6594 1   71.387921   6.440444 -1.675
 6595 1   70.164723   7.161684 -1.675
 6596 1   70.177736   8.581624 -1.675
 6597 1   71.413947   9.280325 -1.675
 6598 1   68.928512   6.462983 -1.675
 6599 1   67.705314   7.184223 -1.675
 6600 1   67.718327   8.604163 -1.675
 6601 1   68.954538   9.302864 -1.675
 6602 1   66.469103   6.485522 -1.675
 6603 1   65.245905   7.206761 -1.675
 6604 1   65.258918   8.626702 -1.675
 6605 1   66.495129   9.325403 -1.675
 6606 1   64.009694   6.508061 -1.675
 6607 1   62.786496   7.229300 -1.675
 6608 1   62.799509   8.649240 -1.675
 6609 1   64.035720   9.347941 -1.675
 6610 1   61.550286   6.530599 -1.675
 6611 1   60.327087   7.251839 -1.675
 6612 1   60.340100   8.671779 -1.675
 6613 1   61.576311   9.370480 -1.675
 6614 1   59.090877   6.553138 -1.675
 6615 1   57.867679   7.274378 -1.675
 6616 1   57.880691   8.694318 -1.675
 6617 1   59.116902   9.393019 -1.675
 6618 1   56.631468   6.575677 -1.675
 6619 1   55.408270   7.296916 -1.675
 6620 1   55.421282   8.716857 -1.675
 6621 1   56.657493   9.415557 -1.675
 6622 1   54.172059   6.598215 -1.675
 6623 1   52.948861   7.319455 -1.675
 6624 1   52.961874   8.739395 -1.675
 6625 1   54.198084   9.438096 -1.675
 6626 1   51.712650   6.620754 -1.675
 6627 1   50.489452   7.341994 -1.675
 6628 1   50.502465   8.761934 -1.675
 6629 1   51.738676   9.460635 -1.675
 6630 1   49.253241   6.643293 -1.675
 6631 1   48.030043   7.364532 -1.675
 6632 1   48.043056   8.784473 -1.675
 6633 1   49.279267   9.483174 -1.675
 6634 1   46.793832   6.665832 -1.675
 6635 1   45.570634   7.387071 -1.675
 6636 1   45.583647   8.807012 -1.675
 6637 1   46.819858   9.505712 -1.675
 6638 1   44.334423   6.688370 -1.675
 6639 1   43.111225   7.409610 -1.675
 6640 1   43.124238   8.829550 -1.675
 6641 1   44.360449   9.528251 -1.675
 6642 1   41.875015   6.710909 -1.675
 6643 1   40.651817   7.432149 -1.675
 6644 1   40.664829   8.852089 -1.675
 6645 1   41.901040   9.550790 -1.675
 6646 1   39.415606   6.733448 -1.675
 6647 1   38.192408   7.454687 -1.675
 6648 1   38.205420   8.874628 -1.675
 6649 1   39.441631   9.573329 -1.675
 6650 1   36.956197   6.755987 -1.675
 6651 1   35.732999   7.477226 -1.675
 6652 1   35.746012   8.897167 -1.675
 6653 1   36.982222   9.595867 -1.675
 6654 1   34.496788   6.778525 -1.675
 6655 1   33.273590   7.499765 -1.675
 6656 1   33.286603   8.919705 -1.675
 6657 1   34.522813   9.618406 -1.675
 6658 1   32.037379   6.801064 -1.675
 6659 1   30.814181   7.522304 -1.675
 6660 1   30.827194   8.942244 -1.675
 6661 1   32.063405   9.640945 -1.675
 6662 1   29.577970   6.823603 -1.675
 6663 1   28.354772   7.544842 -1.675
 6664 1   28.367785   8.964783 -1.675
 6665 1   29.603996   9.663484 -1.675
 6666 1   27.118561   6.846142 -1.675
 6667 1   25.895363   7.567381 -1.675
 6668 1   25.908376   8.987321 -1.675
 6669 1   27.144587   9.686022 -1.675
 6670 1   24.659152   6.868680 -1.675
 6671 1   23.435954   7.589920 -1.675
 6672 1   23.448967   9.009860 -1.675
 6673 1   24.685178   9.708561 -1.675
 6674 1   22.199744   6.891219 -1.675
 6675 1   20.976546   7.612459 -1.675
 6676 1   20.989558   9.032399 -1.675
 6677 1   22.225769   9.731100 -1.675
 6678 1   19.740335   6.913758 -1.675
 6679 1   18.517137   7.634997 -1.675
 6680 1   18.530149   9.054938 -1.675
 6681 1   19.766360   9.753639 -1.675
 6682 1   17.280926   6.936297 -1.675
 6683 1   16.057728   7.657536 -1.675
 6684 1   16.070741   9.077476 -1.675
 6685 1   17.306951   9.776177 -1.675
 6686 1   14.821517   6.958835 -1.675
 6687 1   13.598319   7.680075 -1.675
 6688 1   13.611332   9.100015 -1.675
 6689 1   14.847542   9.798716 -1.675
 6690 1   12.362108   6.981374 -1.675
 6691 1   11.138910   7.702614 -1.675
 6692 1   11.151923   9.122554 -1.675
 6693 1   12.388134   9.821255 -1.675
 6694 1    9.902699   7.003913 -1.675
 6695 1    8.679501   7.725152 -1.675
 6696 1    8.692514   9.145093 -1.675
 6697 1    9.928725   9.843793 -1.675
 6698 1    7.443290   7.026451 -1.675
 6699 1    6.220092   7.747691 -1.675
 6700 1    6.233105   9.167631 -1.675
 6701 1    7.469316   9.866332 -1.675
 6702 1    4.983881   7.048990 -1.675
 6703 1    3.760683   7.770230 -1.675
 6704 1    3.773696   9.190170 -1.675
 6705 1    5.009907   9.888871 -1.675
 6706 1    2.524473   7.071529 -1.675
 6707 1    1.301275   7.792768 -1.675
 6708 1    1.314287   9.212709 -1.675
 6709 1    2.550498   9.911410 -1.675
 6710 1    0.065064   7.094068 -1.675
 6711 1   -1.158134   7.815307 -1.675
 6712 1   -1.145122   9.235248 -1.675
 6713 1    0.091089   9.933948 -1.675
 6714 1   -2.394345   7.116606 -1.675
 6715 1   -3.617543   7.837846 -1.675
 6716 1   -3.604530   9.257786 -1.675
 6717 1   -2.368320   9.956487 -1.675
 6718 1   -4.853754   7.139145 -1.675
 6719 1   -6.076952   7.860385 -1.675
 6720 1   -6.063939   9.280325 -1.675
 6721 1   -4.827729   9.979026 -1.675
 6722 1   -7.313163   7.161684 -1.675
 6723 1   -8.536361   7.882923 -1.675
 6724 1   -8.523348   9.302864 -1.675
 6725 1   -7.287137  10.001565 -1.675
 6726 1   -9.772572   7.184223 -1.675
 6727 1  -10.995770   7.905462 -1.675
 6728 1  -10.982757   9.325403 -1.675
 6729 1   -9.746546  10.024103 -1.675
 6730 1  -12.231981   7.206761 -1.675
 6731 1  -13.455179   7.928001 -1.675
 6732 1  -13.442166   9.347941 -1.675
 6733 1  -12.205955  10.046642 -1.675
 6734 1  -14.691390   7.229300 -1.675
 6735 1  -15.914588   7.950540 -1.675
 6736 1  -15.901575   9.370480 -1.675
 6737 1  -14.665364  10.069181 -1.675
 6738 1  -17.150798   7.251839 -1.675
 6739 1  -18.373996   7.973078 -1.675
 6740 1  -18.360984   9.393019 -1.675
 6741 1  -17.124773  10.091720 -1.675
 6742 1  -19.610207   7.274378 -1.675
 6743 1  -20.833405   7.995617 -1.675
 6744 1  -20.820393   9.415557 -1.675
 6745 1  -19.584182  10.114258 -1.675
 6746 1  -22.069616   7.296916 -1.675
 6747 1  -23.292814   8.018156 -1.675
 6748 1  -23.279801   9.438096 -1.675
 6749 1  -22.043591  10.136797 -1.675
 6750 1  -24.529025   7.319455 -1.675
 6751 1  -25.752223   8.040695 -1.675
 6752 1  -25.739210   9.460635 -1.675
 6753 1  -24.503000  10.159336 -1.675
 6754 1  -26.988434   7.341994 -1.675
 6755 1  -28.211632   8.063233 -1.675
 6756 1  -28.198619   9.483174 -1.675
 6757 1  -26.962408  10.181875 -1.675
 6758 1  -29.447843   7.364532 -1.675
 6759 1  -30.671041   8.085772 -1.675
 6760 1  -30.658028   9.505712 -1.675
 6761 1  -29.421817  10.204413 -1.675
 6762 1  -31.907252   7.387071 -1.675
 6763 1  -33.130450   8.108311 -1.675
 6764 1  -33.117437   9.528251 -1.675
 6765 1  -31.881226  10.226952 -1.675
 6766 1  -34.366660   7.409610 -1.675
 6767 1  -35.589859   8.130850 -1.675
 6768 1  -35.576846   9.550790 -1.675
 6769 1  -34.340635  10.249491 -1.675
 6770 1  -36.826069   7.432149 -1.675
 6771 1  -38.049267   8.153388 -1.675
 6772 1  -38.036255   9.573329 -1.675
 6773 1  -36.800044  10.272029 -1.675
 6774 1  -39.285478   7.454687 -1.675
 6775 1  -40.508676   8.175927 -1.675
 6776 1  -40.495664   9.595867 -1.675
 6777 1  -39.259453  10.294568 -1.675
 6778 1  -41.744887   7.477226 -1.675
 6779 1  -42.968085   8.198466 -1.675
 6780 1  -42.955072   9.618406 -1.675
 6781 1  -41.718862  10.317107 -1.675
 6782 1  -44.204296   7.499765 -1.675
 6783 1  -45.427494   8.221004 -1.675
 6784 1  -45.414481   9.640945 -1.675
 6785 1  -44.178270  10.339646 -1.675
 6786 1  -46.663705   7.522304 -1.675
 6787 1  -47.886903   8.243543 -1.675
 6788 1  -47.873890   9.663484 -1.675
 6789 1  -46.637679  10.362184 -1.675
 6790 1  -49.123114   7.544842 -1.675
 6791 1  -50.346312   8.266082 -1.675
 6792 1  -50.333299   9.686022 -1.675
 6793 1  -49.097088  10.384723 -1.675
 6794 1  -51.582523   7.567381 -1.675
 6795 1  -52.805721   8.288621 -1.675
 6796 1  -52.792708   9.708561 -1.675
 6797 1  -51.556497  10.407262 -1.675
 6798 1  -54.041931   7.589920 -1.675
 6799 1  -55.265130   8.311159 -1.675
 6800 1  -55.252117   9.731100 -1.675
 6801 1  -54.015906  10.429801 -1.675
 6802 1  -56.501340   7.612459 -1.675
 6803 1  -57.724538   8.333698 -1.675
 6804 1  -57.711526   9.753639 -1.675
 6805 1  -56.475315  10.452339 -1.675
 6806 1  -58.960749   7.634997 -1.675
 6807 1  -60.183947   8.356237 -1.675
 6808 1  -60.170935   9.776177 -1.675
 6809 1  -58.934724  10.474878 -1.675
 6810 1  -61.420158   7.657536 -1.675
 6811 1  -62.643356   8.378776 -1.675
 6812 1  -62.630343   9.798716 -1.675
 6813 1  -61.394133  10.497417 -1.675
 6814 1  -63.879567   7.680075 -1.675
 6815 1  -65.102765   8.401314 -1.675
 6816 1  -65.089752   9.821255 -1.675
 6817 1  -63.853541  10.519956 -1.675
 6818 1  -66.338976   7.702614 -1.675
 6819 1  -67.562174   8.423853 -1.675
 6820 1  -67.549161   9.843793 -1.675
 6821 1  -66.312950  10.542494 -1.675
 6822 1  -68.798385   7.725152 -1.675
 6823 1  -70.021583   8.446392 -1.675
 6824 1  -70.008570   9.866332 -1.675
 6825 1  -68.772359  10.565033 -1.675
 6826 1  -71.257794   7.747691 -1.675
 6827 1  -72.480992   8.468931 -1.675
 6828 1  -72.467979   9.888871 -1.675
 6829 1  -71.231768  10.587572 -1.675
 6830 1  -73.717202   7.770230 -1.675
 6831 1  -74.940401   8.491469 -1.675
 6832 1  -74.927388   9.911410 -1.675
 6833 1  -73.691177  10.610110 -1.675
 6834 1  -76.176611   7.792768 -1.675
 6835 1  -77.399809   8.514008 -1.675
 6836 1  -77.386797   9.933948 -1.675
 6837 1  -76.150586  10.632649 -1.675
 6838 1  -78.636020   7.815307 -1.675
 6839 1  -79.859218   8.536547 -1.675
 6840 1  -79.846206   9.956487 -1.675
 6841 1  -78.609995  10.655188 -1.675
 6842 1  -81.095429   7.837846 -1.675
 6843 1  -82.318627   8.559086 -1.675
 6844 1  -82.305614   9.979026 -1.675
 6845 1  -81.069404  10.677727 -1.675
 6846 1  -83.554838   7.860385 -1.675
 6847 1  -84.778036   8.581624 -1.675
 6848 1  -84.765023  10.001565 -1.675
 6849 1  -83.528812  10.700265 -1.675
 6850 1  -86.014247   7.882923 -1.675
 6851 1  -87.237445   8.604163 -1.675
 6852 1  -87.224432  10.024103 -1.675
 6853 1  -85.988221  10.722804 -1.675
 6854 1  -88.473656   7.905462 -1.675
 6855 1  -89.696854   8.626702 -1.675
 6856 1  -89.683841  10.046642 -1.675
 6857 1  -88.447630  10.745343 -1.675
 6858 1  -90.933065   7.928001 -1.675
 6859 1  -92.156263   8.649240 -1.675
 6860 1  -92.143250  10.069181 -1.675
 6861 1  -90.907039  10.767882 -1.675
 6862 1  -93.392473   7.950540 -1.675
 6863 1  -94.615672   8.671779 -1.675
 6864 1  -94.602659  10.091720 -1.675
 6865 1  -93.366448  10.790420 -1.675
 6866 1  -95.851882   7.973078 -1.675
 6867 1  -97.075080   8.694318 -1.675
 6868 1  -97.062068  10.114258 -1.675
 6869 1  -95.825857  10.812959 -1.675
 6870 1  -98.311291   7.995617 -1.675
 6871 1  -99.534489   8.716857 -1.675
 6872 1  -99.521477  10.136797 -1.675
 6873 1  -98.285266  10.835498 -1.675
 6874 1 -100.770700   8.018156 -1.675
 6875 1 -101.993898   8.739395 -1.675
 6876 1 -101.980885  10.159336 -1.675
 6877 1 -100.744675  10.858037 -1.675
 6878 1 -103.230109   8.040695 -1.675
 6879 1 -104.453307   8.761934 -1.675
 6880 1 -104.440294  10.181875 -1.675
 6881 1 -103.204083  10.880575 -1.675
 6882 1 -105.689518   8.063233 -1.675
 6883 1 -106.912716   8.784473 -1.675
 6884 1 -106.899703  10.204413 -1.675
 6885 1 -105.663492  10.903114 -1.675
 6886 1 -108.148927   8.085772 -1.675
 6887 1 -109.372125   8.807012 -1.675
 6888 1 -109.359112  10.226952 -1.675
 6889 1 -108.122901  10.925653 -1.675
 6890 1 -110.608336   8.108311 -1.675
 6891 1 -111.831534   8.829550 -1.675
 6892 1 -111.818521  10.249491 -1.675
 6893 1 -110.582310  10.948192 -1.675
 6894 1 -113.067744   8.130850 -1.675
 6895 1 -114.290943   8.852089 -1.675
 6896 1 -114.277930  10.272029 -1.675
 6897 1 -113.041719  10.970730 -1.675
 6898 1 -115.527153   8.153388 -1.675
 6899 1 -115.501128  10.993269 -1.675
 6900 1  115.696319  10.294568 -1.675
 6901 1  114.473121  11.015808 -1.675
 6902 1  114.486134  12.435748 -1.675
 6903 1  115.722344  13.134449 -1.675
 6904 1  113.236910  10.317107 -1.675
 6905 1  112.013712  11.038346 -1.675
 6906 1  112.026725  12.458287 -1.675
 6907 1  113.262936  13.156988 -1.675
 6908 1  110.777501  10.339646 -1.675
 6909 1  109.554303  11.060885 -1.675
 6910 1  109.567316  12.480826 -1.675
 6911 1  110.803527  13.179526 -1.675
 6912 1  108.318092  10.362184 -1.675
 6913 1  107.094894  11.083424 -1.675
 6914 1  107.107907  12.503364 -1.675
 6915 1  108.344118  13.202065 -1.675
 6916 1  105.858684  10.384723 -1.675
 6917 1  104.635485  11.105963 -1.675
 6918 1  104.648498  12.525903 -1.675
 6919 1  105.884709  13.224604 -1.675
 6920 1  103.399275  10.407262 -1.675
 6921 1  102.176077  11.128501 -1.675
 6922 1  102.189089  12.548442 -1.675
 6923 1  103.425300  13.247143 -1.675
 6924 1  100.939866  10.429801 -1.675
 6925 1   99.716668  11.151040 -1.675
 6926 1   99.729680  12.570981 -1.675
 6927 1  100.965891  13.269681 -1.675
 6928 1   98.480457  10.452339 -1.675
 6929 1   97.257259  11.173579 -1.675
 6930 1   97.270272  12.593519 -1.675
 6931 1   98.506482  13.292220 -1.675
 6932 1   96.021048  10.474878 -1.675
 6933 1   94.797850  11.196118 -1.675
 6934 1   94.810863  12.616058 -1.675
 6935 1   96.047074  13.314759 -1.675
 6936 1   93.561639  10.497417 -1.675
 6937 1   92.338441  11.218656 -1.675
 6938 1   92.351454  12.638597 -1.675
 6939 1   93.587665  13.337298 -1.675
 6940 1   91.102230  10.519956 -1.675
 6941 1   89.879032  11.241195 -1.675
 6942 1   89.892045  12.661135 -1.675
 6943 1   91.128256  13.359836 -1.675
 6944 1   88.642821  10.542494 -1.675
 6945 1   87.419623  11.263734 -1.675
 6946 1   87.432636  12.683674 -1.675
 6947 1   88.668847  13.382375 -1.675
 6948 1   86.183413  10.565033 -1.675
 6949 1   84.960214  11.286273 -1.675
 6950 1   84.973227  12.706213 -1.675
 6951 1   86.209438  13.404914 -1.675
 6952 1   83.724004  10.587572 -1.675
 6953 1   82.500806  11.308811 -1.675
 6954 1   82.513818  12.728752 -1.675
 6955 1   83.750029  13.427453 -1.675
 6956 1   81.264595  10.610110 -1.675
 6957 1   80.041397  11.331350 -1.675
 6958 1   80.054409  12.751290 -1.675
 6959 1   81.290620  13.449991 -1.675
 6960 1   78.805186  10.632649 -1.675
 6961 1   77.581988  11.353889 -1.675
 6962 1   77.595001  12.773829 -1.675
 6963 1   78.831211  13.472530 -1.675
 6964 1   76.345777  10.655188 -1.675
 6965 1   75.122579  11.376428 -1.675
 6966 1   75.135592  12.796368 -1.675
 6967 1   76.371803  13.495069 -1.675
 6968 1   73.886368  10.677727 -1.675
 6969 1   72.663170  11.398966 -1.675
 6970 1   72.676183  12.818907 -1.675
 6971 1   73.912394  13.517607 -1.675
 6972 1   71.426959  10.700265 -1.675
 6973 1   70.203761  11.421505 -1.675
 6974 1   70.216774  12.841445 -1.675
 6975 1   71.452985  13.540146 -1.675
 6976 1   68.967550  10.722804 -1.675
 6977 1   67.744352  11.444044 -1.675
 6978 1   67.757365  12.863984 -1.675
 6979 1   68.993576  13.562685 -1.675
 6980 1   66.508142  10.745343 -1.675
 6981 1   65.284943  11.466582 -1.675
 6982 1   65.297956  12.886523 -1.675
 6983 1   66.534167  13.585224 -1.675
 6984 1   64.048733  10.767882 -1.675
 6985 1   62.825535  11.489121 -1.675
 6986 1   62.838547  12.909062 -1.675
 6987 1   64.074758  13.607762 -1.675
 6988 1   61.589324  10.790420 -1.675
 6989 1   60.366126  11.511660 -1.675
 6990 1   60.379138  12.931600 -1.675
 6991 1   61.615349  13.630301 -1.675
 6992 1   59.129915  10.812959 -1.675
 6993 1   57.906717  11.534199 -1.675
 6994 1   57.919730  12.954139 -1.675
 6995 1   59.155940  13.652840 -1.675
 6996 1   56.670506  10.835498 -1.675
 6997 1   55.447308  11.556737 -1.675
 6998 1   55.460321  12.976678 -1.675
 6999 1   56.696532  13.675379 -1.675
 7000 1   54.211097  10.858037 -1.675
 7001 1   52.987899  11.579276 -1.675
 7002 1   53.000912  12.999217 -1.675
 7003 1   54.237123  13.697917 -1.675
 7004 1   51.751688  10.880575 -1.675
 7005 1   50.528490  11.601815 -1.675
 7006 1   50.541503  13.021755 -1.675
 7007 1   51.777714  13.720456 -1.675
 7008 1   49.292279  10.903114 -1.675
 7009 1   48.069081  11.624354 -1.675
 7010 1   48.082094  13.044294 -1.675
 7011 1   49.318305  13.742995 -1.675
 7012 1   46.832871  10.925653 -1.675
 7013 1   45.609672  11.646892 -1.675
 7014 1   45.622685  13.066833 -1.675
 7015 1   46.858896  13.765534 -1.675
 7016 1   44.373462  10.948192 -1.675
 7017 1   43.150264  11.669431 -1.675
 7018 1   43.163276  13.089371 -1.675
 7019 1   44.399487  13.788072 -1.675
 7020 1   41.914053  10.970730 -1.675
 7021 1   40.690855  11.691970 -1.675
 7022 1   40.703867  13.111910 -1.675
 7023 1   41.940078  13.810611 -1.675
 7024 1   39.454644  10.993269 -1.675
 7025 1   38.231446  11.714509 -1.675
 7026 1   38.244459  13.134449 -1.675
 7027 1   39.480669  13.833150 -1.675
 7028 1   36.995235  11.015808 -1.675
 7029 1   35.772037  11.737047 -1.675
 7030 1   35.785050  13.156988 -1.675
 7031 1   37.021261  13.855688 -1.675
 7032 1   34.535826  11.038346 -1.675
 7033 1   33.312628  11.759586 -1.675
 7034 1   33.325641  13.179526 -1.675
 7035 1   34.561852  13.878227 -1.675
 7036 1   32.076417  11.060885 -1.675
 7037 1   30.853219  11.782125 -1.675
 7038 1   30.866232  13.202065 -1.675
 7039 1   32.102443  13.900766 -1.675
 7040 1   29.617008  11.083424 -1.675
 7041 1   28.393810  11.804664 -1.675
 7042 1   28.406823  13.224604 -1.675
 7043 1   29.643034  13.923305 -1.675
 7044 1   27.157600  11.105963 -1.675
 7045 1   25.934402  11.827202 -1.675
 7046 1   25.947414  13.247143 -1.675
 7047 1   27.183625  13.945843 -1.675
 7048 1   24.698191  11.128501 -1.675
 7049 1   23.474993  11.849741 -1.675
 7050 1   23.488005  13.269681 -1.675
 7051 1   24.724216  13.968382 -1.675
 7052 1   22.238782  11.151040 -1.675
 7053 1   21.015584  11.872280 -1.675
 7054 1   21.028597  13.292220 -1.675
 7055 1   22.264807  13.990921 -1.675
 7056 1   19.779373  11.173579 -1.675
 7057 1   18.556175  11.894818 -1.675
 7058 1   18.569188  13.314759 -1.675
 7059 1   19.805398  14.013460 -1.675
 7060 1   17.319964  11.196118 -1.675
 7061 1   16.096766  11.917357 -1.675
 7062 1   16.109779  13.337298 -1.675
 7063 1   17.345990  14.035998 -1.675
 7064 1   14.860555  11.218656 -1.675
 7065 1   13.637357  11.939896 -1.675
 7066 1   13.650370  13.359836 -1.675
 7067 1   14.886581  14.058537 -1.675
 7068 1   12.401146  11.241195 -1.675
 7069 1   11.177948  11.962435 -1.675
 7070 1   11.190961  13.382375 -1.675
 7071 1   12.427172  14.081076 -1.675
 7072 1    9.941737  11.263734 -1.675
 7073 1    8.718539  11.984973 -1.675
 7074 1    8.731552  13.404914 -1.675
 7075 1    9.967763  14.103615 -1.675
 7076 1    7.482329  11.286273 -1.675
 7077 1    6.259131  12.007512 -1.675
 7078 1    6.272143  13.427453 -1.675
 7079 1    7.508354  14.126153 -1.675
 7080 1    5.022920  11.308811 -1.675
 7081 1    3.799722  12.030051 -1.675
 7082 1    3.812734  13.449991 -1.675
 7083 1    5.048945  14.148692 -1.675
 7084 1    2.563511  11.331350 -1.675
 7085 1    1.340313  12.052590 -1.675
 7086 1    1.353326  13.472530 -1.675
 7087 1    2.589536  14.171231 -1.675
 7088 1    0.104102  11.353889 -1.675
 7089 1   -1.119096  12.075128 -1.675
 7090 1   -1.106083  13.495069 -1.675
 7091 1    0.130127  14.193770 -1.675
 7092 1   -2.355307  11.376428 -1.675
 7093 1   -3.578505  12.097667 -1.675
 7094 1   -3.565492  13.517607 -1.675
 7095 1   -2.329281  14.216308 -1.675
 7096 1   -4.814716  11.398966 -1.675
 7097 1   -6.037914  12.120206 -1.675
 7098 1   -6.024901  13.540146 -1.675
 7099 1   -4.788690  14.238847 -1.675
 7100 1   -7.274125  11.421505 -1.675
 7101 1   -8.497323  12.142745 -1.675
 7102 1   -8.484310  13.562685 -1.675
 7103 1   -7.248099  14.261386 -1.675
 7104 1   -9.733534  11.444044 -1.675
 7105 1  -10.956732  12.165283 -1.675
 7106 1  -10.943719  13.585224 -1.675
 7107 1   -9.707508  14.283924 -1.675
 7108 1  -12.192942  11.466582 -1.675
 7109 1  -13.416140  12.187822 -1.675
 7110 1  -13.403128  13.607762 -1.675
 7111 1  -12.166917  14.306463 -1.675
 7112 1  -14.652351  11.489121 -1.675
 7113 1  -15.875549  12.210361 -1.675
 7114 1  -15.862537  13.630301 -1.675
 7115 1  -14.626326  14.329002 -1.675
 7116 1  -17.111760  11.511660 -1.675
 7117 1  -18.334958  12.232899 -1.675
 7118 1  -18.321945  13.652840 -1.675
 7119 1  -17.085735  14.351541 -1.675
 7120 1  -19.571169  11.534199 -1.675
 7121 1  -20.794367  12.255438 -1.675
 7122 1  -20.781354  13.675379 -1.675
 7123 1  -19.545144  14.374079 -1.675
 7124 1  -22.030578  11.556737 -1.675
 7125 1  -23.253776  12.277977 -1.675
 7126 1  -23.240763  13.697917 -1.675
 7127 1  -22.004552  14.396618 -1.675
 7128 1  -24.489987  11.579276 -1.675
 7129 1  -25.713185  12.300516 -1.675
 7130 1  -25.700172  13.720456 -1.675
 7131 1  -24.463961  14.419157 -1.675
 7132 1  -26.949396  11.601815 -1.675
 7133 1  -28.172594  12.323054 -1.675
 7134 1  -28.159581  13.742995 -1.675
 7135 1  -26.923370  14.441696 -1.675
 7136 1  -29.408805  11.624354 -1.675
 7137 1  -30.632003  12.345593 -1.675
 7138 1  -30.618990  13.765534 -1.675
 7139 1  -29.382779  14.464234 -1.675
 7140 1  -31.868213  11.646892 -1.675
 7141 1  -33.091411  12.368132 -1.675
 7142 1  -33.078399  13.788072 -1.675
 7143 1  -31.842188  14.486773 -1.675
 7144 1  -34.327622  11.669431 -1.675
 7145 1  -35.550820  12.390671 -1.675
 7146 1  -35.537808  13.810611 -1.675
 7147 1  -34.301597  14.509312 -1.675
 7148 1  -36.787031  11.691970 -1.675
 7149 1  -38.010229  12.413209 -1.675
 7150 1  -37.997216  13.833150 -1.675
 7151 1  -36.761006  14.531851 -1.675
 7152 1  -39.246440  11.714509 -1.675
 7153 1  -40.469638  12.435748 -1.675
 7154 1  -40.456625  13.855688 -1.675
 7155 1  -39.220415  14.554389 -1.675
 7156 1  -41.705849  11.737047 -1.675
 7157 1  -42.929047  12.458287 -1.675
 7158 1  -42.916034  13.878227 -1.675
 7159 1  -41.679823  14.576928 -1.675
 7160 1  -44.165258  11.759586 -1.675
 7161 1  -45.388456  12.480826 -1.675
 7162 1  -45.375443  13.900766 -1.675
 7163 1  -44.139232  14.599467 -1.675
 7164 1  -46.624667  11.782125 -1.675
 7165 1  -47.847865  12.503364 -1.675
 7166 1  -47.834852  13.923305 -1.675
 7167 1  -46.598641  14.622006 -1.675
 7168 1  -49.084076  11.804664 -1.675
 7169 1  -50.307274  12.525903 -1.675
 7170 1  -50.294261  13.945843 -1.675
 7171 1  -49.058050  14.644544 -1.675
 7172 1  -51.543484  11.827202 -1.675
 7173 1  -52.766682  12.548442 -1.675
 7174 1  -52.753670  13.968382 -1.675
 7175 1  -51.517459  14.667083 -1.675
 7176 1  -54.002893  11.849741 -1.675
 7177 1  -55.226091  12.570981 -1.675
 7178 1  -55.213079  13.990921 -1.675
 7179 1  -53.976868  14.689622 -1.675
 7180 1  -56.462302  11.872280 -1.675
 7181 1  -57.685500  12.593519 -1.675
 7182 1  -57.672487  14.013460 -1.675
 7183 1  -56.436277  14.712160 -1.675
 7184 1  -58.921711  11.894818 -1.675
 7185 1  -60.144909  12.616058 -1.675
 7186 1  -60.131896  14.035998 -1.675
 7187 1  -58.895686  14.734699 -1.675
 7188 1  -61.381120  11.917357 -1.675
 7189 1  -62.604318  12.638597 -1.675
 7190 1  -62.591305  14.058537 -1.675
 7191 1  -61.355094  14.757238 -1.675
 7192 1  -63.840529  11.939896 -1.675
 7193 1  -65.063727  12.661135 -1.675
 7194 1  -65.050714  14.081076 -1.675
 7195 1  -63.814503  14.779777 -1.675
 7196 1  -66.299938  11.962435 -1.675
 7197 1  -67.523136  12.683674 -1.675
 7198 1  -67.510123  14.103615 -1.675
 7199 1  -66.273912  14.802315 -1.675
 7200 1  -68.759346  11.984973 -1.675
 7201 1  -69.982545  12.706213 -1.675
 7202 1  -69.969532  14.126153 -1.675
 7203 1  -68.733321  14.824854 -1.675
 7204 1  -71.218755  12.007512 -1.675
 7205 1  -72.441953  12.728752 -1.675
 7206 1  -72.428941  14.148692 -1.675
 7207 1  -71.192730  14.847393 -1.675
 7208 1  -73.678164  12.030051 -1.675
 7209 1  -74.901362  12.751290 -1.675
 7210 1  -74.888350  14.171231 -1.675
 7211 1  -73.652139  14.869932 -1.675
 7212 1  -76.137573  12.052590 -1.675
 7213 1  -77.360771  12.773829 -1.675
 7214 1  -77.347758  14.193770 -1.675
 7215 1  -76.111548  14.892470 -1.675
 7216 1  -78.596982  12.075128 -1.675
 7217 1  -79.820180  12.796368 -1.675
 7218 1  -79.807167  14.216308 -1.675
 7219 1  -78.570956  14.915009 -1.675
 7220 1  -81.056391  12.097667 -1.675
 7221 1  -82.279589  12.818907 -1.675
 7222 1  -82.266576  14.238847 -1.675
 7223 1  -81.030365  14.937548 -1.675
 7224 1  -83.515800  12.120206 -1.675
 7225 1  -84.738998  12.841445 -1.675
 7226 1  -84.725985  14.261386 -1.675
 7227 1  -83.489774  14.960087 -1.675
 7228 1  -85.975209  12.142745 -1.675
 7229 1  -87.198407  12.863984 -1.675
 7230 1  -87.185394  14.283924 -1.675
 7231 1  -85.949183  14.982625 -1.675
 7232 1  -88.434617  12.165283 -1.675
 7233 1  -89.657816  12.886523 -1.675
 7234 1  -89.644803  14.306463 -1.675
 7235 1  -88.408592  15.005164 -1.675
 7236 1  -90.894026  12.187822 -1.675
 7237 1  -92.117224  12.909062 -1.675
 7238 1  -92.104212  14.329002 -1.675
 7239 1  -90.868001  15.027703 -1.675
 7240 1  -93.353435  12.210361 -1.675
 7241 1  -94.576633  12.931600 -1.675
 7242 1  -94.563621  14.351541 -1.675
 7243 1  -93.327410  15.050242 -1.675
 7244 1  -95.812844  12.232899 -1.675
 7245 1  -97.036042  12.954139 -1.675
 7246 1  -97.023029  14.374079 -1.675
 7247 1  -95.786819  15.072780 -1.675
 7248 1  -98.272253  12.255438 -1.675
 7249 1  -99.495451  12.976678 -1.675
 7250 1  -99.482438  14.396618 -1.675
 7251 1  -98.246227  15.095319 -1.675
 7252 1 -100.731662  12.277977 -1.675
 7253 1 -101.954860  12.999217 -1.675
 7254 1 -101.941847  14.419157 -1.675
 7255 1 -100.705636  15.117858 -1.675
 7256 1 -103.191071  12.300516 -1.675
 7257 1 -104.414269  13.021755 -1.675
 7258 1 -104.401256  14.441696 -1.675
 7259 1 -103.165045  15.140396 -1.675
 7260 1 -105.650480  12.323054 -1.675
 7261 1 -106.873678  13.044294 -1.675
 7262 1 -106.860665  14.464234 -1.675
 7263 1 -105.624454  15.162935 -1.675
 7264 1 -108.109888  12.345593 -1.675
 7265 1 -109.333087  13.066833 -1.675
 7266 1 -109.320074  14.486773 -1.675
 7267 1 -108.083863  15.185474 -1.675
 7268 1 -110.569297  12.368132 -1.675
 7269 1 -111.792495  13.089371 -1.675
 7270 1 -111.779483  14.509312 -1.675
 7271 1 -110.543272  15.208013 -1.675
 7272 1 -113.028706  12.390671 -1.675
 7273 1 -114.251904  13.111910 -1.675
 7274 1 -114.238892  14.531851 -1.675
 7275 1 -113.002681  15.230551 -1.675
 7276 1 -115.488115  12.413209 -1.675
 7277 1 -115.462090  15.253090 -1.675
 7278 1  115.735357  14.554389 -1.675
 7279 1  114.512159  15.275629 -1.675
 7280 1  114.525172  16.695569 -1.675
 7281 1  115.761383  17.394270 -1.675
 7282 1  113.275948  14.576928 -1.675
 7283 1  112.052750  15.298168 -1.675
 7284 1  112.065763  16.718108 -1.675
 7285 1  113.301974  17.416809 -1.675
 7286 1  110.816539  14.599467 -1.675
 7287 1  109.593341  15.320706 -1.675
 7288 1  109.606354  16.740647 -1.675
 7289 1  110.842565  17.439348 -1.675
 7290 1  108.357131  14.622006 -1.675
 7291 1  107.133933  15.343245 -1.675
 7292 1  107.146945  16.763185 -1.675
 7293 1  108.383156  17.461886 -1.675
 7294 1  105.897722  14.644544 -1.675
 7295 1  104.674524  15.365784 -1.675
 7296 1  104.687536  16.785724 -1.675
 7297 1  105.923747  17.484425 -1.675
 7298 1  103.438313  14.667083 -1.675
 7299 1  102.215115  15.388323 -1.675
 7300 1  102.228128  16.808263 -1.675
 7301 1  103.464338  17.506964 -1.675
 7302 1  100.978904  14.689622 -1.675
 7303 1   99.755706  15.410861 -1.675
 7304 1   99.768719  16.830802 -1.675
 7305 1  101.004929  17.529502 -1.675
 7306 1   98.519495  14.712160 -1.675
 7307 1   97.296297  15.433400 -1.675
 7308 1   97.309310  16.853340 -1.675
 7309 1   98.545521  17.552041 -1.675
 7310 1   96.060086  14.734699 -1.675
 7311 1   94.836888  15.455939 -1.675
 7312 1   94.849901  16.875879 -1.675
 7313 1   96.086112  17.574580 -1.675
 7314 1   93.600677  14.757238 -1.675
 7315 1   92.377479  15.478477 -1.675
 7316 1   92.390492  16.898418 -1.675
 7317 1   93.626703  17.597119 -1.675
 7318 1   91.141269  14.779777 -1.675
 7319 1   89.918070  15.501016 -1.675
 7320 1   89.931083  16.920957 -1.675
 7321 1   91.167294  17.619657 -1.675
 7322 1   88.681860  14.802315 -1.675
 7323 1   87.458662  15.523555 -1.675
 7324 1   87.471674  16.943495 -1.675
 7325 1   88.707885  17.642196 -1.675
 7326 1   86.222451  14.824854 -1.675
 7327 1   84.999253  15.546094 -1.675
 7328 1   85.012265  16.966034 -1.675
 7329 1   86.248476  17.664735 -1.675
 7330 1   83.763042  14.847393 -1.675
 7331 1   82.539844  15.568632 -1.675
 7332 1   82.552857  16.988573 -1.675
 7333 1   83.789067  17.687274 -1.675
 7334 1   81.303633  14.869932 -1.675
 7335 1   80.080435  15.591171 -1.675
 7336 1   80.093448  17.011112 -1.675
 7337 1   81.329659  17.709812 -1.675
 7338 1   78.844224  14.892470 -1.675
 7339 1   77.621026  15.613710 -1.675
 7340 1   77.634039  17.033650 -1.675
 7341 1   78.870250  17.732351 -1.675
 7342 1   76.384815  14.915009 -1.675
 7343 1   75.161617  15.636249 -1.675
 7344 1   75.174630  17.056189 -1.675
 7345 1   76.410841  17.754890 -1.675
 7346 1   73.925406  14.937548 -1.675
 7347 1   72.702208  15.658787 -1.675
 7348 1   72.715221  17.078728 -1.675
 7349 1   73.951432  17.777429 -1.675
 7350 1   71.465998  14.960087 -1.675
 7351 1   70.242799  15.681326 -1.675
 7352 1   70.255812  17.101266 -1.675
 7353 1   71.492023  17.799967 -1.675
 7354 1   69.006589  14.982625 -1.675
 7355 1   67.783391  15.703865 -1.675
 7356 1   67.796403  17.123805 -1.675
 7357 1   69.032614  17.822506 -1.675
 7358 1   66.547180  15.005164 -1.675
 7359 1   65.323982  15.726404 -1.675
 7360 1   65.336994  17.146344 -1.675
 7361 1   66.573205  17.845045 -1.675
 7362 1   64.087771  15.027703 -1.675
 7363 1   62.864573  15.748942 -1.675
 7364 1   62.877586  17.168883 -1.675
 7365 1   64.113796  17.867584 -1.675
 7366 1   61.628362  15.050242 -1.675
 7367 1   60.405164  15.771481 -1.675
 7368 1   60.418177  17.191421 -1.675
 7369 1   61.654388  17.890122 -1.675
 7370 1   59.168953  15.072780 -1.675
 7371 1   57.945755  15.794020 -1.675
 7372 1   57.958768  17.213960 -1.675
 7373 1   59.194979  17.912661 -1.675
 7374 1   56.709544  15.095319 -1.675
 7375 1   55.486346  15.816559 -1.675
 7376 1   55.499359  17.236499 -1.675
 7377 1   56.735570  17.935200 -1.675
 7378 1   54.250135  15.117858 -1.675
 7379 1   53.026937  15.839097 -1.675
 7380 1   53.039950  17.259038 -1.675
 7381 1   54.276161  17.957738 -1.675
 7382 1   51.790727  15.140396 -1.675
 7383 1   50.567528  15.861636 -1.675
 7384 1   50.580541  17.281576 -1.675
 7385 1   51.816752  17.980277 -1.675
 7386 1   49.331318  15.162935 -1.675
 7387 1   48.108120  15.884175 -1.675
 7388 1   48.121132  17.304115 -1.675
 7389 1   49.357343  18.002816 -1.675
 7390 1   46.871909  15.185474 -1.675
 7391 1   45.648711  15.906713 -1.675
 7392 1   45.661723  17.326654 -1.675
 7393 1   46.897934  18.025355 -1.675
 7394 1   44.412500  15.208013 -1.675
 7395 1   43.189302  15.929252 -1.675
 7396 1   43.202315  17.349193 -1.675
 7397 1   44.438525  18.047893 -1.675
 7398 1   41.953091  15.230551 -1.675
 7399 1   40.729893  15.951791 -1.675
 7400 1   40.742906  17.371731 -1.675
 7401 1   41.979117  18.070432 -1.675
 7402 1   39.493682  15.253090 -1.675
 7403 1   38.270484  15.974330 -1.675
 7404 1   38.283497  17.394270 -1.675
 7405 1   39.519708  18.092971 -1.675
 7406 1   37.034273  15.275629 -1.675
 7407 1   35.811075  15.996868 -1.675
 7408 1   35.824088  17.416809 -1.675
 7409 1   37.060299  18.115510 -1.675
 7410 1   34.574864  15.298168 -1.675
 7411 1   33.351666  16.019407 -1.675
 7412 1   33.364679  17.439348 -1.675
 7413 1   34.600890  18.138048 -1.675
 7414 1   32.115456  15.320706 -1.675
 7415 1   30.892257  16.041946 -1.675
 7416 1   30.905270  17.461886 -1.675
 7417 1   32.141481  18.160587 -1.675
 7418 1   29.656047  15.343245 -1.675
 7419 1   28.432849  16.064485 -1.675
 7420 1   28.445861  17.484425 -1.675
 7421 1   29.682072  18.183126 -1.675
 7422 1   27.196638  15.365784 -1.675
 7423 1   25.973440  16.087023 -1.675
 7424 1   25.986452  17.506964 -1.675
 7425 1   27.222663  18.205665 -1.675
 7426 1   24.737229  15.388323 -1.675
 7427 1   23.514031  16.109562 -1.675
 7428 1   23.527044  17.529502 -1.675
 7429 1   24.763254  18.228203 -1.675
 7430 1   22.277820  15.410861 -1.675
 7431 1   21.054622  16.132101 -1.675
 7432 1   21.067635  17.552041 -1.675
 7433 1   22.303846  18.250742 -1.675
 7434 1   19.818411  15.433400 -1.675
 7435 1   18.595213  16.154640 -1.675
 7436 1   18.608226  17.574580 -1.675
 7437 1   19.844437  18.273281 -1.675
 7438 1   17.359002  15.455939 -1.675
 7439 1   16.135804  16.177178 -1.675
 7440 1   16.148817  17.597119 -1.675
 7441 1   17.385028  18.295820 -1.675
 7442 1   14.899593  15.478477 -1.675
 7443 1   13.676395  16.199717 -1.675
 7444 1   13.689408  17.619657 -1.675
 7445 1   14.925619  18.318358 -1.675
 7446 1   12.440185  15.501016 -1.675
 7447 1   11.216987  16.222256 -1.675
 7448 1   11.229999  17.642196 -1.675
 7449 1   12.466210  18.340897 -1.675
 7450 1    9.980776  15.523555 -1.675
 7451 1    8.757578  16.244795 -1.675
 7452 1    8.770590  17.664735 -1.675
 7453 1   10.006801  18.363436 -1.675
 7454 1    7.521367  15.546094 -1.675
 7455 1    6.298169  16.267333 -1.675
 7456 1    6.311181  17.687274 -1.675
 7457 1    7.547392  18.385974 -1.675
 7458 1    5.061958  15.568632 -1.675
 7459 1    3.838760  16.289872 -1.675
 7460 1    3.851773  17.709812 -1.675
 7461 1    5.087983  18.408513 -1.675
 7462 1    2.602549  15.591171 -1.675
 7463 1    1.379351  16.312411 -1.675
 7464 1    1.392364  17.732351 -1.675
 7465 1    2.628575  18.431052 -1.675
 7466 1    0.143140  15.613710 -1.675
 7467 1   -1.080058  16.334949 -1.675
 7468 1   -1.067045  17.754890 -1.675
 7469 1    0.169166  18.453591 -1.675
 7470 1   -2.316269  15.636249 -1.675
 7471 1   -3.539467  16.357488 -1.675
 7472 1   -3.526454  17.777429 -1.675
 7473 1   -2.290243  18.476129 -1.675
 7474 1   -4.775678  15.658787 -1.675
 7475 1   -5.998876  16.380027 -1.675
 7476 1   -5.985863  17.799967 -1.675
 7477 1   -4.749652  18.498668 -1.675
 7478 1   -7.235086  15.681326 -1.675
 7479 1   -8.458284  16.402566 -1.675
 7480 1   -8.445272  17.822506 -1.675
 7481 1   -7.209061  18.521207 -1.675
 7482 1   -9.694495  15.703865 -1.675
 7483 1  -10.917693  16.425104 -1.675
 7484 1  -10.904681  17.845045 -1.675
 7485 1   -9.668470  18.543746 -1.675
 7486 1  -12.153904  15.726404 -1.675
 7487 1  -13.377102  16.447643 -1.675
 7488 1  -13.364089  17.867584 -1.675
 7489 1  -12.127879  18.566284 -1.675
 7490 1  -14.613313  15.748942 -1.675
 7491 1  -15.836511  16.470182 -1.675
 7492 1  -15.823498  17.890122 -1.675
 7493 1  -14.587288  18.588823 -1.675
 7494 1  -17.072722  15.771481 -1.675
 7495 1  -18.295920  16.492721 -1.675
 7496 1  -18.282907  17.912661 -1.675
 7497 1  -17.046696  18.611362 -1.675
 7498 1  -19.532131  15.794020 -1.675
 7499 1  -20.755329  16.515259 -1.675
 7500 1  -20.742316  17.935200 -1.675
 7501 1  -19.506105  18.633901 -1.675
 7502 1  -21.991540  15.816559 -1.675
 7503 1  -23.214738  16.537798 -1.675
 7504 1  -23.201725  17.957738 -1.675
 7505 1  -21.965514  18.656439 -1.675
 7506 1  -24.450949  15.839097 -1.675
 7507 1  -25.674147  16.560337 -1.675
 7508 1  -25.661134  17.980277 -1.675
 7509 1  -24.424923  18.678978 -1.675
 7510 1  -26.910357  15.861636 -1.675
 7511 1  -28.133555  16.582876 -1.675
 7512 1  -28.120543  18.002816 -1.675
 7513 1  -26.884332  18.701517 -1.675
 7514 1  -29.369766  15.884175 -1.675
 7515 1  -30.592964  16.605414 -1.675
 7516 1  -30.579952  18.025355 -1.675
 7517 1  -29.343741  18.724055 -1.675
 7518 1  -31.829175  15.906713 -1.675
 7519 1  -33.052373  16.627953 -1.675
 7520 1  -33.039360  18.047893 -1.675
 7521 1  -31.803150  18.746594 -1.675
 7522 1  -34.288584  15.929252 -1.675
 7523 1  -35.511782  16.650492 -1.675
 7524 1  -35.498769  18.070432 -1.675
 7525 1  -34.262559  18.769133 -1.675
 7526 1  -36.747993  15.951791 -1.675
 7527 1  -37.971191  16.673031 -1.675
 7528 1  -37.958178  18.092971 -1.675
 7529 1  -36.721967  18.791672 -1.675
 7530 1  -39.207402  15.974330 -1.675
 7531 1  -40.430600  16.695569 -1.675
 7532 1  -40.417587  18.115510 -1.675
 7533 1  -39.181376  18.814210 -1.675
 7534 1  -41.666811  15.996868 -1.675
 7535 1  -42.890009  16.718108 -1.675
 7536 1  -42.876996  18.138048 -1.675
 7537 1  -41.640785  18.836749 -1.675
 7538 1  -44.126220  16.019407 -1.675
 7539 1  -45.349418  16.740647 -1.675
 7540 1  -45.336405  18.160587 -1.675
 7541 1  -44.100194  18.859288 -1.675
 7542 1  -46.585628  16.041946 -1.675
 7543 1  -47.808826  16.763185 -1.675
 7544 1  -47.795814  18.183126 -1.675
 7545 1  -46.559603  18.881827 -1.675
 7546 1  -49.045037  16.064485 -1.675
 7547 1  -50.268235  16.785724 -1.675
 7548 1  -50.255223  18.205665 -1.675
 7549 1  -49.019012  18.904365 -1.675
 7550 1  -51.504446  16.087023 -1.675
 7551 1  -52.727644  16.808263 -1.675
 7552 1  -52.714631  18.228203 -1.675
 7553 1  -51.478421  18.926904 -1.675
 7554 1  -53.963855  16.109562 -1.675
 7555 1  -55.187053  16.830802 -1.675
 7556 1  -55.174040  18.250742 -1.675
 7557 1  -53.937830  18.949443 -1.675
 7558 1  -56.423264  16.132101 -1.675
 7559 1  -57.646462  16.853340 -1.675
 7560 1  -57.633449  18.273281 -1.675
 7561 1  -56.397238  18.971982 -1.675
 7562 1  -58.882673  16.154640 -1.675
 7563 1  -60.105871  16.875879 -1.675
 7564 1  -60.092858  18.295820 -1.675
 7565 1  -58.856647  18.994520 -1.675
 7566 1  -61.342082  16.177178 -1.675
 7567 1  -62.565280  16.898418 -1.675
 7568 1  -62.552267  18.318358 -1.675
 7569 1  -61.316056  19.017059 -1.675
 7570 1  -63.801491  16.199717 -1.675
 7571 1  -65.024689  16.920957 -1.675
 7572 1  -65.011676  18.340897 -1.675
 7573 1  -63.775465  19.039598 -1.675
 7574 1  -66.260899  16.222256 -1.675
 7575 1  -67.484097  16.943495 -1.675
 7576 1  -67.471085  18.363436 -1.675
 7577 1  -66.234874  19.062137 -1.675
 7578 1  -68.720308  16.244795 -1.675
 7579 1  -69.943506  16.966034 -1.675
 7580 1  -69.930494  18.385974 -1.675
 7581 1  -68.694283  19.084675 -1.675
 7582 1  -71.179717  16.267333 -1.675
 7583 1  -72.402915  16.988573 -1.675
 7584 1  -72.389902  18.408513 -1.675
 7585 1  -71.153692  19.107214 -1.675
 7586 1  -73.639126  16.289872 -1.675
 7587 1  -74.862324  17.011112 -1.675
 7588 1  -74.849311  18.431052 -1.675
 7589 1  -73.613101  19.129753 -1.675
 7590 1  -76.098535  16.312411 -1.675
 7591 1  -77.321733  17.033650 -1.675
 7592 1  -77.308720  18.453591 -1.675
 7593 1  -76.072509  19.152291 -1.675
 7594 1  -78.557944  16.334949 -1.675
 7595 1  -79.781142  17.056189 -1.675
 7596 1  -79.768129  18.476129 -1.675
 7597 1  -78.531918  19.174830 -1.675
 7598 1  -81.017353  16.357488 -1.675
 7599 1  -82.240551  17.078728 -1.675
 7600 1  -82.227538  18.498668 -1.675
 7601 1  -80.991327  19.197369 -1.675
 7602 1  -83.476761  16.380027 -1.675
 7603 1  -84.699960  17.101266 -1.675
 7604 1  -84.686947  18.521207 -1.675
 7605 1  -83.450736  19.219908 -1.675
 7606 1  -85.936170  16.402566 -1.675
 7607 1  -87.159368  17.123805 -1.675
 7608 1  -87.146356  18.543746 -1.675
 7609 1  -85.910145  19.242446 -1.675
 7610 1  -88.395579  16.425104 -1.675
 7611 1  -89.618777  17.146344 -1.675
 7612 1  -89.605765  18.566284 -1.675
 7613 1  -88.369554  19.264985 -1.675
 7614 1  -90.854988  16.447643 -1.675
 7615 1  -92.078186  17.168883 -1.675
 7616 1  -92.065173  18.588823 -1.675
 7617 1  -90.828963  19.287524 -1.675
 7618 1  -93.314397  16.470182 -1.675
 7619 1  -94.537595  17.191421 -1.675
 7620 1  -94.524582  18.611362 -1.675
 7621 1  -93.288371  19.310063 -1.675
 7622 1  -95.773806  16.492721 -1.675
 7623 1  -96.997004  17.213960 -1.675
 7624 1  -96.983991  18.633901 -1.675
 7625 1  -95.747780  19.332601 -1.675
 7626 1  -98.233215  16.515259 -1.675
 7627 1  -99.456413  17.236499 -1.675
 7628 1  -99.443400  18.656439 -1.675
 7629 1  -98.207189  19.355140 -1.675
 7630 1 -100.692624  16.537798 -1.675
 7631 1 -101.915822  17.259038 -1.675
 7632 1 -101.902809  18.678978 -1.675
 7633 1 -100.666598  19.377679 -1.675
 7634 1 -103.152032  16.560337 -1.675
 7635 1 -104.375231  17.281576 -1.675
 7636 1 -104.362218  18.701517 -1.675
 7637 1 -103.126007  19.400218 -1.675
 7638 1 -105.611441  16.582876 -1.675
 7639 1 -106.834639  17.304115 -1.675
 7640 1 -106.821627  18.724055 -1.675
 7641 1 -105.585416  19.422756 -1.675
 7642 1 -108.070850  16.605414 -1.675
 7643 1 -109.294048  17.326654 -1.675
 7644 1 -109.281036  18.746594 -1.675
 7645 1 -108.044825  19.445295 -1.675
 7646 1 -110.530259  16.627953 -1.675
 7647 1 -111.753457  17.349193 -1.675
 7648 1 -111.740444  18.769133 -1.675
 7649 1 -110.504234  19.467834 -1.675
 7650 1 -112.989668  16.650492 -1.675
 7651 1 -114.212866  17.371731 -1.675
 7652 1 -114.199853  18.791672 -1.675
 7653 1 -112.963642  19.490373 -1.675
 7654 1 -115.449077  16.673031 -1.675
 7655 1 -115.423051  19.512911 -1.675
 7656 1  115.774395  18.814210 -1.675
 7657 1  114.551197  19.535450 -1.675
 7658 1  114.564210  20.955390 -1.675
 7659 1  115.800421  21.654091 -1.675
 7660 1  113.314987  18.836749 -1.675
 7661 1  112.091789  19.557989 -1.675
 7662 1  112.104801  20.977929 -1.675
 7663 1  113.341012  21.676630 -1.675
 7664 1  110.855578  18.859288 -1.675
 7665 1  109.632380  19.580527 -1.675
 7666 1  109.645392  21.000468 -1.675
 7667 1  110.881603  21.699169 -1.675
 7668 1  108.396169  18.881827 -1.675
 7669 1  107.172971  19.603066 -1.675
 7670 1  107.185984  21.023007 -1.675
 7671 1  108.422194  21.721707 -1.675
 7672 1  105.936760  18.904365 -1.675
 7673 1  104.713562  19.625605 -1.675
 7674 1  104.726575  21.045545 -1.675
 7675 1  105.962785  21.744246 -1.675
 7676 1  103.477351  18.926904 -1.675
 7677 1  102.254153  19.648144 -1.675
 7678 1  102.267166  21.068084 -1.675
 7679 1  103.503377  21.766785 -1.675
 7680 1  101.017942  18.949443 -1.675
 7681 1   99.794744  19.670682 -1.675
 7682 1   99.807757  21.090623 -1.675
 7683 1  101.043968  21.789324 -1.675
 7684 1   98.558533  18.971982 -1.675
 7685 1   97.335335  19.693221 -1.675
 7686 1   97.348348  21.113162 -1.675
 7687 1   98.584559  21.811862 -1.675
 7688 1   96.099124  18.994520 -1.675
 7689 1   94.875926  19.715760 -1.675
 7690 1   94.888939  21.135700 -1.675
 7691 1   96.125150  21.834401 -1.675
 7692 1   93.639716  19.017059 -1.675
 7693 1   92.416518  19.738299 -1.675
 7694 1   92.429530  21.158239 -1.675
 7695 1   93.665741  21.856940 -1.675
 7696 1   91.180307  19.039598 -1.675
 7697 1   89.957109  19.760837 -1.675
 7698 1   89.970121  21.180778 -1.675
 7699 1   91.206332  21.879479 -1.675
 7700 1   88.720898  19.062137 -1.675
 7701 1   87.497700  19.783376 -1.675
 7702 1   87.510713  21.203316 -1.675
 7703 1   88.746923  21.902017 -1.675
 7704 1   86.261489  19.084675 -1.675
 7705 1   85.038291  19.805915 -1.675
 7706 1   85.051304  21.225855 -1.675
 7707 1   86.287514  21.924556 -1.675
 7708 1   83.802080  19.107214 -1.675
 7709 1   82.578882  19.828454 -1.675
 7710 1   82.591895  21.248394 -1.675
 7711 1   83.828106  21.947095 -1.675
 7712 1   81.342671  19.129753 -1.675
 7713 1   80.119473  19.850992 -1.675
 7714 1   80.132486  21.270933 -1.675
 7715 1   81.368697  21.969633 -1.675
 7716 1   78.883262  19.152291 -1.675
 7717 1   77.660064  19.873531 -1.675
 7718 1   77.673077  21.293471 -1.675
 7719 1   78.909288  21.992172 -1.675
 7720 1   76.423854  19.174830 -1.675
 7721 1   75.200655  19.896070 -1.675
 7722 1   75.213668  21.316010 -1.675
 7723 1   76.449879  22.014711 -1.675
 7724 1   73.964445  19.197369 -1.675
 7725 1   72.741247  19.918609 -1.675
 7726 1   72.754259  21.338549 -1.675
 7727 1   73.990470  22.037250 -1.675
 7728 1   71.505036  19.219908 -1.675
 7729 1   70.281838  19.941147 -1.675
 7730 1   70.294850  21.361088 -1.675
 7731 1   71.531061  22.059788 -1.675
 7732 1   69.045627  19.242446 -1.675
 7733 1   67.822429  19.963686 -1.675
 7734 1   67.835442  21.383626 -1.675
 7735 1   69.071652  22.082327 -1.675
 7736 1   66.586218  19.264985 -1.675
 7737 1   65.363020  19.986225 -1.675
 7738 1   65.376033  21.406165 -1.675
 7739 1   66.612244  22.104866 -1.675
 7740 1   64.126809  19.287524 -1.675
 7741 1   62.903611  20.008763 -1.675
 7742 1   62.916624  21.428704 -1.675
 7743 1   64.152835  22.127405 -1.675
 7744 1   61.667400  19.310063 -1.675
 7745 1   60.444202  20.031302 -1.675
 7746 1   60.457215  21.451243 -1.675
 7747 1   61.693426  22.149943 -1.675
 7748 1   59.207991  19.332601 -1.675
 7749 1   57.984793  20.053841 -1.675
 7750 1   57.997806  21.473781 -1.675
 7751 1   59.234017  22.172482 -1.675
 7752 1   56.748583  19.355140 -1.675
 7753 1   55.525384  20.076380 -1.675
 7754 1   55.538397  21.496320 -1.675
 7755 1   56.774608  22.195021 -1.675
 7756 1   54.289174  19.377679 -1.675
 7757 1   53.065976  20.098918 -1.675
 7758 1   53.078988  21.518859 -1.675
 7759 1   54.315199  22.217560 -1.675
 7760 1   51.829765  19.400218 -1.675
 7761 1   50.606567  20.121457 -1.675
 7762 1   50.619579  21.541398 -1.675
 7763 1   51.855790  22.240098 -1.675
 7764 1   49.370356  19.422756 -1.675
 7765 1   48.147158  20.143996 -1.675
 7766 1   48.160171  21.563936 -1.675
 7767 1   49.396381  22.262637 -1.675
 7768 1   46.910947  19.445295 -1.675
 7769 1   45.687749  20.166535 -1.675
 7770 1   45.700762  21.586475 -1.675
 7771 1   46.936973  22.285176 -1.675
 7772 1   44.451538  19.467834 -1.675
 7773 1   43.228340  20.189073 -1.675
 7774 1   43.241353  21.609014 -1.675
 7775 1   44.477564  22.307715 -1.675
 7776 1   41.992129  19.490373 -1.675
 7777 1   40.768931  20.211612 -1.675
 7778 1   40.781944  21.631552 -1.675
 7779 1   42.018155  22.330253 -1.675
 7780 1   39.532720  19.512911 -1.675
 7781 1   38.309522  20.234151 -1.675
 7782 1   38.322535  21.654091 -1.675
 7783 1   39.558746  22.352792 -1.675
 7784 1   37.073312  19.535450 -1.675
 7785 1   35.850113  20.256690 -1.675
 7786 1   35.863126  21.676630 -1.675
 7787 1   37.099337  22.375331 -1.675
 7788 1   34.613903  19.557989 -1.675
 7789 1   33.390705  20.279228 -1.675
 7790 1   33.403717  21.699169 -1.675
 7791 1   34.639928  22.397869 -1.675
 7792 1   32.154494  19.580527 -1.675
 7793 1   30.931296  20.301767 -1.675
 7794 1   30.944308  21.721707 -1.675
 7795 1   32.180519  22.420408 -1.675
 7796 1   29.695085  19.603066 -1.675
 7797 1   28.471887  20.324306 -1.675
 7798 1   28.484900  21.744246 -1.675
 7799 1   29.721110  22.442947 -1.675
 7800 1   27.235676  19.625605 -1.675
 7801 1   26.012478  20.346844 -1.675
 7802 1   26.025491  21.766785 -1.675
 7803 1   27.261702  22.465486 -1.675
 7804 1   24.776267  19.648144 -1.675
 7805 1   23.553069  20.369383 -1.675
 7806 1   23.566082  21.789324 -1.675
 7807 1   24.802293  22.488024 -1.675
 7808 1   22.316858  19.670682 -1.675
 7809 1   21.093660  20.391922 -1.675
 7810 1   21.106673  21.811862 -1.675
 7811 1   22.342884  22.510563 -1.675
 7812 1   19.857449  19.693221 -1.675
 7813 1   18.634251  20.414461 -1.675
 7814 1   18.647264  21.834401 -1.675
 7815 1   19.883475  22.533102 -1.675
 7816 1   17.398041  19.715760 -1.675
 7817 1   16.174842  20.436999 -1.675
 7818 1   16.187855  21.856940 -1.675
 7819 1   17.424066  22.555641 -1.675
 7820 1   14.938632  19.738299 -1.675
 7821 1   13.715434  20.459538 -1.675
 7822 1   13.728446  21.879479 -1.675
 7823 1   14.964657  22.578179 -1.675
 7824 1   12.479223  19.760837 -1.675
 7825 1   11.256025  20.482077 -1.675
 7826 1   11.269037  21.902017 -1.675
 7827 1   12.505248  22.600718 -1.675
 7828 1   10.019814  19.783376 -1.675
 7829 1    8.796616  20.504616 -1.675
 7830 1    8.809629  21.924556 -1.675
 7831 1   10.045839  22.623257 -1.675
 7832 1    7.560405  19.805915 -1.675
 7833 1    6.337207  20.527154 -1.675
 7834 1    6.350220  21.947095 -1.675
 7835 1    7.586431  22.645796 -1.675
 7836 1    5.100996  19.828454 -1.675
 7837 1    3.877798  20.549693 -1.675
 7838 1    3.890811  21.969633 -1.675
 7839 1    5.127022  22.668334 -1.675
 7840 1    2.641587  19.850992 -1.675
 7841 1    1.418389  20.572232 -1.675
 7842 1    1.431402  21.992172 -1.675
 7843 1    2.667613  22.690873 -1.675
 7844 1    0.182178  19.873531 -1.675
 7845 1   -1.041020  20.594771 -1.675
 7846 1   -1.028007  22.014711 -1.675
 7847 1    0.208204  22.713412 -1.675
 7848 1   -2.277230  19.896070 -1.675
 7849 1   -3.500429  20.617309 -1.675
 7850 1   -3.487416  22.037250 -1.675
 7851 1   -2.251205  22.735951 -1.675
 7852 1   -4.736639  19.918609 -1.675
 7853 1   -5.959837  20.639848 -1.675
 7854 1   -5.946825  22.059788 -1.675
 7855 1   -4.710614  22.758489 -1.675
 7856 1   -7.196048  19.941147 -1.675
 7857 1   -8.419246  20.662387 -1.675
 7858 1   -8.406234  22.082327 -1.675
 7859 1   -7.170023  22.781028 -1.675
 7860 1   -9.655457  19.963686 -1.675
 7861 1  -10.878655  20.684926 -1.675
 7862 1  -10.865642  22.104866 -1.675
 7863 1   -9.629432  22.803567 -1.675
 7864 1  -12.114866  19.986225 -1.675
 7865 1  -13.338064  20.707464 -1.675
 7866 1  -13.325051  22.127405 -1.675
 7867 1  -12.088840  22.826105 -1.675
 7868 1  -14.574275  20.008763 -1.675
 7869 1  -15.797473  20.730003 -1.675
 7870 1  -15.784460  22.149943 -1.675
 7871 1  -14.548249  22.848644 -1.675
 7872 1  -17.033684  20.031302 -1.675
 7873 1  -18.256882  20.752542 -1.675
 7874 1  -18.243869  22.172482 -1.675
 7875 1  -17.007658  22.871183 -1.675
 7876 1  -19.493093  20.053841 -1.675
 7877 1  -20.716291  20.775080 -1.675
 7878 1  -20.703278  22.195021 -1.675
 7879 1  -19.467067  22.893722 -1.675
 7880 1  -21.952501  20.076380 -1.675
 7881 1  -23.175699  20.797619 -1.675
 7882 1  -23.162687  22.217560 -1.675
 7883 1  -21.926476  22.916260 -1.675
 7884 1  -24.411910  20.098918 -1.675
 7885 1  -25.635108  20.820158 -1.675
 7886 1  -25.622096  22.240098 -1.675
 7887 1  -24.385885  22.938799 -1.675
 7888 1  -26.871319  20.121457 -1.675
 7889 1  -28.094517  20.842697 -1.675
 7890 1  -28.081504  22.262637 -1.675
 7891 1  -26.845294  22.961338 -1.675
 7892 1  -29.330728  20.143996 -1.675
 7893 1  -30.553926  20.865235 -1.675
 7894 1  -30.540913  22.285176 -1.675
 7895 1  -29.304703  22.983877 -1.675
 7896 1  -31.790137  20.166535 -1.675
 7897 1  -33.013335  20.887774 -1.675
 7898 1  -33.000322  22.307715 -1.675
 7899 1  -31.764111  23.006415 -1.675
 7900 1  -34.249546  20.189073 -1.675
 7901 1  -35.472744  20.910313 -1.675
 7902 1  -35.459731  22.330253 -1.675
 7903 1  -34.223520  23.028954 -1.675
 7904 1  -36.708955  20.211612 -1.675
 7905 1  -37.932153  20.932852 -1.675
 7906 1  -37.919140  22.352792 -1.675
 7907 1  -36.682929  23.051493 -1.675
 7908 1  -39.168364  20.234151 -1.675
 7909 1  -40.391562  20.955390 -1.675
 7910 1  -40.378549  22.375331 -1.675
 7911 1  -39.142338  23.074032 -1.675
 7912 1  -41.627772  20.256690 -1.675
 7913 1  -42.850970  20.977929 -1.675
 7914 1  -42.837958  22.397869 -1.675
 7915 1  -41.601747  23.096570 -1.675
 7916 1  -44.087181  20.279228 -1.675
 7917 1  -45.310379  21.000468 -1.675
 7918 1  -45.297367  22.420408 -1.675
 7919 1  -44.061156  23.119109 -1.675
 7920 1  -46.546590  20.301767 -1.675
 7921 1  -47.769788  21.023007 -1.675
 7922 1  -47.756775  22.442947 -1.675
 7923 1  -46.520565  23.141648 -1.675
 7924 1  -49.005999  20.324306 -1.675
 7925 1  -50.229197  21.045545 -1.675
 7926 1  -50.216184  22.465486 -1.675
 7927 1  -48.979974  23.164187 -1.675
 7928 1  -51.465408  20.346844 -1.675
 7929 1  -52.688606  21.068084 -1.675
 7930 1  -52.675593  22.488024 -1.675
 7931 1  -51.439382  23.186725 -1.675
 7932 1  -53.924817  20.369383 -1.675
 7933 1  -55.148015  21.090623 -1.675
 7934 1  -55.135002  22.510563 -1.675
 7935 1  -53.898791  23.209264 -1.675
 7936 1  -56.384226  20.391922 -1.675
 7937 1  -57.607424  21.113162 -1.675
 7938 1  -57.594411  22.533102 -1.675
 7939 1  -56.358200  23.231803 -1.675
 7940 1  -58.843635  20.414461 -1.675
 7941 1  -60.066833  21.135700 -1.675
 7942 1  -60.053820  22.555641 -1.675
 7943 1  -58.817609  23.254341 -1.675
 7944 1  -61.303043  20.436999 -1.675
 7945 1  -62.526241  21.158239 -1.675
 7946 1  -62.513229  22.578179 -1.675
 7947 1  -61.277018  23.276880 -1.675
 7948 1  -63.762452  20.459538 -1.675
 7949 1  -64.985650  21.180778 -1.675
 7950 1  -64.972638  22.600718 -1.675
 7951 1  -63.736427  23.299419 -1.675
 7952 1  -66.221861  20.482077 -1.675
 7953 1  -67.445059  21.203316 -1.675
 7954 1  -67.432046  22.623257 -1.675
 7955 1  -66.195836  23.321958 -1.675
 7956 1  -68.681270  20.504616 -1.675
 7957 1  -69.904468  21.225855 -1.675
 7958 1  -69.891455  22.645796 -1.675
 7959 1  -68.655245  23.344496 -1.675
 7960 1  -71.140679  20.527154 -1.675
 7961 1  -72.363877  21.248394 -1.675
 7962 1  -72.350864  22.668334 -1.675
 7963 1  -71.114653  23.367035 -1.675
 7964 1  -73.600088  20.549693 -1.675
 7965 1  -74.823286  21.270933 -1.675
 7966 1  -74.810273  22.690873 -1.675
 7967 1  -73.574062  23.389574 -1.675
 7968 1  -76.059497  20.572232 -1.675
 7969 1  -77.282695  21.293471 -1.675
 7970 1  -77.269682  22.713412 -1.675
 7971 1  -76.033471  23.412113 -1.675
 7972 1  -78.518906  20.594771 -1.675
 7973 1  -79.742104  21.316010 -1.675
 7974 1  -79.729091  22.735951 -1.675
 7975 1  -78.492880  23.434651 -1.675
 7976 1  -80.978314  20.617309 -1.675
 7977 1  -82.201512  21.338549 -1.675
 7978 1  -82.188500  22.758489 -1.675
 7979 1  -80.952289  23.457190 -1.675
 7980 1  -83.437723  20.639848 -1.675
 7981 1  -84.660921  21.361088 -1.675
 7982 1  -84.647909  22.781028 -1.675
 7983 1  -83.411698  23.479729 -1.675
 7984 1  -85.897132  20.662387 -1.675
 7985 1  -87.120330  21.383626 -1.675
 7986 1  -87.107317  22.803567 -1.675
 7987 1  -85.871107  23.502268 -1.675
 7988 1  -88.356541  20.684926 -1.675
 7989 1  -89.579739  21.406165 -1.675
 7990 1  -89.566726  22.826105 -1.675
 7991 1  -88.330516  23.524806 -1.675
 7992 1  -90.815950  20.707464 -1.675
 7993 1  -92.039148  21.428704 -1.675
 7994 1  -92.026135  22.848644 -1.675
 7995 1  -90.789924  23.547345 -1.675
 7996 1  -93.275359  20.730003 -1.675
 7997 1  -94.498557  21.451243 -1.675
 7998 1  -94.485544  22.871183 -1.675
 7999 1  -93.249333  23.569884 -1.675
 8000 1  -95.734768  20.752542 -1.675
 8001 1  -96.957966  21.473781 -1.675
 8002 1  -96.944953  22.893722 -1.675
 8003 1  -95.708742  23.592422 -1.675
 8004 1  -98.194176  20.775080 -1.675
 8005 1  -99.417375  21.496320 -1.675
 8006 1  -99.404362  22.916260 -1.675
 8007 1  -98.168151  23.614961 -1.675
 8008 1 -100.653585  20.797619 -1.675
 8009 1 -101.876783  21.518859 -1.675
 8010 1 -101.863771  22.938799 -1.675
 8011 1 -100.627560  23.637500 -1.675
 8012 1 -103.112994  20.820158 -1.675
 8013 1 -104.336192  21.541398 -1.675
 8014 1 -104.323180  22.961338 -1.675
 8015 1 -103.086969  23.660039 -1.675
 8016 1 -105.572403  20.842697 -1.675
 8017 1 -106.795601  21.563936 -1.675
 8018 1 -106.782588  22.983877 -1.675
 8019 1 -105.546378  23.682577 -1.675
 8020 1 -108.031812  20.865235 -1.675
 8021 1 -109.255010  21.586475 -1.675
 8022 1 -109.241997  23.006415 -1.675
 8023 1 -108.005786  23.705116 -1.675
 8024 1 -110.491221  20.887774 -1.675
 8025 1 -111.714419  21.609014 -1.675
 8026 1 -111.701406  23.028954 -1.675
 8027 1 -110.465195  23.727655 -1.675
 8028 1 -112.950630  20.910313 -1.675
 8029 1 -114.173828  21.631552 -1.675
 8030 1 -114.160815  23.051493 -1.675
 8031 1 -112.924604  23.750194 -1.675
 8032 1 -115.410039  20.932852 -1.675
 8033 1 -115.384013  23.772732 -1.675
 8034 1  115.813434  23.074032 -1.675
 8035 1  114.590236  23.795271 -1.675
 8036 1  114.603248  25.215211 -1.675
 8037 1  115.839459  25.913912 -1.675
 8038 1  113.354025  23.096570 -1.675
 8039 1  112.130827  23.817810 -1.675
 8040 1  112.143840  25.237750 -1.675
 8041 1  113.380050  25.936451 -1.675
 8042 1  110.894616  23.119109 -1.675
 8043 1  109.671418  23.840349 -1.675
 8044 1  109.684431  25.260289 -1.675
 8045 1  110.920641  25.958990 -1.675
 8046 1  108.435207  23.141648 -1.675
 8047 1  107.212009  23.862887 -1.675
 8048 1  107.225022  25.282828 -1.675
 8049 1  108.461233  25.981529 -1.675
 8050 1  105.975798  23.164187 -1.675
 8051 1  104.752600  23.885426 -1.675
 8052 1  104.765613  25.305366 -1.675
 8053 1  106.001824  26.004067 -1.675
 8054 1  103.516389  23.186725 -1.675
 8055 1  102.293191  23.907965 -1.675
 8056 1  102.306204  25.327905 -1.675
 8057 1  103.542415  26.026606 -1.675
 8058 1  101.056980  23.209264 -1.675
 8059 1   99.833782  23.930504 -1.675
 8060 1   99.846795  25.350444 -1.675
 8061 1  101.083006  26.049145 -1.675
 8062 1   98.597572  23.231803 -1.675
 8063 1   97.374374  23.953042 -1.675
 8064 1   97.387386  25.372983 -1.675
 8065 1   98.623597  26.071683 -1.675
 8066 1   96.138163  23.254341 -1.675
 8067 1   94.914965  23.975581 -1.675
 8068 1   94.927977  25.395521 -1.675
 8069 1   96.164188  26.094222 -1.675
 8070 1   93.678754  23.276880 -1.675
 8071 1   92.455556  23.998120 -1.675
 8072 1   92.468569  25.418060 -1.675
 8073 1   93.704779  26.116761 -1.675
 8074 1   91.219345  23.299419 -1.675
 8075 1   89.996147  24.020658 -1.675
 8076 1   90.009160  25.440599 -1.675
 8077 1   91.245370  26.139300 -1.675
 8078 1   88.759936  23.321958 -1.675
 8079 1   87.536738  24.043197 -1.675
 8080 1   87.549751  25.463138 -1.675
 8081 1   88.785962  26.161838 -1.675
 8082 1   86.300527  23.344496 -1.675
 8083 1   85.077329  24.065736 -1.675
 8084 1   85.090342  25.485676 -1.675
 8085 1   86.326553  26.184377 -1.675
 8086 1   83.841118  23.367035 -1.675
 8087 1   82.617920  24.088275 -1.675
 8088 1   82.630933  25.508215 -1.675
 8089 1   83.867144  26.206916 -1.675
 8090 1   81.381709  23.389574 -1.675
 8091 1   80.158511  24.110813 -1.675
 8092 1   80.171524  25.530754 -1.675
 8093 1   81.407735  26.229455 -1.675
 8094 1   78.922301  23.412113 -1.675
 8095 1   77.699103  24.133352 -1.675
 8096 1   77.712115  25.553293 -1.675
 8097 1   78.948326  26.251993 -1.675
 8098 1   76.462892  23.434651 -1.675
 8099 1   75.239694  24.155891 -1.675
 8100 1   75.252706  25.575831 -1.675
 8101 1   76.488917  26.274532 -1.675
 8102 1   74.003483  23.457190 -1.675
 8103 1   72.780285  24.178430 -1.675
 8104 1   72.793298  25.598370 -1.675
 8105 1   74.029508  26.297071 -1.675
 8106 1   71.544074  23.479729 -1.675
 8107 1   70.320876  24.200968 -1.675
 8108 1   70.333889  25.620909 -1.675
 8109 1   71.570099  26.319610 -1.675
 8110 1   69.084665  23.502268 -1.675
 8111 1   67.861467  24.223507 -1.675
 8112 1   67.874480  25.643447 -1.675
 8113 1   69.110691  26.342148 -1.675
 8114 1   66.625256  23.524806 -1.675
 8115 1   65.402058  24.246046 -1.675
 8116 1   65.415071  25.665986 -1.675
 8117 1   66.651282  26.364687 -1.675
 8118 1   64.165847  23.547345 -1.675
 8119 1   62.942649  24.268585 -1.675
 8120 1   62.955662  25.688525 -1.675
 8121 1   64.191873  26.387226 -1.675
 8122 1   61.706439  23.569884 -1.675
 8123 1   60.483240  24.291123 -1.675
 8124 1   60.496253  25.711064 -1.675
 8125 1   61.732464  26.409765 -1.675
 8126 1   59.247030  23.592422 -1.675
 8127 1   58.023832  24.313662 -1.675
 8128 1   58.036844  25.733602 -1.675
 8129 1   59.273055  26.432303 -1.675
 8130 1   56.787621  23.614961 -1.675
 8131 1   55.564423  24.336201 -1.675
 8132 1   55.577435  25.756141 -1.675
 8133 1   56.813646  26.454842 -1.675
 8134 1   54.328212  23.637500 -1.675
 8135 1   53.105014  24.358740 -1.675
 8136 1   53.118027  25.778680 -1.675
 8137 1   54.354237  26.477381 -1.675
 8138 1   51.868803  23.660039 -1.675
 8139 1   50.645605  24.381278 -1.675
 8140 1   50.658618  25.801219 -1.675
 8141 1   51.894828  26.499919 -1.675
 8142 1   49.409394  23.682577 -1.675
 8143 1   48.186196  24.403817 -1.675
 8144 1   48.199209  25.823757 -1.675
 8145 1   49.435420  26.522458 -1.675
 8146 1   46.949985  23.705116 -1.675
 8147 1   45.726787  24.426356 -1.675
 8148 1   45.739800  25.846296 -1.675
 8149 1   46.976011  26.544997 -1.675
 8150 1   44.490576  23.727655 -1.675
 8151 1   43.267378  24.448894 -1.675
 8152 1   43.280391  25.868835 -1.675
 8153 1   44.516602  26.567536 -1.675
 8154 1   42.031168  23.750194 -1.675
 8155 1   40.807969  24.471433 -1.675
 8156 1   40.820982  25.891374 -1.675
 8157 1   42.057193  26.590074 -1.675
 8158 1   39.571759  23.772732 -1.675
 8159 1   38.348561  24.493972 -1.675
 8160 1   38.361573  25.913912 -1.675
 8161 1   39.597784  26.612613 -1.675
 8162 1   37.112350  23.795271 -1.675
 8163 1   35.889152  24.516511 -1.675
 8164 1   35.902164  25.936451 -1.675
 8165 1   37.138375  26.635152 -1.675
 8166 1   34.652941  23.817810 -1.675
 8167 1   33.429743  24.539049 -1.675
 8168 1   33.442756  25.958990 -1.675
 8169 1   34.678966  26.657691 -1.675
 8170 1   32.193532  23.840349 -1.675
 8171 1   30.970334  24.561588 -1.675
 8172 1   30.983347  25.981529 -1.675
 8173 1   32.219558  26.680229 -1.675
 8174 1   29.734123  23.862887 -1.675
 8175 1   28.510925  24.584127 -1.675
 8176 1   28.523938  26.004067 -1.675
 8177 1   29.760149  26.702768 -1.675
 8178 1   27.274714  23.885426 -1.675
 8179 1   26.051516  24.606666 -1.675
 8180 1   26.064529  26.026606 -1.675
 8181 1   27.300740  26.725307 -1.675
 8182 1   24.815305  23.907965 -1.675
 8183 1   23.592107  24.629204 -1.675
 8184 1   23.605120  26.049145 -1.675
 8185 1   24.841331  26.747846 -1.675
 8186 1   22.355897  23.930504 -1.675
 8187 1   21.132698  24.651743 -1.675
 8188 1   21.145711  26.071683 -1.675
 8189 1   22.381922  26.770384 -1.675
 8190 1   19.896488  23.953042 -1.675
 8191 1   18.673290  24.674282 -1.675
 8192 1   18.686302  26.094222 -1.675
 8193 1   19.922513  26.792923 -1.675
 8194 1   17.437079  23.975581 -1.675
 8195 1   16.213881  24.696821 -1.675
 8196 1   16.226893  26.116761 -1.675
 8197 1   17.463104  26.815462 -1.675
 8198 1   14.977670  23.998120 -1.675
 8199 1   13.754472  24.719359 -1.675
 8200 1   13.767485  26.139300 -1.675
 8201 1   15.003695  26.838000 -1.675
 8202 1   12.518261  24.020658 -1.675
 8203 1   11.295063  24.741898 -1.675
 8204 1   11.308076  26.161838 -1.675
 8205 1   12.544287  26.860539 -1.675
 8206 1   10.058852  24.043197 -1.675
 8207 1    8.835654  24.764437 -1.675
 8208 1    8.848667  26.184377 -1.675
 8209 1   10.084878  26.883078 -1.675
 8210 1    7.599443  24.065736 -1.675
 8211 1    6.376245  24.786976 -1.675
 8212 1    6.389258  26.206916 -1.675
 8213 1    7.625469  26.905617 -1.675
 8214 1    5.140034  24.088275 -1.675
 8215 1    3.916836  24.809514 -1.675
 8216 1    3.929849  26.229455 -1.675
 8217 1    5.166060  26.928155 -1.675
 8218 1    2.680626  24.110813 -1.675
 8219 1    1.457427  24.832053 -1.675
 8220 1    1.470440  26.251993 -1.675
 8221 1    2.706651  26.950694 -1.675
 8222 1    0.221217  24.133352 -1.675
 8223 1   -1.001981  24.854592 -1.675
 8224 1   -0.988969  26.274532 -1.675
 8225 1    0.247242  26.973233 -1.675
 8226 1   -2.238192  24.155891 -1.675
 8227 1   -3.461390  24.877130 -1.675
 8228 1   -3.448378  26.297071 -1.675
 8229 1   -2.212167  26.995772 -1.675
 8230 1   -4.697601  24.178430 -1.675
 8231 1   -5.920799  24.899669 -1.675
 8232 1   -5.907786  26.319610 -1.675
 8233 1   -4.671576  27.018310 -1.675
 8234 1   -7.157010  24.200968 -1.675
 8235 1   -8.380208  24.922208 -1.675
 8236 1   -8.367195  26.342148 -1.675
 8237 1   -7.130984  27.040849 -1.675
 8238 1   -9.616419  24.223507 -1.675
 8239 1  -10.839617  24.944747 -1.675
 8240 1  -10.826604  26.364687 -1.675
 8241 1   -9.590393  27.063388 -1.675
 8242 1  -12.075828  24.246046 -1.675
 8243 1  -13.299026  24.967285 -1.675
 8244 1  -13.286013  26.387226 -1.675
 8245 1  -12.049802  27.085927 -1.675
 8246 1  -14.535237  24.268585 -1.675
 8247 1  -15.758435  24.989824 -1.675
 8248 1  -15.745422  26.409765 -1.675
 8249 1  -14.509211  27.108465 -1.675
 8250 1  -16.994645  24.291123 -1.675
 8251 1  -18.217844  25.012363 -1.675
 8252 1  -18.204831  26.432303 -1.675
 8253 1  -16.968620  27.131004 -1.675
 8254 1  -19.454054  24.313662 -1.675
 8255 1  -20.677252  25.034902 -1.675
 8256 1  -20.664240  26.454842 -1.675
 8257 1  -19.428029  27.153543 -1.675
 8258 1  -21.913463  24.336201 -1.675
 8259 1  -23.136661  25.057440 -1.675
 8260 1  -23.123649  26.477381 -1.675
 8261 1  -21.887438  27.176082 -1.675
 8262 1  -24.372872  24.358740 -1.675
 8263 1  -25.596070  25.079979 -1.675
 8264 1  -25.583057  26.499919 -1.675
 8265 1  -24.346847  27.198620 -1.675
 8266 1  -26.832281  24.381278 -1.675
 8267 1  -28.055479  25.102518 -1.675
 8268 1  -28.042466  26.522458 -1.675
 8269 1  -26.806255  27.221159 -1.675
 8270 1  -29.291690  24.403817 -1.675
 8271 1  -30.514888  25.125057 -1.675
 8272 1  -30.501875  26.544997 -1.675
 8273 1  -29.265664  27.243698 -1.675
 8274 1  -31.751099  24.426356 -1.675
 8275 1  -32.974297  25.147595 -1.675
 8276 1  -32.961284  26.567536 -1.675
 8277 1  -31.725073  27.266236 -1.675
 8278 1  -34.210508  24.448894 -1.675
 8279 1  -35.433706  25.170134 -1.675
 8280 1  -35.420693  26.590074 -1.675
 8281 1  -34.184482  27.288775 -1.675
 8282 1  -36.669916  24.471433 -1.675
 8283 1  -37.893114  25.192673 -1.675
 8284 1  -37.880102  26.612613 -1.675
 8285 1  -36.643891  27.311314 -1.675
 8286 1  -39.129325  24.493972 -1.675
 8287 1  -40.352523  25.215211 -1.675
 8288 1  -40.339511  26.635152 -1.675
 8289 1  -39.103300  27.333853 -1.675
 8290 1  -41.588734  24.516511 -1.675
 8291 1  -42.811932  25.237750 -1.675
 8292 1  -42.798919  26.657691 -1.675
 8293 1  -41.562709  27.356391 -1.675
 8294 1  -44.048143  24.539049 -1.675
 8295 1  -45.271341  25.260289 -1.675
 8296 1  -45.258328  26.680229 -1.675
 8297 1  -44.022118  27.378930 -1.675
 8298 1  -46.507552  24.561588 -1.675
 8299 1  -47.730750  25.282828 -1.675
 8300 1  -47.717737  26.702768 -1.675
 8301 1  -46.481526  27.401469 -1.675
 8302 1  -48.966961  24.584127 -1.675
 8303 1  -50.190159  25.305366 -1.675
 8304 1  -50.177146  26.725307 -1.675
 8305 1  -48.940935  27.424008 -1.675
 8306 1  -51.426370  24.606666 -1.675
 8307 1  -52.649568  25.327905 -1.675
 8308 1  -52.636555  26.747846 -1.675
 8309 1  -51.400344  27.446546 -1.675
 8310 1  -53.885779  24.629204 -1.675
 8311 1  -55.108977  25.350444 -1.675
 8312 1  -55.095964  26.770384 -1.675
 8313 1  -53.859753  27.469085 -1.675
 8314 1  -56.345187  24.651743 -1.675
 8315 1  -57.568385  25.372983 -1.675
 8316 1  -57.555373  26.792923 -1.675
 8317 1  -56.319162  27.491624 -1.675
 8318 1  -58.804596  24.674282 -1.675
 8319 1  -60.027794  25.395521 -1.675
 8320 1  -60.014782  26.815462 -1.675
 8321 1  -58.778571  27.514163 -1.675
 8322 1  -61.264005  24.696821 -1.675
 8323 1  -62.487203  25.418060 -1.675
 8324 1  -62.474190  26.838000 -1.675
 8325 1  -61.237980  27.536701 -1.675
 8326 1  -63.723414  24.719359 -1.675
 8327 1  -64.946612  25.440599 -1.675
 8328 1  -64.933599  26.860539 -1.675
 8329 1  -63.697389  27.559240 -1.675
 8330 1  -66.182823  24.741898 -1.675
 8331 1  -67.406021  25.463138 -1.675
 8332 1  -67.393008  26.883078 -1.675
 8333 1  -66.156797  27.581779 -1.675
 8334 1  -68.642232  24.764437 -1.675
 8335 1  -69.865430  25.485676 -1.675
 8336 1  -69.852417  26.905617 -1.675
 8337 1  -68.616206  27.604318 -1.675
 8338 1  -71.101641  24.786976 -1.675
 8339 1  -72.324839  25.508215 -1.675
 8340 1  -72.311826  26.928155 -1.675
 8341 1  -71.075615  27.626856 -1.675
 8342 1  -73.561050  24.809514 -1.675
 8343 1  -74.784248  25.530754 -1.675
 8344 1  -74.771235  26.950694 -1.675
 8345 1  -73.535024  27.649395 -1.675
 8346 1  -76.020458  24.832053 -1.675
 8347 1  -77.243656  25.553293 -1.675
 8348 1  -77.230644  26.973233 -1.675
 8349 1  -75.994433  27.671934 -1.675
 8350 1  -78.479867  24.854592 -1.675
 8351 1  -79.703065  25.575831 -1.675
 8352 1  -79.690053  26.995772 -1.675
 8353 1  -78.453842  27.694472 -1.675
 8354 1  -80.939276  24.877130 -1.675
 8355 1  -82.162474  25.598370 -1.675
 8356 1  -82.149461  27.018310 -1.675
 8357 1  -80.913251  27.717011 -1.675
 8358 1  -83.398685  24.899669 -1.675
 8359 1  -84.621883  25.620909 -1.675
 8360 1  -84.608870  27.040849 -1.675
 8361 1  -83.372660  27.739550 -1.675
 8362 1  -85.858094  24.922208 -1.675
 8363 1  -87.081292  25.643447 -1.675
 8364 1  -87.068279  27.063388 -1.675
 8365 1  -85.832068  27.762089 -1.675
 8366 1  -88.317503  24.944747 -1.675
 8367 1  -89.540701  25.665986 -1.675
 8368 1  -89.527688  27.085927 -1.675
 8369 1  -88.291477  27.784627 -1.675
 8370 1  -90.776912  24.967285 -1.675
 8371 1  -92.000110  25.688525 -1.675
 8372 1  -91.987097  27.108465 -1.675
 8373 1  -90.750886  27.807166 -1.675
 8374 1  -93.236321  24.989824 -1.675
 8375 1  -94.459519  25.711064 -1.675
 8376 1  -94.446506  27.131004 -1.675
 8377 1  -93.210295  27.829705 -1.675
 8378 1  -95.695729  25.012363 -1.675
 8379 1  -96.918927  25.733602 -1.675
 8380 1  -96.905915  27.153543 -1.675
 8381 1  -95.669704  27.852244 -1.675
 8382 1  -98.155138  25.034902 -1.675
 8383 1  -99.378336  25.756141 -1.675
 8384 1  -99.365324  27.176082 -1.675
 8385 1  -98.129113  27.874782 -1.675
 8386 1 -100.614547  25.057440 -1.675
 8387 1 -101.837745  25.778680 -1.675
 8388 1 -101.824732  27.198620 -1.675
 8389 1 -100.588522  27.897321 -1.675
 8390 1 -103.073956  25.079979 -1.675
 8391 1 -104.297154  25.801219 -1.675
 8392 1 -104.284141  27.221159 -1.675
 8393 1 -103.047931  27.919860 -1.675
 8394 1 -105.533365  25.102518 -1.675
 8395 1 -106.756563  25.823757 -1.675
 8396 1 -106.743550  27.243698 -1.675
 8397 1 -105.507339  27.942399 -1.675
 8398 1 -107.992774  25.125057 -1.675
 8399 1 -109.215972  25.846296 -1.675
 8400 1 -109.202959  27.266236 -1.675
 8401 1 -107.966748  27.964937 -1.675
 8402 1 -110.452183  25.147595 -1.675
 8403 1 -111.675381  25.868835 -1.675
 8404 1 -111.662368  27.288775 -1.675
 8405 1 -110.426157  27.987476 -1.675
 8406 1 -112.911591  25.170134 -1.675
 8407 1 -114.134790  25.891374 -1.675
 8408 1 -114.121777  27.311314 -1.675
 8409 1 -112.885566  28.010015 -1.675
 8410 1 -115.371000  25.192673 -1.675
 8411 1 -115.344975  28.032554 -1.675
 8412 1  115.852472  27.333853 -1.675
 8413 1  114.629274  28.055092 -1.675
 8414 1  114.642287  29.475033 -1.675
 8415 1  115.878497  30.173733 -1.675
 8416 1  113.393063  27.356391 -1.675
 8417 1  112.169865  28.077631 -1.675
 8418 1  112.182878  29.497571 -1.675
 8419 1  113.419089  30.196272 -1.675
 8420 1  110.933654  27.378930 -1.675
 8421 1  109.710456  28.100170 -1.675
 8422 1  109.723469  29.520110 -1.675
 8423 1  110.959680  30.218811 -1.675
 8424 1  108.474245  27.401469 -1.675
 8425 1  107.251047  28.122708 -1.675
 8426 1  107.264060  29.542649 -1.675
 8427 1  108.500271  30.241350 -1.675
 8428 1  106.014836  27.424008 -1.675
 8429 1  104.791638  28.145247 -1.675
 8430 1  104.804651  29.565188 -1.675
 8431 1  106.040862  30.263888 -1.675
 8432 1  103.555428  27.446546 -1.675
 8433 1  102.332230  28.167786 -1.675
 8434 1  102.345242  29.587726 -1.675
 8435 1  103.581453  30.286427 -1.675
 8436 1  101.096019  27.469085 -1.675
 8437 1   99.872821  28.190325 -1.675
 8438 1   99.885833  29.610265 -1.675
 8439 1  101.122044  30.308966 -1.675
 8440 1   98.636610  27.491624 -1.675
 8441 1   97.413412  28.212863 -1.675
 8442 1   97.426425  29.632804 -1.675
 8443 1   98.662635  30.331505 -1.675
 8444 1   96.177201  27.514163 -1.675
 8445 1   94.954003  28.235402 -1.675
 8446 1   94.967016  29.655343 -1.675
 8447 1   96.203226  30.354043 -1.675
 8448 1   93.717792  27.536701 -1.675
 8449 1   92.494594  28.257941 -1.675
 8450 1   92.507607  29.677881 -1.675
 8451 1   93.743818  30.376582 -1.675
 8452 1   91.258383  27.559240 -1.675
 8453 1   90.035185  28.280480 -1.675
 8454 1   90.048198  29.700420 -1.675
 8455 1   91.284409  30.399121 -1.675
 8456 1   88.798974  27.581779 -1.675
 8457 1   87.575776  28.303018 -1.675
 8458 1   87.588789  29.722959 -1.675
 8459 1   88.825000  30.421660 -1.675
 8460 1   86.339565  27.604318 -1.675
 8461 1   85.116367  28.325557 -1.675
 8462 1   85.129380  29.745497 -1.675
 8463 1   86.365591  30.444198 -1.675
 8464 1   83.880157  27.626856 -1.675
 8465 1   82.656959  28.348096 -1.675
 8466 1   82.669971  29.768036 -1.675
 8467 1   83.906182  30.466737 -1.675
 8468 1   81.420748  27.649395 -1.675
 8469 1   80.197550  28.370635 -1.675
 8470 1   80.210562  29.790575 -1.675
 8471 1   81.446773  30.489276 -1.675
 8472 1   78.961339  27.671934 -1.675
 8473 1   77.738141  28.393173 -1.675
 8474 1   77.751154  29.813114 -1.675
 8475 1   78.987364  30.511814 -1.675
 8476 1   76.501930  27.694472 -1.675
 8477 1   75.278732  28.415712 -1.675
 8478 1   75.291745  29.835652 -1.675
 8479 1   76.527955  30.534353 -1.675
 8480 1   74.042521  27.717011 -1.675
 8481 1   72.819323  28.438251 -1.675
 8482 1   72.832336  29.858191 -1.675
 8483 1   74.068547  30.556892 -1.675
 8484 1   71.583112  27.739550 -1.675
 8485 1   70.359914  28.460789 -1.675
 8486 1   70.372927  29.880730 -1.675
 8487 1   71.609138  30.579431 -1.675
 8488 1   69.123703  27.762089 -1.675
 8489 1   67.900505  28.483328 -1.675
 8490 1   67.913518  29.903269 -1.675
 8491 1   69.149729  30.601969 -1.675
 8492 1   66.664294  27.784627 -1.675
 8493 1   65.441096  28.505867 -1.675
 8494 1   65.454109  29.925807 -1.675
 8495 1   66.690320  30.624508 -1.675
 8496 1   64.204886  27.807166 -1.675
 8497 1   62.981688  28.528406 -1.675
 8498 1   62.994700  29.948346 -1.675
 8499 1   64.230911  30.647047 -1.675
 8500 1   61.745477  27.829705 -1.675
 8501 1   60.522279  28.550944 -1.675
 8502 1   60.535291  29.970885 -1.675
 8503 1   61.771502  30.669586 -1.675
 8504 1   59.286068  27.852244 -1.675
 8505 1   58.062870  28.573483 -1.675
 8506 1   58.075883  29.993424 -1.675
 8507 1   59.312093  30.692124 -1.675
 8508 1   56.826659  27.874782 -1.675
 8509 1   55.603461  28.596022 -1.675
 8510 1   55.616474  30.015962 -1.675
 8511 1   56.852684  30.714663 -1.675
 8512 1   54.367250  27.897321 -1.675
 8513 1   53.144052  28.618561 -1.675
 8514 1   53.157065  30.038501 -1.675
 8515 1   54.393276  30.737202 -1.675
 8516 1   51.907841  27.919860 -1.675
 8517 1   50.684643  28.641099 -1.675
 8518 1   50.697656  30.061040 -1.675
 8519 1   51.933867  30.759741 -1.675
 8520 1   49.448432  27.942399 -1.675
 8521 1   48.225234  28.663638 -1.675
 8522 1   48.238247  30.083578 -1.675
 8523 1   49.474458  30.782279 -1.675
 8524 1   46.989023  27.964937 -1.675
 8525 1   45.765825  28.686177 -1.675
 8526 1   45.778838  30.106117 -1.675
 8527 1   47.015049  30.804818 -1.675
 8528 1   44.529615  27.987476 -1.675
 8529 1   43.306417  28.708716 -1.675
 8530 1   43.319429  30.128656 -1.675
 8531 1   44.555640  30.827357 -1.675
 8532 1   42.070206  28.010015 -1.675
 8533 1   40.847008  28.731254 -1.675
 8534 1   40.860020  30.151195 -1.675
 8535 1   42.096231  30.849896 -1.675
 8536 1   39.610797  28.032554 -1.675
 8537 1   38.387599  28.753793 -1.675
 8538 1   38.400612  30.173733 -1.675
 8539 1   39.636822  30.872434 -1.675
 8540 1   37.151388  28.055092 -1.675
 8541 1   35.928190  28.776332 -1.675
 8542 1   35.941203  30.196272 -1.675
 8543 1   37.177413  30.894973 -1.675
 8544 1   34.691979  28.077631 -1.675
 8545 1   33.468781  28.798871 -1.675
 8546 1   33.481794  30.218811 -1.675
 8547 1   34.718005  30.917512 -1.675
 8548 1   32.232570  28.100170 -1.675
 8549 1   31.009372  28.821409 -1.675
 8550 1   31.022385  30.241350 -1.675
 8551 1   32.258596  30.940050 -1.675
 8552 1   29.773161  28.122708 -1.675
 8553 1   28.549963  28.843948 -1.675
 8554 1   28.562976  30.263888 -1.675
 8555 1   29.799187  30.962589 -1.675
 8556 1   27.313753  28.145247 -1.675
 8557 1   26.090554  28.866487 -1.675
 8558 1   26.103567  30.286427 -1.675
 8559 1   27.339778  30.985128 -1.675
 8560 1   24.854344  28.167786 -1.675
 8561 1   23.631146  28.889025 -1.675
 8562 1   23.644158  30.308966 -1.675
 8563 1   24.880369  31.007667 -1.675
 8564 1   22.394935  28.190325 -1.675
 8565 1   21.171737  28.911564 -1.675
 8566 1   21.184749  30.331505 -1.675
 8567 1   22.420960  31.030205 -1.675
 8568 1   19.935526  28.212863 -1.675
 8569 1   18.712328  28.934103 -1.675
 8570 1   18.725341  30.354043 -1.675
 8571 1   19.961551  31.052744 -1.675
 8572 1   17.476117  28.235402 -1.675
 8573 1   16.252919  28.956642 -1.675
 8574 1   16.265932  30.376582 -1.675
 8575 1   17.502143  31.075283 -1.675
 8576 1   15.016708  28.257941 -1.675
 8577 1   13.793510  28.979180 -1.675
 8578 1   13.806523  30.399121 -1.675
 8579 1   15.042734  31.097822 -1.675
 8580 1   12.557299  28.280480 -1.675
 8581 1   11.334101  29.001719 -1.675
 8582 1   11.347114  30.421660 -1.675
 8583 1   12.583325  31.120360 -1.675
 8584 1   10.097890  28.303018 -1.675
 8585 1    8.874692  29.024258 -1.675
 8586 1    8.887705  30.444198 -1.675
 8587 1   10.123916  31.142899 -1.675
 8588 1    7.638482  28.325557 -1.675
 8589 1    6.415283  29.046797 -1.675
 8590 1    6.428296  30.466737 -1.675
 8591 1    7.664507  31.165438 -1.675
 8592 1    5.179073  28.348096 -1.675
 8593 1    3.955875  29.069335 -1.675
 8594 1    3.968887  30.489276 -1.675
 8595 1    5.205098  31.187977 -1.675
 8596 1    2.719664  28.370635 -1.675
 8597 1    1.496466  29.091874 -1.675
 8598 1    1.509478  30.511814 -1.675
 8599 1    2.745689  31.210515 -1.675
 8600 1    0.260255  28.393173 -1.675
 8601 1   -0.962943  29.114413 -1.675
 8602 1   -0.949930  30.534353 -1.675
 8603 1    0.286280  31.233054 -1.675
 8604 1   -2.199154  28.415712 -1.675
 8605 1   -3.422352  29.136952 -1.675
 8606 1   -3.409339  30.556892 -1.675
 8607 1   -2.173128  31.255593 -1.675
 8608 1   -4.658563  28.438251 -1.675
 8609 1   -5.881761  29.159490 -1.675
 8610 1   -5.868748  30.579431 -1.675
 8611 1   -4.632537  31.278132 -1.675
 8612 1   -7.117972  28.460789 -1.675
 8613 1   -8.341170  29.182029 -1.675
 8614 1   -8.328157  30.601969 -1.675
 8615 1   -7.091946  31.300670 -1.675
 8616 1   -9.577381  28.483328 -1.675
 8617 1  -10.800579  29.204568 -1.675
 8618 1  -10.787566  30.624508 -1.675
 8619 1   -9.551355  31.323209 -1.675
 8620 1  -12.036789  28.505867 -1.675
 8621 1  -13.259988  29.227107 -1.675
 8622 1  -13.246975  30.647047 -1.675
 8623 1  -12.010764  31.345748 -1.675
 8624 1  -14.496198  28.528406 -1.675
 8625 1  -15.719396  29.249645 -1.675
 8626 1  -15.706384  30.669586 -1.675
 8627 1  -14.470173  31.368286 -1.675
 8628 1  -16.955607  28.550944 -1.675
 8629 1  -18.178805  29.272184 -1.675
 8630 1  -18.165793  30.692124 -1.675
 8631 1  -16.929582  31.390825 -1.675
 8632 1  -19.415016  28.573483 -1.675
 8633 1  -20.638214  29.294723 -1.675
 8634 1  -20.625201  30.714663 -1.675
 8635 1  -19.388991  31.413364 -1.675
 8636 1  -21.874425  28.596022 -1.675
 8637 1  -23.097623  29.317261 -1.675
 8638 1  -23.084610  30.737202 -1.675
 8639 1  -21.848399  31.435903 -1.675
 8640 1  -24.333834  28.618561 -1.675
 8641 1  -25.557032  29.339800 -1.675
 8642 1  -25.544019  30.759741 -1.675
 8643 1  -24.307808  31.458441 -1.675
 8644 1  -26.793243  28.641099 -1.675
 8645 1  -28.016441  29.362339 -1.675
 8646 1  -28.003428  30.782279 -1.675
 8647 1  -26.767217  31.480980 -1.675
 8648 1  -29.252652  28.663638 -1.675
 8649 1  -30.475850  29.384878 -1.675
 8650 1  -30.462837  30.804818 -1.675
 8651 1  -29.226626  31.503519 -1.675
 8652 1  -31.712060  28.686177 -1.675
 8653 1  -32.935259  29.407416 -1.675
 8654 1  -32.922246  30.827357 -1.675
 8655 1  -31.686035  31.526058 -1.675
 8656 1  -34.171469  28.708716 -1.675
 8657 1  -35.394667  29.429955 -1.675
 8658 1  -35.381655  30.849896 -1.675
 8659 1  -34.145444  31.548596 -1.675
 8660 1  -36.630878  28.731254 -1.675
 8661 1  -37.854076  29.452494 -1.675
 8662 1  -37.841064  30.872434 -1.675
 8663 1  -36.604853  31.571135 -1.675
 8664 1  -39.090287  28.753793 -1.675
 8665 1  -40.313485  29.475033 -1.675
 8666 1  -40.300472  30.894973 -1.675
 8667 1  -39.064262  31.593674 -1.675
 8668 1  -41.549696  28.776332 -1.675
 8669 1  -42.772894  29.497571 -1.675
 8670 1  -42.759881  30.917512 -1.675
 8671 1  -41.523670  31.616213 -1.675
 8672 1  -44.009105  28.798871 -1.675
 8673 1  -45.232303  29.520110 -1.675
 8674 1  -45.219290  30.940050 -1.675
 8675 1  -43.983079  31.638751 -1.675
 8676 1  -46.468514  28.821409 -1.675
 8677 1  -47.691712  29.542649 -1.675
 8678 1  -47.678699  30.962589 -1.675
 8679 1  -46.442488  31.661290 -1.675
 8680 1  -48.927923  28.843948 -1.675
 8681 1  -50.151121  29.565188 -1.675
 8682 1  -50.138108  30.985128 -1.675
 8683 1  -48.901897  31.683829 -1.675
 8684 1  -51.387331  28.866487 -1.675
 8685 1  -52.610529  29.587726 -1.675
 8686 1  -52.597517  31.007667 -1.675
 8687 1  -51.361306  31.706367 -1.675
 8688 1  -53.846740  28.889025 -1.675
 8689 1  -55.069938  29.610265 -1.675
 8690 1  -55.056926  31.030205 -1.675
 8691 1  -53.820715  31.728906 -1.675
 8692 1  -56.306149  28.911564 -1.675
 8693 1  -57.529347  29.632804 -1.675
 8694 1  -57.516334  31.052744 -1.675
 8695 1  -56.280124  31.751445 -1.675
 8696 1  -58.765558  28.934103 -1.675
 8697 1  -59.988756  29.655343 -1.675
 8698 1  -59.975743  31.075283 -1.675
 8699 1  -58.739533  31.773984 -1.675
 8700 1  -61.224967  28.956642 -1.675
 8701 1  -62.448165  29.677881 -1.675
 8702 1  -62.435152  31.097822 -1.675
 8703 1  -61.198941  31.796522 -1.675
 8704 1  -63.684376  28.979180 -1.675
 8705 1  -64.907574  29.700420 -1.675
 8706 1  -64.894561  31.120360 -1.675
 8707 1  -63.658350  31.819061 -1.675
 8708 1  -66.143785  29.001719 -1.675
 8709 1  -67.366983  29.722959 -1.675
 8710 1  -67.353970  31.142899 -1.675
 8711 1  -66.117759  31.841600 -1.675
 8712 1  -68.603194  29.024258 -1.675
 8713 1  -69.826392  29.745497 -1.675
 8714 1  -69.813379  31.165438 -1.675
 8715 1  -68.577168  31.864139 -1.675
 8716 1  -71.062602  29.046797 -1.675
 8717 1  -72.285800  29.768036 -1.675
 8718 1  -72.272788  31.187977 -1.675
 8719 1  -71.036577  31.886677 -1.675
 8720 1  -73.522011  29.069335 -1.675
 8721 1  -74.745209  29.790575 -1.675
 8722 1  -74.732197  31.210515 -1.675
 8723 1  -73.495986  31.909216 -1.675
 8724 1  -75.981420  29.091874 -1.675
 8725 1  -77.204618  29.813114 -1.675
 8726 1  -77.191605  31.233054 -1.675
 8727 1  -75.955395  31.931755 -1.675
 8728 1  -78.440829  29.114413 -1.675
 8729 1  -79.664027  29.835652 -1.675
 8730 1  -79.651014  31.255593 -1.675
 8731 1  -78.414804  31.954294 -1.675
 8732 1  -80.900238  29.136952 -1.675
 8733 1  -82.123436  29.858191 -1.675
 8734 1  -82.110423  31.278132 -1.675
 8735 1  -80.874212  31.976832 -1.675
 8736 1  -83.359647  29.159490 -1.675
 8737 1  -84.582845  29.880730 -1.675
 8738 1  -84.569832  31.300670 -1.675
 8739 1  -83.333621  31.999371 -1.675
 8740 1  -85.819056  29.182029 -1.675
 8741 1  -87.042254  29.903269 -1.675
 8742 1  -87.029241  31.323209 -1.675
 8743 1  -85.793030  32.021910 -1.675
 8744 1  -88.278465  29.204568 -1.675
 8745 1  -89.501663  29.925807 -1.675
 8746 1  -89.488650  31.345748 -1.675
 8747 1  -88.252439  32.044449 -1.675
 8748 1  -90.737873  29.227107 -1.675
 8749 1  -91.961071  29.948346 -1.675
 8750 1  -91.948059  31.368286 -1.675
 8751 1  -90.711848  32.066987 -1.675
 8752 1  -93.197282  29.249645 -1.675
 8753 1  -94.420480  29.970885 -1.675
 8754 1  -94.407468  31.390825 -1.675
 8755 1  -93.171257  32.089526 -1.675
 8756 1  -95.656691  29.272184 -1.675
 8757 1  -96.879889  29.993424 -1.675
 8758 1  -96.866876  31.413364 -1.675
 8759 1  -95.630666  32.112065 -1.675
 8760 1  -98.116100  29.294723 -1.675
 8761 1  -99.339298  30.015962 -1.675
 8762 1  -99.326285  31.435903 -1.675
 8763 1  -98.090075  32.134603 -1.675
 8764 1 -100.575509  29.317261 -1.675
 8765 1 -101.798707  30.038501 -1.675
 8766 1 -101.785694  31.458441 -1.675
 8767 1 -100.549483  32.157142 -1.675
 8768 1 -103.034918  29.339800 -1.675
 8769 1 -104.258116  30.061040 -1.675
 8770 1 -104.245103  31.480980 -1.675
 8771 1 -103.008892  32.179681 -1.675
 8772 1 -105.494327  29.362339 -1.675
 8773 1 -106.717525  30.083578 -1.675
 8774 1 -106.704512  31.503519 -1.675
 8775 1 -105.468301  32.202220 -1.675
 8776 1 -107.953736  29.384878 -1.675
 8777 1 -109.176934  30.106117 -1.675
 8778 1 -109.163921  31.526058 -1.675
 8779 1 -107.927710  32.224758 -1.675
 8780 1 -110.413144  29.407416 -1.675
 8781 1 -111.636342  30.128656 -1.675
 8782 1 -111.623330  31.548596 -1.675
 8783 1 -110.387119  32.247297 -1.675
 8784 1 -112.872553  29.429955 -1.675
 8785 1 -114.095751  30.151195 -1.675
 8786 1 -114.082739  31.571135 -1.675
 8787 1 -112.846528  32.269836 -1.675
 8788 1 -115.331962  29.452494 -1.675
 8789 1 -115.305937  32.292375 -1.675
 8790 1  115.891510  31.593674 -1.675
 8791 1  114.668312  32.314913 -1.675
 8792 1  114.681325  33.734854 -1.675
 8793 1  115.917536  34.433555 -1.675
 8794 1  113.432101  31.616213 -1.675
 8795 1  112.208903  32.337452 -1.675
 8796 1  112.221916  33.757392 -1.675
 8797 1  113.458127  34.456093 -1.675
 8798 1  110.972692  31.638751 -1.675
 8799 1  109.749494  32.359991 -1.675
 8800 1  109.762507  33.779931 -1.675
 8801 1  110.998718  34.478632 -1.675
 8802 1  108.513284  31.661290 -1.675
 8803 1  107.290085  32.382530 -1.675
 8804 1  107.303098  33.802470 -1.675
 8805 1  108.539309  34.501171 -1.675
 8806 1  106.053875  31.683829 -1.675
 8807 1  104.830677  32.405068 -1.675
 8808 1  104.843689  33.825009 -1.675
 8809 1  106.079900  34.523710 -1.675
 8810 1  103.594466  31.706367 -1.675
 8811 1  102.371268  32.427607 -1.675
 8812 1  102.384280  33.847547 -1.675
 8813 1  103.620491  34.546248 -1.675
 8814 1  101.135057  31.728906 -1.675
 8815 1   99.911859  32.450146 -1.675
 8816 1   99.924872  33.870086 -1.675
 8817 1  101.161082  34.568787 -1.675
 8818 1   98.675648  31.751445 -1.675
 8819 1   97.452450  32.472685 -1.675
 8820 1   97.465463  33.892625 -1.675
 8821 1   98.701674  34.591326 -1.675
 8822 1   96.216239  31.773984 -1.675
 8823 1   94.993041  32.495223 -1.675
 8824 1   95.006054  33.915164 -1.675
 8825 1   96.242265  34.613864 -1.675
 8826 1   93.756830  31.796522 -1.675
 8827 1   92.533632  32.517762 -1.675
 8828 1   92.546645  33.937702 -1.675
 8829 1   93.782856  34.636403 -1.675
 8830 1   91.297421  31.819061 -1.675
 8831 1   90.074223  32.540301 -1.675
 8832 1   90.087236  33.960241 -1.675
 8833 1   91.323447  34.658942 -1.675
 8834 1   88.838013  31.841600 -1.675
 8835 1   87.614815  32.562839 -1.675
 8836 1   87.627827  33.982780 -1.675
 8837 1   88.864038  34.681481 -1.675
 8838 1   86.378604  31.864139 -1.675
 8839 1   85.155406  32.585378 -1.675
 8840 1   85.168418  34.005319 -1.675
 8841 1   86.404629  34.704019 -1.675
 8842 1   83.919195  31.886677 -1.675
 8843 1   82.695997  32.607917 -1.675
 8844 1   82.709010  34.027857 -1.675
 8845 1   83.945220  34.726558 -1.675
 8846 1   81.459786  31.909216 -1.675
 8847 1   80.236588  32.630456 -1.675
 8848 1   80.249601  34.050396 -1.675
 8849 1   81.485811  34.749097 -1.675
 8850 1   79.000377  31.931755 -1.675
 8851 1   77.777179  32.652994 -1.675
 8852 1   77.790192  34.072935 -1.675
 8853 1   79.026403  34.771636 -1.675
 8854 1   76.540968  31.954294 -1.675
 8855 1   75.317770  32.675533 -1.675
 8856 1   75.330783  34.095474 -1.675
 8857 1   76.566994  34.794174 -1.675
 8858 1   74.081559  31.976832 -1.675
 8859 1   72.858361  32.698072 -1.675
 8860 1   72.871374  34.118012 -1.675
 8861 1   74.107585  34.816713 -1.675
 8862 1   71.622150  31.999371 -1.675
 8863 1   70.398952  32.720611 -1.675
 8864 1   70.411965  34.140551 -1.675
 8865 1   71.648176  34.839252 -1.675
 8866 1   69.162742  32.021910 -1.675
 8867 1   67.939544  32.743149 -1.675
 8868 1   67.952556  34.163090 -1.675
 8869 1   69.188767  34.861791 -1.675
 8870 1   66.703333  32.044449 -1.675
 8871 1   65.480135  32.765688 -1.675
 8872 1   65.493147  34.185628 -1.675
 8873 1   66.729358  34.884329 -1.675
 8874 1   64.243924  32.066987 -1.675
 8875 1   63.020726  32.788227 -1.675
 8876 1   63.033739  34.208167 -1.675
 8877 1   64.269949  34.906868 -1.675
 8878 1   61.784515  32.089526 -1.675
 8879 1   60.561317  32.810766 -1.675
 8880 1   60.574330  34.230706 -1.675
 8881 1   61.810540  34.929407 -1.675
 8882 1   59.325106  32.112065 -1.675
 8883 1   58.101908  32.833304 -1.675
 8884 1   58.114921  34.253245 -1.675
 8885 1   59.351132  34.951945 -1.675
 8886 1   56.865697  32.134603 -1.675
 8887 1   55.642499  32.855843 -1.675
 8888 1   55.655512  34.275783 -1.675
 8889 1   56.891723  34.974484 -1.675
 8890 1   54.406288  32.157142 -1.675
 8891 1   53.183090  32.878382 -1.675
 8892 1   53.196103  34.298322 -1.675
 8893 1   54.432314  34.997023 -1.675
 8894 1   51.946879  32.179681 -1.675
 8895 1   50.723681  32.900921 -1.675
 8896 1   50.736694  34.320861 -1.675
 8897 1   51.972905  35.019562 -1.675
 8898 1   49.487471  32.202220 -1.675
 8899 1   48.264273  32.923459 -1.675
 8900 1   48.277285  34.343400 -1.675
 8901 1   49.513496  35.042100 -1.675
 8902 1   47.028062  32.224758 -1.675
 8903 1   45.804864  32.945998 -1.675
 8904 1   45.817876  34.365938 -1.675
 8905 1   47.054087  35.064639 -1.675
 8906 1   44.568653  32.247297 -1.675
 8907 1   43.345455  32.968537 -1.675
 8908 1   43.358468  34.388477 -1.675
 8909 1   44.594678  35.087178 -1.675
 8910 1   42.109244  32.269836 -1.675
 8911 1   40.886046  32.991075 -1.675
 8912 1   40.899059  34.411016 -1.675
 8913 1   42.135269  35.109717 -1.675
 8914 1   39.649835  32.292375 -1.675
 8915 1   38.426637  33.013614 -1.675
 8916 1   38.439650  34.433555 -1.675
 8917 1   39.675861  35.132255 -1.675
 8918 1   37.190426  32.314913 -1.675
 8919 1   35.967228  33.036153 -1.675
 8920 1   35.980241  34.456093 -1.675
 8921 1   37.216452  35.154794 -1.675
 8922 1   34.731017  32.337452 -1.675
 8923 1   33.507819  33.058692 -1.675
 8924 1   33.520832  34.478632 -1.675
 8925 1   34.757043  35.177333 -1.675
 8926 1   32.271608  32.359991 -1.675
 8927 1   31.048410  33.081230 -1.675
 8928 1   31.061423  34.501171 -1.675
 8929 1   32.297634  35.199872 -1.675
 8930 1   29.812200  32.382530 -1.675
 8931 1   28.589002  33.103769 -1.675
 8932 1   28.602014  34.523710 -1.675
 8933 1   29.838225  35.222410 -1.675
 8934 1   27.352791  32.405068 -1.675
 8935 1   26.129593  33.126308 -1.675
 8936 1   26.142605  34.546248 -1.675
 8937 1   27.378816  35.244949 -1.675
 8938 1   24.893382  32.427607 -1.675
 8939 1   23.670184  33.148847 -1.675
 8940 1   23.683197  34.568787 -1.675
 8941 1   24.919407  35.267488 -1.675
 8942 1   22.433973  32.450146 -1.675
 8943 1   21.210775  33.171385 -1.675
 8944 1   21.223788  34.591326 -1.675
 8945 1   22.459998  35.290027 -1.675
 8946 1   19.974564  32.472685 -1.675
 8947 1   18.751366  33.193924 -1.675
 8948 1   18.764379  34.613864 -1.675
 8949 1   20.000590  35.312565 -1.675
 8950 1   17.515155  32.495223 -1.675
 8951 1   16.291957  33.216463 -1.675
 8952 1   16.304970  34.636403 -1.675
 8953 1   17.541181  35.335104 -1.675
 8954 1   15.055746  32.517762 -1.675
 8955 1   13.832548  33.239002 -1.675
 8956 1   13.845561  34.658942 -1.675
 8957 1   15.081772  35.357643 -1.675
 8958 1   12.596338  32.540301 -1.675
 8959 1   11.373139  33.261540 -1.675
 8960 1   11.386152  34.681481 -1.675
 8961 1   12.622363  35.380181 -1.675
 8962 1   10.136929  32.562839 -1.675
 8963 1    8.913731  33.284079 -1.675
 8964 1    8.926743  34.704019 -1.675
 8965 1   10.162954  35.402720 -1.675
 8966 1    7.677520  32.585378 -1.675
 8967 1    6.454322  33.306618 -1.675
 8968 1    6.467334  34.726558 -1.675
 8969 1    7.703545  35.425259 -1.675
 8970 1    5.218111  32.607917 -1.675
 8971 1    3.994913  33.329156 -1.675
 8972 1    4.007926  34.749097 -1.675
 8973 1    5.244136  35.447798 -1.675
 8974 1    2.758702  32.630456 -1.675
 8975 1    1.535504  33.351695 -1.675
 8976 1    1.548517  34.771636 -1.675
 8977 1    2.784728  35.470336 -1.675
 8978 1    0.299293  32.652994 -1.675
 8979 1   -0.923905  33.374234 -1.675
 8980 1   -0.910892  34.794174 -1.675
 8981 1    0.325319  35.492875 -1.675
 8982 1   -2.160116  32.675533 -1.675
 8983 1   -3.383314  33.396773 -1.675
 8984 1   -3.370301  34.816713 -1.675
 8985 1   -2.134090  35.515414 -1.675
 8986 1   -4.619525  32.698072 -1.675
 8987 1   -5.842723  33.419311 -1.675
 8988 1   -5.829710  34.839252 -1.675
 8989 1   -4.593499  35.537953 -1.675
 8990 1   -7.078933  32.720611 -1.675
 8991 1   -8.302132  33.441850 -1.675
 8992 1   -8.289119  34.861791 -1.675
 8993 1   -7.052908  35.560491 -1.675
 8994 1   -9.538342  32.743149 -1.675
 8995 1  -10.761540  33.464389 -1.675
 8996 1  -10.748528  34.884329 -1.675
 8997 1   -9.512317  35.583030 -1.675
 8998 1  -11.997751  32.765688 -1.675
 8999 1  -13.220949  33.486928 -1.675
 9000 1  -13.207937  34.906868 -1.675
 9001 1  -11.971726  35.605569 -1.675
 9002 1  -14.457160  32.788227 -1.675
 9003 1  -15.680358  33.509466 -1.675
 9004 1  -15.667345  34.929407 -1.675
 9005 1  -14.431135  35.628108 -1.675
 9006 1  -16.916569  32.810766 -1.675
 9007 1  -18.139767  33.532005 -1.675
 9008 1  -18.126754  34.951945 -1.675
 9009 1  -16.890543  35.650646 -1.675
 9010 1  -19.375978  32.833304 -1.675
 9011 1  -20.599176  33.554544 -1.675
 9012 1  -20.586163  34.974484 -1.675
 9013 1  -19.349952  35.673185 -1.675
 9014 1  -21.835387  32.855843 -1.675
 9015 1  -23.058585  33.577083 -1.675
 9016 1  -23.045572  34.997023 -1.675
 9017 1  -21.809361  35.695724 -1.675
 9018 1  -24.294796  32.878382 -1.675
 9019 1  -25.517994  33.599621 -1.675
 9020 1  -25.504981  35.019562 -1.675
 9021 1  -24.268770  35.718263 -1.675
 9022 1  -26.754204  32.900921 -1.675
 9023 1  -27.977403  33.622160 -1.675
 9024 1  -27.964390  35.042100 -1.675
 9025 1  -26.728179  35.740801 -1.675
 9026 1  -29.213613  32.923459 -1.675
 9027 1  -30.436811  33.644699 -1.675
 9028 1  -30.423799  35.064639 -1.675
 9029 1  -29.187588  35.763340 -1.675
 9030 1  -31.673022  32.945998 -1.675
 9031 1  -32.896220  33.667238 -1.675
 9032 1  -32.883208  35.087178 -1.675
 9033 1  -31.646997  35.785879 -1.675
 9034 1  -34.132431  32.968537 -1.675
 9035 1  -35.355629  33.689776 -1.675
 9036 1  -35.342616  35.109717 -1.675
 9037 1  -34.106406  35.808417 -1.675
 9038 1  -36.591840  32.991075 -1.675
 9039 1  -37.815038  33.712315 -1.675
 9040 1  -37.802025  35.132255 -1.675
 9041 1  -36.565814  35.830956 -1.675
 9042 1  -39.051249  33.013614 -1.675
 9043 1  -40.274447  33.734854 -1.675
 9044 1  -40.261434  35.154794 -1.675
 9045 1  -39.025223  35.853495 -1.675
 9046 1  -41.510658  33.036153 -1.675
 9047 1  -42.733856  33.757392 -1.675
 9048 1  -42.720843  35.177333 -1.675
 9049 1  -41.484632  35.876034 -1.675
 9050 1  -43.970067  33.058692 -1.675
 9051 1  -45.193265  33.779931 -1.675
 9052 1  -45.180252  35.199872 -1.675
 9053 1  -43.944041  35.898572 -1.675
 9054 1  -46.429475  33.081230 -1.675
 9055 1  -47.652674  33.802470 -1.675
 9056 1  -47.639661  35.222410 -1.675
 9057 1  -46.403450  35.921111 -1.675
 9058 1  -48.888884  33.103769 -1.675
 9059 1  -50.112082  33.825009 -1.675
 9060 1  -50.099070  35.244949 -1.675
 9061 1  -48.862859  35.943650 -1.675
 9062 1  -51.348293  33.126308 -1.675
 9063 1  -52.571491  33.847547 -1.675
 9064 1  -52.558479  35.267488 -1.675
 9065 1  -51.322268  35.966189 -1.675
 9066 1  -53.807702  33.148847 -1.675
 9067 1  -55.030900  33.870086 -1.675
 9068 1  -55.017887  35.290027 -1.675
 9069 1  -53.781677  35.988727 -1.675
 9070 1  -56.267111  33.171385 -1.675
 9071 1  -57.490309  33.892625 -1.675
 9072 1  -57.477296  35.312565 -1.675
 9073 1  -56.241085  36.011266 -1.675
 9074 1  -58.726520  33.193924 -1.675
 9075 1  -59.949718  33.915164 -1.675
 9076 1  -59.936705  35.335104 -1.675
 9077 1  -58.700494  36.033805 -1.675
 9078 1  -61.185929  33.216463 -1.675
 9079 1  -62.409127  33.937702 -1.675
 9080 1  -62.396114  35.357643 -1.675
 9081 1  -61.159903  36.056344 -1.675
 9082 1  -63.645338  33.239002 -1.675
 9083 1  -64.868536  33.960241 -1.675
 9084 1  -64.855523  35.380181 -1.675
 9085 1  -63.619312  36.078882 -1.675
 9086 1  -66.104746  33.261540 -1.675
 9087 1  -67.327944  33.982780 -1.675
 9088 1  -67.314932  35.402720 -1.675
 9089 1  -66.078721  36.101421 -1.675
 9090 1  -68.564155  33.284079 -1.675
 9091 1  -69.787353  34.005319 -1.675
 9092 1  -69.774341  35.425259 -1.675
 9093 1  -68.538130  36.123960 -1.675
 9094 1  -71.023564  33.306618 -1.675
 9095 1  -72.246762  34.027857 -1.675
 9096 1  -72.233749  35.447798 -1.675
 9097 1  -70.997539  36.146499 -1.675
 9098 1  -73.482973  33.329156 -1.675
 9099 1  -74.706171  34.050396 -1.675
 9100 1  -74.693158  35.470336 -1.675
 9101 1  -73.456948  36.169037 -1.675
 9102 1  -75.942382  33.351695 -1.675
 9103 1  -77.165580  34.072935 -1.675
 9104 1  -77.152567  35.492875 -1.675
 9105 1  -75.916356  36.191576 -1.675
 9106 1  -78.401791  33.374234 -1.675
 9107 1  -79.624989  34.095474 -1.675
 9108 1  -79.611976  35.515414 -1.675
 9109 1  -78.375765  36.214115 -1.675
 9110 1  -80.861200  33.396773 -1.675
 9111 1  -82.084398  34.118012 -1.675
 9112 1  -82.071385  35.537953 -1.675
 9113 1  -80.835174  36.236653 -1.675
 9114 1  -83.320609  33.419311 -1.675
 9115 1  -84.543807  34.140551 -1.675
 9116 1  -84.530794  35.560491 -1.675
 9117 1  -83.294583  36.259192 -1.675
 9118 1  -85.780017  33.441850 -1.675
 9119 1  -87.003215  34.163090 -1.675
 9120 1  -86.990203  35.583030 -1.675
 9121 1  -85.753992  36.281731 -1.675
 9122 1  -88.239426  33.464389 -1.675
 9123 1  -89.462624  34.185628 -1.675
 9124 1  -89.449612  35.605569 -1.675
 9125 1  -88.213401  36.304270 -1.675
 9126 1  -90.698835  33.486928 -1.675
 9127 1  -91.922033  34.208167 -1.675
 9128 1  -91.909020  35.628108 -1.675
 9129 1  -90.672810  36.326808 -1.675
 9130 1  -93.158244  33.509466 -1.675
 9131 1  -94.381442  34.230706 -1.675
 9132 1  -94.368429  35.650646 -1.675
 9133 1  -93.132219  36.349347 -1.675
 9134 1  -95.617653  33.532005 -1.675
 9135 1  -96.840851  34.253245 -1.675
 9136 1  -96.827838  35.673185 -1.675
 9137 1  -95.591627  36.371886 -1.675
 9138 1  -98.077062  33.554544 -1.675
 9139 1  -99.300260  34.275783 -1.675
 9140 1  -99.287247  35.695724 -1.675
 9141 1  -98.051036  36.394425 -1.675
 9142 1 -100.536471  33.577083 -1.675
 9143 1 -101.759669  34.298322 -1.675
 9144 1 -101.746656  35.718263 -1.675
 9145 1 -100.510445  36.416963 -1.675
 9146 1 -102.995880  33.599621 -1.675
 9147 1 -104.219078  34.320861 -1.675
 9148 1 -104.206065  35.740801 -1.675
 9149 1 -102.969854  36.439502 -1.675
 9150 1 -105.455288  33.622160 -1.675
 9151 1 -106.678486  34.343400 -1.675
 9152 1 -106.665474  35.763340 -1.675
 9153 1 -105.429263  36.462041 -1.675
 9154 1 -107.914697  33.644699 -1.675
 9155 1 -109.137895  34.365938 -1.675
 9156 1 -109.124883  35.785879 -1.675
 9157 1 -107.888672  36.484580 -1.675
 9158 1 -110.374106  33.667238 -1.675
 9159 1 -111.597304  34.388477 -1.675
 9160 1 -111.584291  35.808417 -1.675
 9161 1 -110.348081  36.507118 -1.675
 9162 1 -112.833515  33.689776 -1.675
 9163 1 -114.056713  34.411016 -1.675
 9164 1 -114.043700  35.830956 -1.675
 9165 1 -112.807490  36.529657 -1.675
 9166 1 -115.292924  33.712315 -1.675
 9167 1 -115.266898  36.552196 -1.675
 9168 1  115.930548  35.853495 -1.675
 9169 1  114.707350  36.574734 -1.675
 9170 1  114.720363  37.994675 -1.675
 9171 1  115.956574  38.693376 -1.675
 9172 1  113.471140  35.876034 -1.675
 9173 1  112.247941  36.597273 -1.675
 9174 1  112.260954  38.017214 -1.675
 9175 1  113.497165  38.715914 -1.675
 9176 1  111.011731  35.898572 -1.675
 9177 1  109.788533  36.619812 -1.675
 9178 1  109.801545  38.039752 -1.675
 9179 1  111.037756  38.738453 -1.675
 9180 1  108.552322  35.921111 -1.675
 9181 1  107.329124  36.642351 -1.675
 9182 1  107.342136  38.062291 -1.675
 9183 1  108.578347  38.760992 -1.675
 9184 1  106.092913  35.943650 -1.675
 9185 1  104.869715  36.664889 -1.675
 9186 1  104.882728  38.084830 -1.675
 9187 1  106.118938  38.783531 -1.675
 9188 1  103.633504  35.966189 -1.675
 9189 1  102.410306  36.687428 -1.675
 9190 1  102.423319  38.107369 -1.675
 9191 1  103.659530  38.806069 -1.675
 9192 1  101.174095  35.988727 -1.675
 9193 1   99.950897  36.709967 -1.675
 9194 1   99.963910  38.129907 -1.675
 9195 1  101.200121  38.828608 -1.675
 9196 1   98.714686  36.011266 -1.675
 9197 1   97.491488  36.732506 -1.675
 9198 1   97.504501  38.152446 -1.675
 9199 1   98.740712  38.851147 -1.675
 9200 1   96.255277  36.033805 -1.675
 9201 1   95.032079  36.755044 -1.675
 9202 1   95.045092  38.174985 -1.675
 9203 1   96.281303  38.873686 -1.675
 9204 1   93.795869  36.056344 -1.675
 9205 1   92.572670  36.777583 -1.675
 9206 1   92.585683  38.197523 -1.675
 9207 1   93.821894  38.896224 -1.675
 9208 1   91.336460  36.078882 -1.675
 9209 1   90.113262  36.800122 -1.675
 9210 1   90.126274  38.220062 -1.675
 9211 1   91.362485  38.918763 -1.675
 9212 1   88.877051  36.101421 -1.675
 9213 1   87.653853  36.822661 -1.675
 9214 1   87.666865  38.242601 -1.675
 9215 1   88.903076  38.941302 -1.675
 9216 1   86.417642  36.123960 -1.675
 9217 1   85.194444  36.845199 -1.675
 9218 1   85.207457  38.265140 -1.675
 9219 1   86.443667  38.963841 -1.675
 9220 1   83.958233  36.146499 -1.675
 9221 1   82.735035  36.867738 -1.675
 9222 1   82.748048  38.287678 -1.675
 9223 1   83.984259  38.986379 -1.675
 9224 1   81.498824  36.169037 -1.675
 9225 1   80.275626  36.890277 -1.675
 9226 1   80.288639  38.310217 -1.675
 9227 1   81.524850  39.008918 -1.675
 9228 1   79.039415  36.191576 -1.675
 9229 1   77.816217  36.912816 -1.675
 9230 1   77.829230  38.332756 -1.675
 9231 1   79.065441  39.031457 -1.675
 9232 1   76.580006  36.214115 -1.675
 9233 1   75.356808  36.935354 -1.675
 9234 1   75.369821  38.355295 -1.675
 9235 1   76.606032  39.053995 -1.675
 9236 1   74.120598  36.236653 -1.675
 9237 1   72.897400  36.957893 -1.675
 9238 1   72.910412  38.377833 -1.675
 9239 1   74.146623  39.076534 -1.675
 9240 1   71.661189  36.259192 -1.675
 9241 1   70.437991  36.980432 -1.675
 9242 1   70.451003  38.400372 -1.675
 9243 1   71.687214  39.099073 -1.675
 9244 1   69.201780  36.281731 -1.675
 9245 1   67.978582  37.002970 -1.675
 9246 1   67.991595  38.422911 -1.675
 9247 1   69.227805  39.121612 -1.675
 9248 1   66.742371  36.304270 -1.675
 9249 1   65.519173  37.025509 -1.675
 9250 1   65.532186  38.445450 -1.675
 9251 1   66.768396  39.144150 -1.675
 9252 1   64.282962  36.326808 -1.675
 9253 1   63.059764  37.048048 -1.675
 9254 1   63.072777  38.467988 -1.675
 9255 1   64.308988  39.166689 -1.675
 9256 1   61.823553  36.349347 -1.675
 9257 1   60.600355  37.070587 -1.675
 9258 1   60.613368  38.490527 -1.675
 9259 1   61.849579  39.189228 -1.675
 9260 1   59.364144  36.371886 -1.675
 9261 1   58.140946  37.093125 -1.675
 9262 1   58.153959  38.513066 -1.675
 9263 1   59.390170  39.211767 -1.675
 9264 1   56.904735  36.394425 -1.675
 9265 1   55.681537  37.115664 -1.675
 9266 1   55.694550  38.535605 -1.675
 9267 1   56.930761  39.234305 -1.675
 9268 1   54.445327  36.416963 -1.675
 9269 1   53.222129  37.138203 -1.675
 9270 1   53.235141  38.558143 -1.675
 9271 1   54.471352  39.256844 -1.675
 9272 1   51.985918  36.439502 -1.675
 9273 1   50.762720  37.160742 -1.675
 9274 1   50.775732  38.580682 -1.675
 9275 1   52.011943  39.279383 -1.675
 9276 1   49.526509  36.462041 -1.675
 9277 1   48.303311  37.183280 -1.675
 9278 1   48.316324  38.603221 -1.675
 9279 1   49.552534  39.301922 -1.675
 9280 1   47.067100  36.484580 -1.675
 9281 1   45.843902  37.205819 -1.675
 9282 1   45.856915  38.625759 -1.675
 9283 1   47.093125  39.324460 -1.675
 9284 1   44.607691  36.507118 -1.675
 9285 1   43.384493  37.228358 -1.675
 9286 1   43.397506  38.648298 -1.675
 9287 1   44.633717  39.346999 -1.675
 9288 1   42.148282  36.529657 -1.675
 9289 1   40.925084  37.250897 -1.675
 9290 1   40.938097  38.670837 -1.675
 9291 1   42.174308  39.369538 -1.675
 9292 1   39.688873  36.552196 -1.675
 9293 1   38.465675  37.273435 -1.675
 9294 1   38.478688  38.693376 -1.675
 9295 1   39.714899  39.392077 -1.675
 9296 1   37.229464  36.574734 -1.675
 9297 1   36.006266  37.295974 -1.675
 9298 1   36.019279  38.715914 -1.675
 9299 1   37.255490  39.414615 -1.675
 9300 1   34.770056  36.597273 -1.675
 9301 1   33.546858  37.318513 -1.675
 9302 1   33.559870  38.738453 -1.675
 9303 1   34.796081  39.437154 -1.675
 9304 1   32.310647  36.619812 -1.675
 9305 1   31.087449  37.341052 -1.675
 9306 1   31.100461  38.760992 -1.675
 9307 1   32.336672  39.459693 -1.675
 9308 1   29.851238  36.642351 -1.675
 9309 1   28.628040  37.363590 -1.675
 9310 1   28.641053  38.783531 -1.675
 9311 1   29.877263  39.482231 -1.675
 9312 1   27.391829  36.664889 -1.675
 9313 1   26.168631  37.386129 -1.675
 9314 1   26.181644  38.806069 -1.675
 9315 1   27.417854  39.504770 -1.675
 9316 1   24.932420  36.687428 -1.675
 9317 1   23.709222  37.408668 -1.675
 9318 1   23.722235  38.828608 -1.675
 9319 1   24.958446  39.527309 -1.675
 9320 1   22.473011  36.709967 -1.675
 9321 1   21.249813  37.431206 -1.675
 9322 1   21.262826  38.851147 -1.675
 9323 1   22.499037  39.549848 -1.675
 9324 1   20.013602  36.732506 -1.675
 9325 1   18.790404  37.453745 -1.675
 9326 1   18.803417  38.873686 -1.675
 9327 1   20.039628  39.572386 -1.675
 9328 1   17.554193  36.755044 -1.675
 9329 1   16.330995  37.476284 -1.675
 9330 1   16.344008  38.896224 -1.675
 9331 1   17.580219  39.594925 -1.675
 9332 1   15.094785  36.777583 -1.675
 9333 1   13.871587  37.498823 -1.675
 9334 1   13.884599  38.918763 -1.675
 9335 1   15.120810  39.617464 -1.675
 9336 1   12.635376  36.800122 -1.675
 9337 1   11.412178  37.521361 -1.675
 9338 1   11.425190  38.941302 -1.675
 9339 1   12.661401  39.640003 -1.675
 9340 1   10.175967  36.822661 -1.675
 9341 1    8.952769  37.543900 -1.675
 9342 1    8.965782  38.963841 -1.675
 9343 1   10.201992  39.662541 -1.675
 9344 1    7.716558  36.845199 -1.675
 9345 1    6.493360  37.566439 -1.675
 9346 1    6.506373  38.986379 -1.675
 9347 1    7.742583  39.685080 -1.675
 9348 1    5.257149  36.867738 -1.675
 9349 1    4.033951  37.588978 -1.675
 9350 1    4.046964  39.008918 -1.675
 9351 1    5.283175  39.707619 -1.675
 9352 1    2.797740  36.890277 -1.675
 9353 1    1.574542  37.611516 -1.675
 9354 1    1.587555  39.031457 -1.675
 9355 1    2.823766  39.730158 -1.675
 9356 1    0.338331  36.912816 -1.675
 9357 1   -0.884867  37.634055 -1.675
 9358 1   -0.871854  39.053995 -1.675
 9359 1    0.364357  39.752696 -1.675
 9360 1   -2.121077  36.935354 -1.675
 9361 1   -3.344276  37.656594 -1.675
 9362 1   -3.331263  39.076534 -1.675
 9363 1   -2.095052  39.775235 -1.675
 9364 1   -4.580486  36.957893 -1.675
 9365 1   -5.803684  37.679133 -1.675
 9366 1   -5.790672  39.099073 -1.675
 9367 1   -4.554461  39.797774 -1.675
 9368 1   -7.039895  36.980432 -1.675
 9369 1   -8.263093  37.701671 -1.675
 9370 1   -8.250081  39.121612 -1.675
 9371 1   -7.013870  39.820312 -1.675
 9372 1   -9.499304  37.002970 -1.675
 9373 1  -10.722502  37.724210 -1.675
 9374 1  -10.709489  39.144150 -1.675
 9375 1   -9.473279  39.842851 -1.675
 9376 1  -11.958713  37.025509 -1.675
 9377 1  -13.181911  37.746749 -1.675
 9378 1  -13.168898  39.166689 -1.675
 9379 1  -11.932687  39.865390 -1.675
 9380 1  -14.418122  37.048048 -1.675
 9381 1  -15.641320  37.769288 -1.675
 9382 1  -15.628307  39.189228 -1.675
 9383 1  -14.392096  39.887929 -1.675
 9384 1  -16.877531  37.070587 -1.675
 9385 1  -18.100729  37.791826 -1.675
 9386 1  -18.087716  39.211767 -1.675
 9387 1  -16.851505  39.910467 -1.675
 9388 1  -19.336940  37.093125 -1.675
 9389 1  -20.560138  37.814365 -1.675
 9390 1  -20.547125  39.234305 -1.675
 9391 1  -19.310914  39.933006 -1.675
 9392 1  -21.796348  37.115664 -1.675
 9393 1  -23.019547  37.836904 -1.675
 9394 1  -23.006534  39.256844 -1.675
 9395 1  -21.770323  39.955545 -1.675
 9396 1  -24.255757  37.138203 -1.675
 9397 1  -25.478955  37.859442 -1.675
 9398 1  -25.465943  39.279383 -1.675
 9399 1  -24.229732  39.978084 -1.675
 9400 1  -26.715166  37.160742 -1.675
 9401 1  -27.938364  37.881981 -1.675
 9402 1  -27.925352  39.301922 -1.675
 9403 1  -26.689141  40.000622 -1.675
 9404 1  -29.174575  37.183280 -1.675
 9405 1  -30.397773  37.904520 -1.675
 9406 1  -30.384760  39.324460 -1.675
 9407 1  -29.148550  40.023161 -1.675
 9408 1  -31.633984  37.205819 -1.675
 9409 1  -32.857182  37.927059 -1.675
 9410 1  -32.844169  39.346999 -1.675
 9411 1  -31.607958  40.045700 -1.675
 9412 1  -34.093393  37.228358 -1.675
 9413 1  -35.316591  37.949597 -1.675
 9414 1  -35.303578  39.369538 -1.675
 9415 1  -34.067367  40.068239 -1.675
 9416 1  -36.552802  37.250897 -1.675
 9417 1  -37.776000  37.972136 -1.675
 9418 1  -37.762987  39.392077 -1.675
 9419 1  -36.526776  40.090777 -1.675
 9420 1  -39.012211  37.273435 -1.675
 9421 1  -40.235409  37.994675 -1.675
 9422 1  -40.222396  39.414615 -1.675
 9423 1  -38.986185  40.113316 -1.675
 9424 1  -41.471619  37.295974 -1.675
 9425 1  -42.694818  38.017214 -1.675
 9426 1  -42.681805  39.437154 -1.675
 9427 1  -41.445594  40.135855 -1.675
 9428 1  -43.931028  37.318513 -1.675
 9429 1  -45.154226  38.039752 -1.675
 9430 1  -45.141214  39.459693 -1.675
 9431 1  -43.905003  40.158394 -1.675
 9432 1  -46.390437  37.341052 -1.675
 9433 1  -47.613635  38.062291 -1.675
 9434 1  -47.600623  39.482231 -1.675
 9435 1  -46.364412  40.180932 -1.675
 9436 1  -48.849846  37.363590 -1.675
 9437 1  -50.073044  38.084830 -1.675
 9438 1  -50.060031  39.504770 -1.675
 9439 1  -48.823821  40.203471 -1.675
 9440 1  -51.309255  37.386129 -1.675
 9441 1  -52.532453  38.107369 -1.675
 9442 1  -52.519440  39.527309 -1.675
 9443 1  -51.283229  40.226010 -1.675
 9444 1  -53.768664  37.408668 -1.675
 9445 1  -54.991862  38.129907 -1.675
 9446 1  -54.978849  39.549848 -1.675
 9447 1  -53.742638  40.248548 -1.675
 9448 1  -56.228073  37.431206 -1.675
 9449 1  -57.451271  38.152446 -1.675
 9450 1  -57.438258  39.572386 -1.675
 9451 1  -56.202047  40.271087 -1.675
 9452 1  -58.687482  37.453745 -1.675
 9453 1  -59.910680  38.174985 -1.675
 9454 1  -59.897667  39.594925 -1.675
 9455 1  -58.661456  40.293626 -1.675
 9456 1  -61.146890  37.476284 -1.675
 9457 1  -62.370089  38.197523 -1.675
 9458 1  -62.357076  39.617464 -1.675
 9459 1  -61.120865  40.316165 -1.675
 9460 1  -63.606299  37.498823 -1.675
 9461 1  -64.829497  38.220062 -1.675
 9462 1  -64.816485  39.640003 -1.675
 9463 1  -63.580274  40.338703 -1.675
 9464 1  -66.065708  37.521361 -1.675
 9465 1  -67.288906  38.242601 -1.675
 9466 1  -67.275894  39.662541 -1.675
 9467 1  -66.039683  40.361242 -1.675
 9468 1  -68.525117  37.543900 -1.675
 9469 1  -69.748315  38.265140 -1.675
 9470 1  -69.735302  39.685080 -1.675
 9471 1  -68.499092  40.383781 -1.675
 9472 1  -70.984526  37.566439 -1.675
 9473 1  -72.207724  38.287678 -1.675
 9474 1  -72.194711  39.707619 -1.675
 9475 1  -70.958500  40.406320 -1.675
 9476 1  -73.443935  37.588978 -1.675
 9477 1  -74.667133  38.310217 -1.675
 9478 1  -74.654120  39.730158 -1.675
 9479 1  -73.417909  40.428858 -1.675
 9480 1  -75.903344  37.611516 -1.675
 9481 1  -77.126542  38.332756 -1.675
 9482 1  -77.113529  39.752696 -1.675
 9483 1  -75.877318  40.451397 -1.675
 9484 1  -78.362753  37.634055 -1.675
 9485 1  -79.585951  38.355295 -1.675
 9486 1  -79.572938  39.775235 -1.675
 9487 1  -78.336727  40.473936 -1.675
 9488 1  -80.822161  37.656594 -1.675
 9489 1  -82.045359  38.377833 -1.675
 9490 1  -82.032347  39.797774 -1.675
 9491 1  -80.796136  40.496475 -1.675
 9492 1  -83.281570  37.679133 -1.675
 9493 1  -84.504768  38.400372 -1.675
 9494 1  -84.491756  39.820312 -1.675
 9495 1  -83.255545  40.519013 -1.675
 9496 1  -85.740979  37.701671 -1.675
 9497 1  -86.964177  38.422911 -1.675
 9498 1  -86.951164  39.842851 -1.675
 9499 1  -85.714954  40.541552 -1.675
 9500 1  -88.200388  37.724210 -1.675
 9501 1  -89.423586  38.445450 -1.675
 9502 1  -89.410573  39.865390 -1.675
 9503 1  -88.174363  40.564091 -1.675
 9504 1  -90.659797  37.746749 -1.675
 9505 1  -91.882995  38.467988 -1.675
 9506 1  -91.869982  39.887929 -1.675
 9507 1  -90.633771  40.586630 -1.675
 9508 1  -93.119206  37.769288 -1.675
 9509 1  -94.342404  38.490527 -1.675
 9510 1  -94.329391  39.910467 -1.675
 9511 1  -93.093180  40.609168 -1.675
 9512 1  -95.578615  37.791826 -1.675
 9513 1  -96.801813  38.513066 -1.675
 9514 1  -96.788800  39.933006 -1.675
 9515 1  -95.552589  40.631707 -1.675
 9516 1  -98.038024  37.814365 -1.675
 9517 1  -99.261222  38.535605 -1.675
 9518 1  -99.248209  39.955545 -1.675
 9519 1  -98.011998  40.654246 -1.675
 9520 1 -100.497432  37.836904 -1.675
 9521 1 -101.720630  38.558143 -1.675
 9522 1 -101.707618  39.978084 -1.675
 9523 1 -100.471407  40.676784 -1.675
 9524 1 -102.956841  37.859442 -1.675
 9525 1 -104.180039  38.580682 -1.675
 9526 1 -104.167027  40.000622 -1.675
 9527 1 -102.930816  40.699323 -1.675
 9528 1 -105.416250  37.881981 -1.675
 9529 1 -106.639448  38.603221 -1.675
 9530 1 -106.626435  40.023161 -1.675
 9531 1 -105.390225  40.721862 -1.675
 9532 1 -107.875659  37.904520 -1.675
 9533 1 -109.098857  38.625759 -1.675
 9534 1 -109.085844  40.045700 -1.675
 9535 1 -107.849634  40.744401 -1.675
 9536 1 -110.335068  37.927059 -1.675
 9537 1 -111.558266  38.648298 -1.675
 9538 1 -111.545253  40.068239 -1.675
 9539 1 -110.309042  40.766939 -1.675
 9540 1 -112.794477  37.949597 -1.675
 9541 1 -114.017675  38.670837 -1.675
 9542 1 -114.004662  40.090777 -1.675
 9543 1 -112.768451  40.789478 -1.675
 9544 1 -115.253886  37.972136 -1.675
 9545 1 -115.227860  40.812017 -1.675
 9546 1  115.969587  40.113316 -1.675
 9547 1  114.746389  40.834556 -1.675
 9548 1  114.759401  42.254496 -1.675
 9549 1  115.995612  42.953197 -1.675
 9550 1  113.510178  40.135855 -1.675
 9551 1  112.286980  40.857094 -1.675
 9552 1  112.299992  42.277035 -1.675
 9553 1  113.536203  42.975736 -1.675
 9554 1  111.050769  40.158394 -1.675
 9555 1  109.827571  40.879633 -1.675
 9556 1  109.840584  42.299573 -1.675
 9557 1  111.076794  42.998274 -1.675
 9558 1  108.591360  40.180932 -1.675
 9559 1  107.368162  40.902172 -1.675
 9560 1  107.381175  42.322112 -1.675
 9561 1  108.617386  43.020813 -1.675
 9562 1  106.131951  40.203471 -1.675
 9563 1  104.908753  40.924711 -1.675
 9564 1  104.921766  42.344651 -1.675
 9565 1  106.157977  43.043352 -1.675
 9566 1  103.672542  40.226010 -1.675
 9567 1  102.449344  40.947249 -1.675
 9568 1  102.462357  42.367190 -1.675
 9569 1  103.698568  43.065890 -1.675
 9570 1  101.213133  40.248548 -1.675
 9571 1   99.989935  40.969788 -1.675
 9572 1  100.002948  42.389728 -1.675
 9573 1  101.239159  43.088429 -1.675
 9574 1   98.753725  40.271087 -1.675
 9575 1   97.530526  40.992327 -1.675
 9576 1   97.543539  42.412267 -1.675
 9577 1   98.779750  43.110968 -1.675
 9578 1   96.294316  40.293626 -1.675
 9579 1   95.071118  41.014866 -1.675
 9580 1   95.084130  42.434806 -1.675
 9581 1   96.320341  43.133507 -1.675
 9582 1   93.834907  40.316165 -1.675
 9583 1   92.611709  41.037404 -1.675
 9584 1   92.624721  42.457345 -1.675
 9585 1   93.860932  43.156045 -1.675
 9586 1   91.375498  40.338703 -1.675
 9587 1   90.152300  41.059943 -1.675
 9588 1   90.165313  42.479883 -1.675
 9589 1   91.401523  43.178584 -1.675
 9590 1   88.916089  40.361242 -1.675
 9591 1   87.692891  41.082482 -1.675
 9592 1   87.705904  42.502422 -1.675
 9593 1   88.942115  43.201123 -1.675
 9594 1   86.456680  40.383781 -1.675
 9595 1   85.233482  41.105020 -1.675
 9596 1   85.246495  42.524961 -1.675
 9597 1   86.482706  43.223662 -1.675
 9598 1   83.997271  40.406320 -1.675
 9599 1   82.774073  41.127559 -1.675
 9600 1   82.787086  42.547500 -1.675
 9601 1   84.023297  43.246200 -1.675
 9602 1   81.537862  40.428858 -1.675
 9603 1   80.314664  41.150098 -1.675
 9604 1   80.327677  42.570038 -1.675
 9605 1   81.563888  43.268739 -1.675
 9606 1   79.078454  40.451397 -1.675
 9607 1   77.855255  41.172637 -1.675
 9608 1   77.868268  42.592577 -1.675
 9609 1   79.104479  43.291278 -1.675
 9610 1   76.619045  40.473936 -1.675
 9611 1   75.395847  41.195175 -1.675
 9612 1   75.408859  42.615116 -1.675
 9613 1   76.645070  43.313817 -1.675
 9614 1   74.159636  40.496475 -1.675
 9615 1   72.936438  41.217714 -1.675
 9616 1   72.949450  42.637655 -1.675
 9617 1   74.185661  43.336355 -1.675
 9618 1   71.700227  40.519013 -1.675
 9619 1   70.477029  41.240253 -1.675
 9620 1   70.490042  42.660193 -1.675
 9621 1   71.726252  43.358894 -1.675
 9622 1   69.240818  40.541552 -1.675
 9623 1   68.017620  41.262792 -1.675
 9624 1   68.030633  42.682732 -1.675
 9625 1   69.266844  43.381433 -1.675
 9626 1   66.781409  40.564091 -1.675
 9627 1   65.558211  41.285330 -1.675
 9628 1   65.571224  42.705271 -1.675
 9629 1   66.807435  43.403972 -1.675
 9630 1   64.322000  40.586630 -1.675
 9631 1   63.098802  41.307869 -1.675
 9632 1   63.111815  42.727809 -1.675
 9633 1   64.348026  43.426510 -1.675
 9634 1   61.862591  40.609168 -1.675
 9635 1   60.639393  41.330408 -1.675
 9636 1   60.652406  42.750348 -1.675
 9637 1   61.888617  43.449049 -1.675
 9638 1   59.403183  40.631707 -1.675
 9639 1   58.179985  41.352947 -1.675
 9640 1   58.192997  42.772887 -1.675
 9641 1   59.429208  43.471588 -1.675
 9642 1   56.943774  40.654246 -1.675
 9643 1   55.720576  41.375485 -1.675
 9644 1   55.733588  42.795426 -1.675
 9645 1   56.969799  43.494126 -1.675
 9646 1   54.484365  40.676784 -1.675
 9647 1   53.261167  41.398024 -1.675
 9648 1   53.274180  42.817964 -1.675
 9649 1   54.510390  43.516665 -1.675
 9650 1   52.024956  40.699323 -1.675
 9651 1   50.801758  41.420563 -1.675
 9652 1   50.814771  42.840503 -1.675
 9653 1   52.050981  43.539204 -1.675
 9654 1   49.565547  40.721862 -1.675
 9655 1   48.342349  41.443101 -1.675
 9656 1   48.355362  42.863042 -1.675
 9657 1   49.591573  43.561743 -1.675
 9658 1   47.106138  40.744401 -1.675
 9659 1   45.882940  41.465640 -1.675
 9660 1   45.895953  42.885581 -1.675
 9661 1   47.132164  43.584281 -1.675
 9662 1   44.646729  40.766939 -1.675
 9663 1   43.423531  41.488179 -1.675
 9664 1   43.436544  42.908119 -1.675
 9665 1   44.672755  43.606820 -1.675
 9666 1   42.187320  40.789478 -1.675
 9667 1   40.964122  41.510718 -1.675
 9668 1   40.977135  42.930658 -1.675
 9669 1   42.213346  43.629359 -1.675
 9670 1   39.727912  40.812017 -1.675
 9671 1   38.504714  41.533256 -1.675
 9672 1   38.517726  42.953197 -1.675
 9673 1   39.753937  43.651898 -1.675
 9674 1   37.268503  40.834556 -1.675
 9675 1   36.045305  41.555795 -1.675
 9676 1   36.058317  42.975736 -1.675
 9677 1   37.294528  43.674436 -1.675
 9678 1   34.809094  40.857094 -1.675
 9679 1   33.585896  41.578334 -1.675
 9680 1   33.598909  42.998274 -1.675
 9681 1   34.835119  43.696975 -1.675
 9682 1   32.349685  40.879633 -1.675
 9683 1   31.126487  41.600873 -1.675
 9684 1   31.139500  43.020813 -1.675
 9685 1   32.375710  43.719514 -1.675
 9686 1   29.890276  40.902172 -1.675
 9687 1   28.667078  41.623411 -1.675
 9688 1   28.680091  43.043352 -1.675
 9689 1   29.916302  43.742053 -1.675
 9690 1   27.430867  40.924711 -1.675
 9691 1   26.207669  41.645950 -1.675
 9692 1   26.220682  43.065890 -1.675
 9693 1   27.456893  43.764591 -1.675
 9694 1   24.971458  40.947249 -1.675
 9695 1   23.748260  41.668489 -1.675
 9696 1   23.761273  43.088429 -1.675
 9697 1   24.997484  43.787130 -1.675
 9698 1   22.512049  40.969788 -1.675
 9699 1   21.288851  41.691028 -1.675
 9700 1   21.301864  43.110968 -1.675
 9701 1   22.538075  43.809669 -1.675
 9702 1   20.052641  40.992327 -1.675
 9703 1   18.829443  41.713566 -1.675
 9704 1   18.842455  43.133507 -1.675
 9705 1   20.078666  43.832208 -1.675
 9706 1   17.593232  41.014866 -1.675
 9707 1   16.370034  41.736105 -1.675
 9708 1   16.383046  43.156045 -1.675
 9709 1   17.619257  43.854746 -1.675
 9710 1   15.133823  41.037404 -1.675
 9711 1   13.910625  41.758644 -1.675
 9712 1   13.923638  43.178584 -1.675
 9713 1   15.159848  43.877285 -1.675
 9714 1   12.674414  41.059943 -1.675
 9715 1   11.451216  41.781183 -1.675
 9716 1   11.464229  43.201123 -1.675
 9717 1   12.700439  43.899824 -1.675
 9718 1   10.215005  41.082482 -1.675
 9719 1    8.991807  41.803721 -1.675
 9720 1    9.004820  43.223662 -1.675
 9721 1   10.241031  43.922362 -1.675
 9722 1    7.755596  41.105020 -1.675
 9723 1    6.532398  41.826260 -1.675
 9724 1    6.545411  43.246200 -1.675
 9725 1    7.781622  43.944901 -1.675
 9726 1    5.296187  41.127559 -1.675
 9727 1    4.072989  41.848799 -1.675
 9728 1    4.086002  43.268739 -1.675
 9729 1    5.322213  43.967440 -1.675
 9730 1    2.836778  41.150098 -1.675
 9731 1    1.613580  41.871337 -1.675
 9732 1    1.626593  43.291278 -1.675
 9733 1    2.862804  43.989979 -1.675
 9734 1    0.377370  41.172637 -1.675
 9735 1   -0.845828  41.893876 -1.675
 9736 1   -0.832816  43.313817 -1.675
 9737 1    0.403395  44.012517 -1.675
 9738 1   -2.082039  41.195175 -1.675
 9739 1   -3.305237  41.916415 -1.675
 9740 1   -3.292225  43.336355 -1.675
 9741 1   -2.056014  44.035056 -1.675
 9742 1   -4.541448  41.217714 -1.675
 9743 1   -5.764646  41.938954 -1.675
 9744 1   -5.751633  43.358894 -1.675
 9745 1   -4.515423  44.057595 -1.675
 9746 1   -7.000857  41.240253 -1.675
 9747 1   -8.224055  41.961492 -1.675
 9748 1   -8.211042  43.381433 -1.675
 9749 1   -6.974832  44.080134 -1.675
 9750 1   -9.460266  41.262792 -1.675
 9751 1  -10.683464  41.984031 -1.675
 9752 1  -10.670451  43.403972 -1.675
 9753 1   -9.434240  44.102672 -1.675
 9754 1  -11.919675  41.285330 -1.675
 9755 1  -13.142873  42.006570 -1.675
 9756 1  -13.129860  43.426510 -1.675
 9757 1  -11.893649  44.125211 -1.675
 9758 1  -14.379084  41.307869 -1.675
 9759 1  -15.602282  42.029109 -1.675
 9760 1  -15.589269  43.449049 -1.675
 9761 1  -14.353058  44.147750 -1.675
 9762 1  -16.838492  41.330408 -1.675
 9763 1  -18.061691  42.051647 -1.675
 9764 1  -18.048678  43.471588 -1.675
 9765 1  -16.812467  44.170289 -1.675
 9766 1  -19.297901  41.352947 -1.675
 9767 1  -20.521099  42.074186 -1.675
 9768 1  -20.508087  43.494126 -1.675
 9769 1  -19.271876  44.192827 -1.675
 9770 1  -21.757310  41.375485 -1.675
 9771 1  -22.980508  42.096725 -1.675
 9772 1  -22.967496  43.516665 -1.675
 9773 1  -21.731285  44.215366 -1.675
 9774 1  -24.216719  41.398024 -1.675
 9775 1  -25.439917  42.119264 -1.675
 9776 1  -25.426904  43.539204 -1.675
 9777 1  -24.190694  44.237905 -1.675
 9778 1  -26.676128  41.420563 -1.675
 9779 1  -27.899326  42.141802 -1.675
 9780 1  -27.886313  43.561743 -1.675
 9781 1  -26.650102  44.260444 -1.675
 9782 1  -29.135537  41.443101 -1.675
 9783 1  -30.358735  42.164341 -1.675
 9784 1  -30.345722  43.584281 -1.675
 9785 1  -29.109511  44.282982 -1.675
 9786 1  -31.594946  41.465640 -1.675
 9787 1  -32.818144  42.186880 -1.675
 9788 1  -32.805131  43.606820 -1.675
 9789 1  -31.568920  44.305521 -1.675
 9790 1  -34.054355  41.488179 -1.675
 9791 1  -35.277553  42.209419 -1.675
 9792 1  -35.264540  43.629359 -1.675
 9793 1  -34.028329  44.328060 -1.675
 9794 1  -36.513763  41.510718 -1.675
 9795 1  -37.736962  42.231957 -1.675
 9796 1  -37.723949  43.651898 -1.675
 9797 1  -36.487738  44.350598 -1.675
 9798 1  -38.973172  41.533256 -1.675
 9799 1  -40.196370  42.254496 -1.675
 9800 1  -40.183358  43.674436 -1.675
 9801 1  -38.947147  44.373137 -1.675
 9802 1  -41.432581  41.555795 -1.675
 9803 1  -42.655779  42.277035 -1.675
 9804 1  -42.642767  43.696975 -1.675
 9805 1  -41.406556  44.395676 -1.675
 9806 1  -43.891990  41.578334 -1.675
 9807 1  -45.115188  42.299573 -1.675
 9808 1  -45.102175  43.719514 -1.675
 9809 1  -43.865965  44.418215 -1.675
 9810 1  -46.351399  41.600873 -1.675
 9811 1  -47.574597  42.322112 -1.675
 9812 1  -47.561584  43.742053 -1.675
 9813 1  -46.325373  44.440753 -1.675
 9814 1  -48.810808  41.623411 -1.675
 9815 1  -50.034006  42.344651 -1.675
 9816 1  -50.020993  43.764591 -1.675
 9817 1  -48.784782  44.463292 -1.675
 9818 1  -51.270217  41.645950 -1.675
 9819 1  -52.493415  42.367190 -1.675
 9820 1  -52.480402  43.787130 -1.675
 9821 1  -51.244191  44.485831 -1.675
 9822 1  -53.729626  41.668489 -1.675
 9823 1  -54.952824  42.389728 -1.675
 9824 1  -54.939811  43.809669 -1.675
 9825 1  -53.703600  44.508370 -1.675
 9826 1  -56.189034  41.691028 -1.675
 9827 1  -57.412233  42.412267 -1.675
 9828 1  -57.399220  43.832208 -1.675
 9829 1  -56.163009  44.530908 -1.675
 9830 1  -58.648443  41.713566 -1.675
 9831 1  -59.871641  42.434806 -1.675
 9832 1  -59.858629  43.854746 -1.675
 9833 1  -58.622418  44.553447 -1.675
 9834 1  -61.107852  41.736105 -1.675
 9835 1  -62.331050  42.457345 -1.675
 9836 1  -62.318038  43.877285 -1.675
 9837 1  -61.081827  44.575986 -1.675
 9838 1  -63.567261  41.758644 -1.675
 9839 1  -64.790459  42.479883 -1.675
 9840 1  -64.777446  43.899824 -1.675
 9841 1  -63.541236  44.598525 -1.675
 9842 1  -66.026670  41.781183 -1.675
 9843 1  -67.249868  42.502422 -1.675
 9844 1  -67.236855  43.922362 -1.675
 9845 1  -66.000644  44.621063 -1.675
 9846 1  -68.486079  41.803721 -1.675
 9847 1  -69.709277  42.524961 -1.675
 9848 1  -69.696264  43.944901 -1.675
 9849 1  -68.460053  44.643602 -1.675
 9850 1  -70.945488  41.826260 -1.675
 9851 1  -72.168686  42.547500 -1.675
 9852 1  -72.155673  43.967440 -1.675
 9853 1  -70.919462  44.666141 -1.675
 9854 1  -73.404897  41.848799 -1.675
 9855 1  -74.628095  42.570038 -1.675
 9856 1  -74.615082  43.989979 -1.675
 9857 1  -73.378871  44.688679 -1.675
 9858 1  -75.864305  41.871337 -1.675
 9859 1  -77.087504  42.592577 -1.675
 9860 1  -77.074491  44.012517 -1.675
 9861 1  -75.838280  44.711218 -1.675
 9862 1  -78.323714  41.893876 -1.675
 9863 1  -79.546912  42.615116 -1.675
 9864 1  -79.533900  44.035056 -1.675
 9865 1  -78.297689  44.733757 -1.675
 9866 1  -80.783123  41.916415 -1.675
 9867 1  -82.006321  42.637655 -1.675
 9868 1  -81.993309  44.057595 -1.675
 9869 1  -80.757098  44.756296 -1.675
 9870 1  -83.242532  41.938954 -1.675
 9871 1  -84.465730  42.660193 -1.675
 9872 1  -84.452717  44.080134 -1.675
 9873 1  -83.216507  44.778834 -1.675
 9874 1  -85.701941  41.961492 -1.675
 9875 1  -86.925139  42.682732 -1.675
 9876 1  -86.912126  44.102672 -1.675
 9877 1  -85.675915  44.801373 -1.675
 9878 1  -88.161350  41.984031 -1.675
 9879 1  -89.384548  42.705271 -1.675
 9880 1  -89.371535  44.125211 -1.675
 9881 1  -88.135324  44.823912 -1.675
 9882 1  -90.620759  42.006570 -1.675
 9883 1  -91.843957  42.727809 -1.675
 9884 1  -91.830944  44.147750 -1.675
 9885 1  -90.594733  44.846451 -1.675
 9886 1  -93.080168  42.029109 -1.675
 9887 1  -94.303366  42.750348 -1.675
 9888 1  -94.290353  44.170289 -1.675
 9889 1  -93.054142  44.868989 -1.675
 9890 1  -95.539576  42.051647 -1.675
 9891 1  -96.762775  42.772887 -1.675
 9892 1  -96.749762  44.192827 -1.675
 9893 1  -95.513551  44.891528 -1.675
 9894 1  -97.998985  42.074186 -1.675
 9895 1  -99.222183  42.795426 -1.675
 9896 1  -99.209171  44.215366 -1.675
 9897 1  -97.972960  44.914067 -1.675
 9898 1 -100.458394  42.096725 -1.675
 9899 1 -101.681592  42.817964 -1.675
 9900 1 -101.668580  44.237905 -1.675
 9901 1 -100.432369  44.936606 -1.675
 9902 1 -102.917803  42.119264 -1.675
 9903 1 -104.141001  42.840503 -1.675
 9904 1 -104.127988  44.260444 -1.675
 9905 1 -102.891778  44.959144 -1.675
 9906 1 -105.377212  42.141802 -1.675
 9907 1 -106.600410  42.863042 -1.675
 9908 1 -106.587397  44.282982 -1.675
 9909 1 -105.351186  44.981683 -1.675
 9910 1 -107.836621  42.164341 -1.675
 9911 1 -109.059819  42.885581 -1.675
 9912 1 -109.046806  44.305521 -1.675
 9913 1 -107.810595  45.004222 -1.675
 9914 1 -110.296030  42.186880 -1.675
 9915 1 -111.519228  42.908119 -1.675
 9916 1 -111.506215  44.328060 -1.675
 9917 1 -110.270004  45.026761 -1.675
 9918 1 -112.755439  42.209419 -1.675
 9919 1 -113.978637  42.930658 -1.675
 9920 1 -113.965624  44.350598 -1.675
 9921 1 -112.729413  45.049299 -1.675
 9922 1 -115.214847  42.231957 -1.675
 9923 1 -115.188822  45.071838 -1.675
 9924 1  116.008625  44.373137 -1.675
 9925 1  114.785427  45.094377 -1.675
 9926 1  114.798440  46.514317 -1.675
 9927 1  116.034650  47.213018 -1.675
 9928 1  113.549216  44.395676 -1.675
 9929 1  112.326018  45.116915 -1.675
 9930 1  112.339031  46.536856 -1.675
 9931 1  113.575242  47.235557 -1.675
 9932 1  111.089807  44.418215 -1.675
 9933 1  109.866609  45.139454 -1.675
 9934 1  109.879622  46.559395 -1.675
 9935 1  111.115833  47.258095 -1.675
 9936 1  108.630398  44.440753 -1.675
 9937 1  107.407200  45.161993 -1.675
 9938 1  107.420213  46.581933 -1.675
 9939 1  108.656424  47.280634 -1.675
 9940 1  106.170989  44.463292 -1.675
 9941 1  104.947791  45.184532 -1.675
 9942 1  104.960804  46.604472 -1.675
 9943 1  106.197015  47.303173 -1.675
 9944 1  103.711581  44.485831 -1.675
 9945 1  102.488382  45.207070 -1.675
 9946 1  102.501395  46.627011 -1.675
 9947 1  103.737606  47.325712 -1.675
 9948 1  101.252172  44.508370 -1.675
 9949 1  100.028974  45.229609 -1.675
 9950 1  100.041986  46.649550 -1.675
 9951 1  101.278197  47.348250 -1.675
 9952 1   98.792763  44.530908 -1.675
 9953 1   97.569565  45.252148 -1.675
 9954 1   97.582577  46.672088 -1.675
 9955 1   98.818788  47.370789 -1.675
 9956 1   96.333354  44.553447 -1.675
 9957 1   95.110156  45.274687 -1.675
 9958 1   95.123169  46.694627 -1.675
 9959 1   96.359379  47.393328 -1.675
 9960 1   93.873945  44.575986 -1.675
 9961 1   92.650747  45.297225 -1.675
 9962 1   92.663760  46.717166 -1.675
 9963 1   93.899971  47.415867 -1.675
 9964 1   91.414536  44.598525 -1.675
 9965 1   90.191338  45.319764 -1.675
 9966 1   90.204351  46.739704 -1.675
 9967 1   91.440562  47.438405 -1.675
 9968 1   88.955127  44.621063 -1.675
 9969 1   87.731929  45.342303 -1.675
 9970 1   87.744942  46.762243 -1.675
 9971 1   88.981153  47.460944 -1.675
 9972 1   86.495718  44.643602 -1.675
 9973 1   85.272520  45.364842 -1.675
 9974 1   85.285533  46.784782 -1.675
 9975 1   86.521744  47.483483 -1.675
 9976 1   84.036310  44.666141 -1.675
 9977 1   82.813111  45.387380 -1.675
 9978 1   82.826124  46.807321 -1.675
 9979 1   84.062335  47.506022 -1.675
 9980 1   81.576901  44.688679 -1.675
 9981 1   80.353703  45.409919 -1.675
 9982 1   80.366715  46.829859 -1.675
 9983 1   81.602926  47.528560 -1.675
 9984 1   79.117492  44.711218 -1.675
 9985 1   77.894294  45.432458 -1.675
 9986 1   77.907306  46.852398 -1.675
 9987 1   79.143517  47.551099 -1.675
 9988 1   76.658083  44.733757 -1.675
 9989 1   75.434885  45.454997 -1.675
 9990 1   75.447898  46.874937 -1.675
 9991 1   76.684108  47.573638 -1.675
 9992 1   74.198674  44.756296 -1.675
 9993 1   72.975476  45.477535 -1.675
 9994 1   72.988489  46.897476 -1.675
 9995 1   74.224700  47.596176 -1.675
 9996 1   71.739265  44.778834 -1.675
 9997 1   70.516067  45.500074 -1.675
 9998 1   70.529080  46.920014 -1.675
 9999 1   71.765291  47.618715 -1.675
10000 1   69.279856  44.801373 -1.675
10001 1   68.056658  45.522613 -1.675
10002 1   68.069671  46.942553 -1.675
10003 1   69.305882  47.641254 -1.675
10004 1   66.820447  44.823912 -1.675
10005 1   65.597249  45.545151 -1.675
10006 1   65.610262  46.965092 -1.675
10007 1   66.846473  47.663793 -1.675
10008 1   64.361039  44.846451 -1.675
10009 1   63.137840  45.567690 -1.675
10010 1   63.150853  46.987631 -1.675
10011 1   64.387064  47.686331 -1.675
10012 1   61.901630  44.868989 -1.675
10013 1   60.678432  45.590229 -1.675
10014 1   60.691444  47.010169 -1.675
10015 1   61.927655  47.708870 -1.675
10016 1   59.442221  44.891528 -1.675
10017 1   58.219023  45.612768 -1.675
10018 1   58.232035  47.032708 -1.675
10019 1   59.468246  47.731409 -1.675
10020 1   56.982812  44.914067 -1.675
10021 1   55.759614  45.635306 -1.675
10022 1   55.772627  47.055247 -1.675
10023 1   57.008837  47.753948 -1.675
10024 1   54.523403  44.936606 -1.675
10025 1   53.300205  45.657845 -1.675
10026 1   53.313218  47.077786 -1.675
10027 1   54.549429  47.776486 -1.675
10028 1   52.063994  44.959144 -1.675
10029 1   50.840796  45.680384 -1.675
10030 1   50.853809  47.100324 -1.675
10031 1   52.090020  47.799025 -1.675
10032 1   49.604585  44.981683 -1.675
10033 1   48.381387  45.702923 -1.675
10034 1   48.394400  47.122863 -1.675
10035 1   49.630611  47.821564 -1.675
10036 1   47.145176  45.004222 -1.675
10037 1   45.921978  45.725461 -1.675
10038 1   45.934991  47.145402 -1.675
10039 1   47.171202  47.844103 -1.675
10040 1   44.685768  45.026761 -1.675
10041 1   43.462570  45.748000 -1.675
10042 1   43.475582  47.167940 -1.675
10043 1   44.711793  47.866641 -1.675
10044 1   42.226359  45.049299 -1.675
10045 1   41.003161  45.770539 -1.675
10046 1   41.016173  47.190479 -1.675
10047 1   42.252384  47.889180 -1.675
10048 1   39.766950  45.071838 -1.675
10049 1   38.543752  45.793078 -1.675
10050 1   38.556765  47.213018 -1.675
10051 1   39.792975  47.911719 -1.675
10052 1   37.307541  45.094377 -1.675
10053 1   36.084343  45.815616 -1.675
10054 1   36.097356  47.235557 -1.675
10055 1   37.333566  47.934257 -1.675
10056 1   34.848132  45.116915 -1.675
10057 1   33.624934  45.838155 -1.675
10058 1   33.637947  47.258095 -1.675
10059 1   34.874158  47.956796 -1.675
10060 1   32.388723  45.139454 -1.675
10061 1   31.165525  45.860694 -1.675
10062 1   31.178538  47.280634 -1.675
10063 1   32.414749  47.979335 -1.675
10064 1   29.929314  45.161993 -1.675
10065 1   28.706116  45.883233 -1.675
10066 1   28.719129  47.303173 -1.675
10067 1   29.955340  48.001874 -1.675
10068 1   27.469905  45.184532 -1.675
10069 1   26.246707  45.905771 -1.675
10070 1   26.259720  47.325712 -1.675
10071 1   27.495931  48.024412 -1.675
10072 1   25.010497  45.207070 -1.675
10073 1   23.787299  45.928310 -1.675
10074 1   23.800311  47.348250 -1.675
10075 1   25.036522  48.046951 -1.675
10076 1   22.551088  45.229609 -1.675
10077 1   21.327890  45.950849 -1.675
10078 1   21.340902  47.370789 -1.675
10079 1   22.577113  48.069490 -1.675
10080 1   20.091679  45.252148 -1.675
10081 1   18.868481  45.973387 -1.675
10082 1   18.881494  47.393328 -1.675
10083 1   20.117704  48.092029 -1.675
10084 1   17.632270  45.274687 -1.675
10085 1   16.409072  45.995926 -1.675
10086 1   16.422085  47.415867 -1.675
10087 1   17.658295  48.114567 -1.675
10088 1   15.172861  45.297225 -1.675
10089 1   13.949663  46.018465 -1.675
10090 1   13.962676  47.438405 -1.675
10091 1   15.198887  48.137106 -1.675
10092 1   12.713452  45.319764 -1.675
10093 1   11.490254  46.041004 -1.675
10094 1   11.503267  47.460944 -1.675
10095 1   12.739478  48.159645 -1.675
10096 1   10.254043  45.342303 -1.675
10097 1    9.030845  46.063542 -1.675
10098 1    9.043858  47.483483 -1.675
10099 1   10.280069  48.182184 -1.675
10100 1    7.794634  45.364842 -1.675
10101 1    6.571436  46.086081 -1.675
10102 1    6.584449  47.506022 -1.675
10103 1    7.820660  48.204722 -1.675
10104 1    5.335226  45.387380 -1.675
10105 1    4.112028  46.108620 -1.675
10106 1    4.125040  47.528560 -1.675
10107 1    5.361251  48.227261 -1.675
10108 1    2.875817  45.409919 -1.675
10109 1    1.652619  46.131159 -1.675
10110 1    1.665631  47.551099 -1.675
10111 1    2.901842  48.249800 -1.675
10112 1    0.416408  45.432458 -1.675
10113 1   -0.806790  46.153697 -1.675
10114 1   -0.793777  47.573638 -1.675
10115 1    0.442433  48.272339 -1.675
10116 1   -2.043001  45.454997 -1.675
10117 1   -3.266199  46.176236 -1.675
10118 1   -3.253186  47.596176 -1.675
10119 1   -2.016976  48.294877 -1.675
10120 1   -4.502410  45.477535 -1.675
10121 1   -5.725608  46.198775 -1.675
10122 1   -5.712595  47.618715 -1.675
10123 1   -4.476384  48.317416 -1.675
10124 1   -6.961819  45.500074 -1.675
10125 1   -8.185017  46.221314 -1.675
10126 1   -8.172004  47.641254 -1.675
10127 1   -6.935793  48.339955 -1.675
10128 1   -9.421228  45.522613 -1.675
10129 1  -10.644426  46.243852 -1.675
10130 1  -10.631413  47.663793 -1.675
10131 1   -9.395202  48.362493 -1.675
10132 1  -11.880637  45.545151 -1.675
10133 1  -13.103835  46.266391 -1.675
10134 1  -13.090822  47.686331 -1.675
10135 1  -11.854611  48.385032 -1.675
10136 1  -14.340045  45.567690 -1.675
10137 1  -15.563243  46.288930 -1.675
10138 1  -15.550231  47.708870 -1.675
10139 1  -14.314020  48.407571 -1.675
10140 1  -16.799454  45.590229 -1.675
10141 1  -18.022652  46.311468 -1.675
10142 1  -18.009640  47.731409 -1.675
10143 1  -16.773429  48.430110 -1.675
10144 1  -19.258863  45.612768 -1.675
10145 1  -20.482061  46.334007 -1.675
10146 1  -20.469048  47.753948 -1.675
10147 1  -19.232838  48.452648 -1.675
10148 1  -21.718272  45.635306 -1.675
10149 1  -22.941470  46.356546 -1.675
10150 1  -22.928457  47.776486 -1.675
10151 1  -21.692247  48.475187 -1.675
10152 1  -24.177681  45.657845 -1.675
10153 1  -25.400879  46.379085 -1.675
10154 1  -25.387866  47.799025 -1.675
10155 1  -24.151655  48.497726 -1.675
10156 1  -26.637090  45.680384 -1.675
10157 1  -27.860288  46.401623 -1.675
10158 1  -27.847275  47.821564 -1.675
10159 1  -26.611064  48.520265 -1.675
10160 1  -29.096499  45.702923 -1.675
10161 1  -30.319697  46.424162 -1.675
10162 1  -30.306684  47.844103 -1.675
10163 1  -29.070473  48.542803 -1.675
10164 1  -31.555907  45.725461 -1.675
10165 1  -32.779106  46.446701 -1.675
10166 1  -32.766093  47.866641 -1.675
10167 1  -31.529882  48.565342 -1.675
10168 1  -34.015316  45.748000 -1.675
10169 1  -35.238514  46.469240 -1.675
10170 1  -35.225502  47.889180 -1.675
10171 1  -33.989291  48.587881 -1.675
10172 1  -36.474725  45.770539 -1.675
10173 1  -37.697923  46.491778 -1.675
10174 1  -37.684911  47.911719 -1.675
10175 1  -36.448700  48.610420 -1.675
10176 1  -38.934134  45.793078 -1.675
10177 1  -40.157332  46.514317 -1.675
10178 1  -40.144319  47.934257 -1.675
10179 1  -38.908109  48.632958 -1.675
10180 1  -41.393543  45.815616 -1.675
10181 1  -42.616741  46.536856 -1.675
10182 1  -42.603728  47.956796 -1.675
10183 1  -41.367518  48.655497 -1.675
10184 1  -43.852952  45.838155 -1.675
10185 1  -45.076150  46.559395 -1.675
10186 1  -45.063137  47.979335 -1.675
10187 1  -43.826926  48.678036 -1.675
10188 1  -46.312361  45.860694 -1.675
10189 1  -47.535559  46.581933 -1.675
10190 1  -47.522546  48.001874 -1.675
10191 1  -46.286335  48.700575 -1.675
10192 1  -48.771770  45.883233 -1.675
10193 1  -49.994968  46.604472 -1.675
10194 1  -49.981955  48.024412 -1.675
10195 1  -48.745744  48.723113 -1.675
10196 1  -51.231178  45.905771 -1.675
10197 1  -52.454377  46.627011 -1.675
10198 1  -52.441364  48.046951 -1.675
10199 1  -51.205153  48.745652 -1.675
10200 1  -53.690587  45.928310 -1.675
10201 1  -54.913785  46.649550 -1.675
10202 1  -54.900773  48.069490 -1.675
10203 1  -53.664562  48.768191 -1.675
10204 1  -56.149996  45.950849 -1.675
10205 1  -57.373194  46.672088 -1.675
10206 1  -57.360182  48.092029 -1.675
10207 1  -56.123971  48.790729 -1.675
10208 1  -58.609405  45.973387 -1.675
10209 1  -59.832603  46.694627 -1.675
10210 1  -59.819590  48.114567 -1.675
10211 1  -58.583380  48.813268 -1.675
10212 1  -61.068814  45.995926 -1.675
10213 1  -62.292012  46.717166 -1.675
10214 1  -62.278999  48.137106 -1.675
10215 1  -61.042788  48.835807 -1.675
10216 1  -63.528223  46.018465 -1.675
10217 1  -64.751421  46.739704 -1.675
10218 1  -64.738408  48.159645 -1.675
10219 1  -63.502197  48.858346 -1.675
10220 1  -65.987632  46.041004 -1.675
10221 1  -67.210830  46.762243 -1.675
10222 1  -67.197817  48.182184 -1.675
10223 1  -65.961606  48.880884 -1.675
10224 1  -68.447041  46.063542 -1.675
10225 1  -69.670239  46.784782 -1.675
10226 1  -69.657226  48.204722 -1.675
10227 1  -68.421015  48.903423 -1.675
10228 1  -70.906449  46.086081 -1.675
10229 1  -72.129648  46.807321 -1.675
10230 1  -72.116635  48.227261 -1.675
10231 1  -70.880424  48.925962 -1.675
10232 1  -73.365858  46.108620 -1.675
10233 1  -74.589056  46.829859 -1.675
10234 1  -74.576044  48.249800 -1.675
10235 1  -73.339833  48.948501 -1.675
10236 1  -75.825267  46.131159 -1.675
10237 1  -77.048465  46.852398 -1.675
10238 1  -77.035453  48.272339 -1.675
10239 1  -75.799242  48.971039 -1.675
10240 1  -78.284676  46.153697 -1.675
10241 1  -79.507874  46.874937 -1.675
10242 1  -79.494861  48.294877 -1.675
10243 1  -78.258651  48.993578 -1.675
10244 1  -80.744085  46.176236 -1.675
10245 1  -81.967283  46.897476 -1.675
10246 1  -81.954270  48.317416 -1.675
10247 1  -80.718059  49.016117 -1.675
10248 1  -83.203494  46.198775 -1.675
10249 1  -84.426692  46.920014 -1.675
10250 1  -84.413679  48.339955 -1.675
10251 1  -83.177468  49.038656 -1.675
10252 1  -85.662903  46.221314 -1.675
10253 1  -86.886101  46.942553 -1.675
10254 1  -86.873088  48.362493 -1.675
10255 1  -85.636877  49.061194 -1.675
10256 1  -88.122312  46.243852 -1.675
10257 1  -89.345510  46.965092 -1.675
10258 1  -89.332497  48.385032 -1.675
10259 1  -88.096286  49.083733 -1.675
10260 1  -90.581720  46.266391 -1.675
10261 1  -91.804919  46.987631 -1.675
10262 1  -91.791906  48.407571 -1.675
10263 1  -90.555695  49.106272 -1.675
10264 1  -93.041129  46.288930 -1.675
10265 1  -94.264327  47.010169 -1.675
10266 1  -94.251315  48.430110 -1.675
10267 1  -93.015104  49.128811 -1.675
10268 1  -95.500538  46.311468 -1.675
10269 1  -96.723736  47.032708 -1.675
10270 1  -96.710724  48.452648 -1.675
10271 1  -95.474513  49.151349 -1.675
10272 1  -97.959947  46.334007 -1.675
10273 1  -99.183145  47.055247 -1.675
10274 1  -99.170132  48.475187 -1.675
10275 1  -97.933922  49.173888 -1.675
10276 1 -100.419356  46.356546 -1.675
10277 1 -101.642554  47.077786 -1.675
10278 1 -101.629541  48.497726 -1.675
10279 1 -100.393330  49.196427 -1.675
10280 1 -102.878765  46.379085 -1.675
10281 1 -104.101963  47.100324 -1.675
10282 1 -104.088950  48.520265 -1.675
10283 1 -102.852739  49.218965 -1.675
10284 1 -105.338174  46.401623 -1.675
10285 1 -106.561372  47.122863 -1.675
10286 1 -106.548359  48.542803 -1.675
10287 1 -105.312148  49.241504 -1.675
10288 1 -107.797583  46.424162 -1.675
10289 1 -109.020781  47.145402 -1.675
10290 1 -109.007768  48.565342 -1.675
10291 1 -107.771557  49.264043 -1.675
10292 1 -110.256991  46.446701 -1.675
10293 1 -111.480190  47.167940 -1.675
10294 1 -111.467177  48.587881 -1.675
10295 1 -110.230966  49.286582 -1.675
10296 1 -112.716400  46.469240 -1.675
10297 1 -113.939598  47.190479 -1.675
10298 1 -113.926586  48.610420 -1.675
10299 1 -112.690375  49.309120 -1.675
10300 1 -115.175809  46.491778 -1.675
10301 1 -115.149784  49.331659 -1.675
10302 1  116.047663  48.632958 -1.675
10303 1  114.824465  49.354198 -1.675
10304 1  114.837478  50.774138 -1.675
10305 1  116.073689  51.472839 -1.675
10306 1  113.588254  48.655497 -1.675
10307 1  112.365056  49.376737 -1.675
10308 1  112.378069  50.796677 -1.675
10309 1  113.614280  51.495378 -1.675
10310 1  111.128845  48.678036 -1.675
10311 1  109.905647  49.399275 -1.675
10312 1  109.918660  50.819216 -1.675
10313 1  111.154871  51.517917 -1.675
10314 1  108.669437  48.700575 -1.675
10315 1  107.446238  49.421814 -1.675
10316 1  107.459251  50.841754 -1.675
10317 1  108.695462  51.540455 -1.675
10318 1  106.210028  48.723113 -1.675
10319 1  104.986830  49.444353 -1.675
10320 1  104.999842  50.864293 -1.675
10321 1  106.236053  51.562994 -1.675
10322 1  103.750619  48.745652 -1.675
10323 1  102.527421  49.466892 -1.675
10324 1  102.540433  50.886832 -1.675
10325 1  103.776644  51.585533 -1.675
10326 1  101.291210  48.768191 -1.675
10327 1  100.068012  49.489430 -1.675
10328 1  100.081025  50.909371 -1.675
10329 1  101.317235  51.608071 -1.675
10330 1   98.831801  48.790729 -1.675
10331 1   97.608603  49.511969 -1.675
10332 1   97.621616  50.931909 -1.675
10333 1   98.857827  51.630610 -1.675
10334 1   96.372392  48.813268 -1.675
10335 1   95.149194  49.534508 -1.675
10336 1   95.162207  50.954448 -1.675
10337 1   96.398418  51.653149 -1.675
10338 1   93.912983  48.835807 -1.675
10339 1   92.689785  49.557046 -1.675
10340 1   92.702798  50.976987 -1.675
10341 1   93.939009  51.675688 -1.675
10342 1   91.453574  48.858346 -1.675
10343 1   90.230376  49.579585 -1.675
10344 1   90.243389  50.999526 -1.675
10345 1   91.479600  51.698226 -1.675
10346 1   88.994166  48.880884 -1.675
10347 1   87.770967  49.602124 -1.675
10348 1   87.783980  51.022064 -1.675
10349 1   89.020191  51.720765 -1.675
10350 1   86.534757  48.903423 -1.675
10351 1   85.311559  49.624663 -1.675
10352 1   85.324571  51.044603 -1.675
10353 1   86.560782  51.743304 -1.675
10354 1   84.075348  48.925962 -1.675
10355 1   82.852150  49.647201 -1.675
10356 1   82.865162  51.067142 -1.675
10357 1   84.101373  51.765843 -1.675
10358 1   81.615939  48.948501 -1.675
10359 1   80.392741  49.669740 -1.675
10360 1   80.405754  51.089681 -1.675
10361 1   81.641964  51.788381 -1.675
10362 1   79.156530  48.971039 -1.675
10363 1   77.933332  49.692279 -1.675
10364 1   77.946345  51.112219 -1.675
10365 1   79.182556  51.810920 -1.675
10366 1   76.697121  48.993578 -1.675
10367 1   75.473923  49.714818 -1.675
10368 1   75.486936  51.134758 -1.675
10369 1   76.723147  51.833459 -1.675
10370 1   74.237712  49.016117 -1.675
10371 1   73.014514  49.737356 -1.675
10372 1   73.027527  51.157297 -1.675
10373 1   74.263738  51.855998 -1.675
10374 1   71.778303  49.038656 -1.675
10375 1   70.555105  49.759895 -1.675
10376 1   70.568118  51.179835 -1.675
10377 1   71.804329  51.878536 -1.675
10378 1   69.318895  49.061194 -1.675
10379 1   68.095696  49.782434 -1.675
10380 1   68.108709  51.202374 -1.675
10381 1   69.344920  51.901075 -1.675
10382 1   66.859486  49.083733 -1.675
10383 1   65.636288  49.804973 -1.675
10384 1   65.649300  51.224913 -1.675
10385 1   66.885511  51.923614 -1.675
10386 1   64.400077  49.106272 -1.675
10387 1   63.176879  49.827511 -1.675
10388 1   63.189891  51.247452 -1.675
10389 1   64.426102  51.946153 -1.675
10390 1   61.940668  49.128811 -1.675
10391 1   60.717470  49.850050 -1.675
10392 1   60.730483  51.269990 -1.675
10393 1   61.966693  51.968691 -1.675
10394 1   59.481259  49.151349 -1.675
10395 1   58.258061  49.872589 -1.675
10396 1   58.271074  51.292529 -1.675
10397 1   59.507285  51.991230 -1.675
10398 1   57.021850  49.173888 -1.675
10399 1   55.798652  49.895128 -1.675
10400 1   55.811665  51.315068 -1.675
10401 1   57.047876  52.013769 -1.675
10402 1   54.562441  49.196427 -1.675
10403 1   53.339243  49.917666 -1.675
10404 1   53.352256  51.337607 -1.675
10405 1   54.588467  52.036307 -1.675
10406 1   52.103032  49.218965 -1.675
10407 1   50.879834  49.940205 -1.675
10408 1   50.892847  51.360145 -1.675
10409 1   52.129058  52.058846 -1.675
10410 1   49.643624  49.241504 -1.675
10411 1   48.420425  49.962744 -1.675
10412 1   48.433438  51.382684 -1.675
10413 1   49.669649  52.081385 -1.675
10414 1   47.184215  49.264043 -1.675
10415 1   45.961017  49.985282 -1.675
10416 1   45.974029  51.405223 -1.675
10417 1   47.210240  52.103924 -1.675
10418 1   44.724806  49.286582 -1.675
10419 1   43.501608  50.007821 -1.675
10420 1   43.514620  51.427762 -1.675
10421 1   44.750831  52.126462 -1.675
10422 1   42.265397  49.309120 -1.675
10423 1   41.042199  50.030360 -1.675
10424 1   41.055212  51.450300 -1.675
10425 1   42.291422  52.149001 -1.675
10426 1   39.805988  49.331659 -1.675
10427 1   38.582790  50.052899 -1.675
10428 1   38.595803  51.472839 -1.675
10429 1   39.832014  52.171540 -1.675
10430 1   37.346579  49.354198 -1.675
10431 1   36.123381  50.075437 -1.675
10432 1   36.136394  51.495378 -1.675
10433 1   37.372605  52.194079 -1.675
10434 1   34.887170  49.376737 -1.675
10435 1   33.663972  50.097976 -1.675
10436 1   33.676985  51.517917 -1.675
10437 1   34.913196  52.216617 -1.675
10438 1   32.427761  49.399275 -1.675
10439 1   31.204563  50.120515 -1.675
10440 1   31.217576  51.540455 -1.675
10441 1   32.453787  52.239156 -1.675
10442 1   29.968353  49.421814 -1.675
10443 1   28.745155  50.143054 -1.675
10444 1   28.758167  51.562994 -1.675
10445 1   29.994378  52.261695 -1.675
10446 1   27.508944  49.444353 -1.675
10447 1   26.285746  50.165592 -1.675
10448 1   26.298758  51.585533 -1.675
10449 1   27.534969  52.284234 -1.675
10450 1   25.049535  49.466892 -1.675
10451 1   23.826337  50.188131 -1.675
10452 1   23.839350  51.608071 -1.675
10453 1   25.075560  52.306772 -1.675
10454 1   22.590126  49.489430 -1.675
10455 1   21.366928  50.210670 -1.675
10456 1   21.379941  51.630610 -1.675
10457 1   22.616151  52.329311 -1.675
10458 1   20.130717  49.511969 -1.675
10459 1   18.907519  50.233209 -1.675
10460 1   18.920532  51.653149 -1.675
10461 1   20.156743  52.351850 -1.675
10462 1   17.671308  49.534508 -1.675
10463 1   16.448110  50.255747 -1.675
10464 1   16.461123  51.675688 -1.675
10465 1   17.697334  52.374389 -1.675
10466 1   15.211899  49.557046 -1.675
10467 1   13.988701  50.278286 -1.675
10468 1   14.001714  51.698226 -1.675
10469 1   15.237925  52.396927 -1.675
10470 1   12.752490  49.579585 -1.675
10471 1   11.529292  50.300825 -1.675
10472 1   11.542305  51.720765 -1.675
10473 1   12.778516  52.419466 -1.675
10474 1   10.293082  49.602124 -1.675
10475 1    9.069884  50.323364 -1.675
10476 1    9.082896  51.743304 -1.675
10477 1   10.319107  52.442005 -1.675
10478 1    7.833673  49.624663 -1.675
10479 1    6.610475  50.345902 -1.675
10480 1    6.623487  51.765843 -1.675
10481 1    7.859698  52.464543 -1.675
10482 1    5.374264  49.647201 -1.675
10483 1    4.151066  50.368441 -1.675
10484 1    4.164079  51.788381 -1.675
10485 1    5.400289  52.487082 -1.675
10486 1    2.914855  49.669740 -1.675
10487 1    1.691657  50.390980 -1.675
10488 1    1.704670  51.810920 -1.675
10489 1    2.940880  52.509621 -1.675
10490 1    0.455446  49.692279 -1.675
10491 1   -0.767752  50.413518 -1.675
10492 1   -0.754739  51.833459 -1.675
10493 1    0.481472  52.532160 -1.675
10494 1   -2.003963  49.714818 -1.675
10495 1   -3.227161  50.436057 -1.675
10496 1   -3.214148  51.855998 -1.675
10497 1   -1.977937  52.554698 -1.675
10498 1   -4.463372  49.737356 -1.675
10499 1   -5.686570  50.458596 -1.675
10500 1   -5.673557  51.878536 -1.675
10501 1   -4.437346  52.577237 -1.675
10502 1   -6.922781  49.759895 -1.675
10503 1   -8.145979  50.481135 -1.675
10504 1   -8.132966  51.901075 -1.675
10505 1   -6.896755  52.599776 -1.675
10506 1   -9.382189  49.782434 -1.675
10507 1  -10.605387  50.503673 -1.675
10508 1  -10.592375  51.923614 -1.675
10509 1   -9.356164  52.622315 -1.675
10510 1  -11.841598  49.804973 -1.675
10511 1  -13.064796  50.526212 -1.675
10512 1  -13.051784  51.946153 -1.675
10513 1  -11.815573  52.644853 -1.675
10514 1  -14.301007  49.827511 -1.675
10515 1  -15.524205  50.548751 -1.675
10516 1  -15.511192  51.968691 -1.675
10517 1  -14.274982  52.667392 -1.675
10518 1  -16.760416  49.850050 -1.675
10519 1  -17.983614  50.571290 -1.675
10520 1  -17.970601  51.991230 -1.675
10521 1  -16.734391  52.689931 -1.675
10522 1  -19.219825  49.872589 -1.675
10523 1  -20.443023  50.593828 -1.675
10524 1  -20.430010  52.013769 -1.675
10525 1  -19.193799  52.712470 -1.675
10526 1  -21.679234  49.895128 -1.675
10527 1  -22.902432  50.616367 -1.675
10528 1  -22.889419  52.036307 -1.675
10529 1  -21.653208  52.735008 -1.675
10530 1  -24.138643  49.917666 -1.675
10531 1  -25.361841  50.638906 -1.675
10532 1  -25.348828  52.058846 -1.675
10533 1  -24.112617  52.757547 -1.675
10534 1  -26.598052  49.940205 -1.675
10535 1  -27.821250  50.661445 -1.675
10536 1  -27.808237  52.081385 -1.675
10537 1  -26.572026  52.780086 -1.675
10538 1  -29.057460  49.962744 -1.675
10539 1  -30.280658  50.683983 -1.675
10540 1  -30.267646  52.103924 -1.675
10541 1  -29.031435  52.802624 -1.675
10542 1  -31.516869  49.985282 -1.675
10543 1  -32.740067  50.706522 -1.675
10544 1  -32.727055  52.126462 -1.675
10545 1  -31.490844  52.825163 -1.675
10546 1  -33.976278  50.007821 -1.675
10547 1  -35.199476  50.729061 -1.675
10548 1  -35.186463  52.149001 -1.675
10549 1  -33.950253  52.847702 -1.675
10550 1  -36.435687  50.030360 -1.675
10551 1  -37.658885  50.751600 -1.675
10552 1  -37.645872  52.171540 -1.675
10553 1  -36.409662  52.870241 -1.675
10554 1  -38.895096  50.052899 -1.675
10555 1  -40.118294  50.774138 -1.675
10556 1  -40.105281  52.194079 -1.675
10557 1  -38.869070  52.892779 -1.675
10558 1  -41.354505  50.075437 -1.675
10559 1  -42.577703  50.796677 -1.675
10560 1  -42.564690  52.216617 -1.675
10561 1  -41.328479  52.915318 -1.675
10562 1  -43.813914  50.097976 -1.675
10563 1  -45.037112  50.819216 -1.675
10564 1  -45.024099  52.239156 -1.675
10565 1  -43.787888  52.937857 -1.675
10566 1  -46.273323  50.120515 -1.675
10567 1  -47.496521  50.841754 -1.675
10568 1  -47.483508  52.261695 -1.675
10569 1  -46.247297  52.960396 -1.675
10570 1  -48.732731  50.143054 -1.675
10571 1  -49.955929  50.864293 -1.675
10572 1  -49.942917  52.284234 -1.675
10573 1  -48.706706  52.982934 -1.675
10574 1  -51.192140  50.165592 -1.675
10575 1  -52.415338  50.886832 -1.675
10576 1  -52.402326  52.306772 -1.675
10577 1  -51.166115  53.005473 -1.675
10578 1  -53.651549  50.188131 -1.675
10579 1  -54.874747  50.909371 -1.675
10580 1  -54.861734  52.329311 -1.675
10581 1  -53.625524  53.028012 -1.675
10582 1  -56.110958  50.210670 -1.675
10583 1  -57.334156  50.931909 -1.675
10584 1  -57.321143  52.351850 -1.675
10585 1  -56.084933  53.050551 -1.675
10586 1  -58.570367  50.233209 -1.675
10587 1  -59.793565  50.954448 -1.675
10588 1  -59.780552  52.374389 -1.675
10589 1  -58.544341  53.073089 -1.675
10590 1  -61.029776  50.255747 -1.675
10591 1  -62.252974  50.976987 -1.675
10592 1  -62.239961  52.396927 -1.675
10593 1  -61.003750  53.095628 -1.675
10594 1  -63.489185  50.278286 -1.675
10595 1  -64.712383  50.999526 -1.675
10596 1  -64.699370  52.419466 -1.675
10597 1  -63.463159  53.118167 -1.675
10598 1  -65.948593  50.300825 -1.675
10599 1  -67.171792  51.022064 -1.675
10600 1  -67.158779  52.442005 -1.675
10601 1  -65.922568  53.140706 -1.675
10602 1  -68.408002  50.323364 -1.675
10603 1  -69.631200  51.044603 -1.675
10604 1  -69.618188  52.464543 -1.675
10605 1  -68.381977  53.163244 -1.675
10606 1  -70.867411  50.345902 -1.675
10607 1  -72.090609  51.067142 -1.675
10608 1  -72.077597  52.487082 -1.675
10609 1  -70.841386  53.185783 -1.675
10610 1  -73.326820  50.368441 -1.675
10611 1  -74.550018  51.089681 -1.675
10612 1  -74.537005  52.509621 -1.675
10613 1  -73.300795  53.208322 -1.675
10614 1  -75.786229  50.390980 -1.675
10615 1  -77.009427  51.112219 -1.675
10616 1  -76.996414  52.532160 -1.675
10617 1  -75.760203  53.230860 -1.675
10618 1  -78.245638  50.413518 -1.675
10619 1  -79.468836  51.134758 -1.675
10620 1  -79.455823  52.554698 -1.675
10621 1  -78.219612  53.253399 -1.675
10622 1  -80.705047  50.436057 -1.675
10623 1  -81.928245  51.157297 -1.675
10624 1  -81.915232  52.577237 -1.675
10625 1  -80.679021  53.275938 -1.675
10626 1  -83.164456  50.458596 -1.675
10627 1  -84.387654  51.179835 -1.675
10628 1  -84.374641  52.599776 -1.675
10629 1  -83.138430  53.298477 -1.675
10630 1  -85.623864  50.481135 -1.675
10631 1  -86.847063  51.202374 -1.675
10632 1  -86.834050  52.622315 -1.675
10633 1  -85.597839  53.321015 -1.675
10634 1  -88.083273  50.503673 -1.675
10635 1  -89.306471  51.224913 -1.675
10636 1  -89.293459  52.644853 -1.675
10637 1  -88.057248  53.343554 -1.675
10638 1  -90.542682  50.526212 -1.675
10639 1  -91.765880  51.247452 -1.675
10640 1  -91.752868  52.667392 -1.675
10641 1  -90.516657  53.366093 -1.675
10642 1  -93.002091  50.548751 -1.675
10643 1  -94.225289  51.269990 -1.675
10644 1  -94.212276  52.689931 -1.675
10645 1  -92.976066  53.388632 -1.675
10646 1  -95.461500  50.571290 -1.675
10647 1  -96.684698  51.292529 -1.675
10648 1  -96.671685  52.712470 -1.675
10649 1  -95.435474  53.411170 -1.675
10650 1  -97.920909  50.593828 -1.675
10651 1  -99.144107  51.315068 -1.675
10652 1  -99.131094  52.735008 -1.675
10653 1  -97.894883  53.433709 -1.675
10654 1 -100.380318  50.616367 -1.675
10655 1 -101.603516  51.337607 -1.675
10656 1 -101.590503  52.757547 -1.675
10657 1 -100.354292  53.456248 -1.675
10658 1 -102.839727  50.638906 -1.675
10659 1 -104.062925  51.360145 -1.675
10660 1 -104.049912  52.780086 -1.675
10661 1 -102.813701  53.478787 -1.675
10662 1 -105.299135  50.661445 -1.675
10663 1 -106.522334  51.382684 -1.675
10664 1 -106.509321  52.802624 -1.675
10665 1 -105.273110  53.501325 -1.675
10666 1 -107.758544  50.683983 -1.675
10667 1 -108.981742  51.405223 -1.675
10668 1 -108.968730  52.825163 -1.675
10669 1 -107.732519  53.523864 -1.675
10670 1 -110.217953  50.706522 -1.675
10671 1 -111.441151  51.427762 -1.675
10672 1 -111.428139  52.847702 -1.675
10673 1 -110.191928  53.546403 -1.675
10674 1 -112.677362  50.729061 -1.675
10675 1 -113.900560  51.450300 -1.675
10676 1 -113.887547  52.870241 -1.675
10677 1 -112.651337  53.568942 -1.675
10678 1 -115.136771  50.751600 -1.675
10679 1 -115.110745  53.591480 -1.675
10680 1  116.086701  52.892779 -1.675
10681 1  114.863503  53.614019 -1.675
10682 1  114.876516  55.033959 -1.675
10683 1  116.112727  55.732660 -1.675
10684 1  113.627292  52.915318 -1.675
10685 1  112.404094  53.636558 -1.675
10686 1  112.417107  55.056498 -1.675
10687 1  113.653318  55.755199 -1.675
10688 1  111.167884  52.937857 -1.675
10689 1  109.944686  53.659096 -1.675
10690 1  109.957698  55.079037 -1.675
10691 1  111.193909  55.777738 -1.675
10692 1  108.708475  52.960396 -1.675
10693 1  107.485277  53.681635 -1.675
10694 1  107.498289  55.101576 -1.675
10695 1  108.734500  55.800276 -1.675
10696 1  106.249066  52.982934 -1.675
10697 1  105.025868  53.704174 -1.675
10698 1  105.038881  55.124114 -1.675
10699 1  106.275091  55.822815 -1.675
10700 1  103.789657  53.005473 -1.675
10701 1  102.566459  53.726713 -1.675
10702 1  102.579472  55.146653 -1.675
10703 1  103.815682  55.845354 -1.675
10704 1  101.330248  53.028012 -1.675
10705 1  100.107050  53.749251 -1.675
10706 1  100.120063  55.169192 -1.675
10707 1  101.356274  55.867893 -1.675
10708 1   98.870839  53.050551 -1.675
10709 1   97.647641  53.771790 -1.675
10710 1   97.660654  55.191731 -1.675
10711 1   98.896865  55.890431 -1.675
10712 1   96.411430  53.073089 -1.675
10713 1   95.188232  53.794329 -1.675
10714 1   95.201245  55.214269 -1.675
10715 1   96.437456  55.912970 -1.675
10716 1   93.952022  53.095628 -1.675
10717 1   92.728823  53.816868 -1.675
10718 1   92.741836  55.236808 -1.675
10719 1   93.978047  55.935509 -1.675
10720 1   91.492613  53.118167 -1.675
10721 1   90.269415  53.839406 -1.675
10722 1   90.282427  55.259347 -1.675
10723 1   91.518638  55.958048 -1.675
10724 1   89.033204  53.140706 -1.675
10725 1   87.810006  53.861945 -1.675
10726 1   87.823018  55.281885 -1.675
10727 1   89.059229  55.980586 -1.675
10728 1   86.573795  53.163244 -1.675
10729 1   85.350597  53.884484 -1.675
10730 1   85.363610  55.304424 -1.675
10731 1   86.599820  56.003125 -1.675
10732 1   84.114386  53.185783 -1.675
10733 1   82.891188  53.907023 -1.675
10734 1   82.904201  55.326963 -1.675
10735 1   84.140412  56.025664 -1.675
10736 1   81.654977  53.208322 -1.675
10737 1   80.431779  53.929561 -1.675
10738 1   80.444792  55.349502 -1.675
10739 1   81.681003  56.048202 -1.675
10740 1   79.195568  53.230860 -1.675
10741 1   77.972370  53.952100 -1.675
10742 1   77.985383  55.372040 -1.675
10743 1   79.221594  56.070741 -1.675
10744 1   76.736159  53.253399 -1.675
10745 1   75.512961  53.974639 -1.675
10746 1   75.525974  55.394579 -1.675
10747 1   76.762185  56.093280 -1.675
10748 1   74.276751  53.275938 -1.675
10749 1   73.053552  53.997178 -1.675
10750 1   73.066565  55.417118 -1.675
10751 1   74.302776  56.115819 -1.675
10752 1   71.817342  53.298477 -1.675
10753 1   70.594144  54.019716 -1.675
10754 1   70.607156  55.439657 -1.675
10755 1   71.843367  56.138357 -1.675
10756 1   69.357933  53.321015 -1.675
10757 1   68.134735  54.042255 -1.675
10758 1   68.147747  55.462195 -1.675
10759 1   69.383958  56.160896 -1.675
10760 1   66.898524  53.343554 -1.675
10761 1   65.675326  54.064794 -1.675
10762 1   65.688339  55.484734 -1.675
10763 1   66.924549  56.183435 -1.675
10764 1   64.439115  53.366093 -1.675
10765 1   63.215917  54.087332 -1.675
10766 1   63.228930  55.507273 -1.675
10767 1   64.465141  56.205974 -1.675
10768 1   61.979706  53.388632 -1.675
10769 1   60.756508  54.109871 -1.675
10770 1   60.769521  55.529812 -1.675
10771 1   62.005732  56.228512 -1.675
10772 1   59.520297  53.411170 -1.675
10773 1   58.297099  54.132410 -1.675
10774 1   58.310112  55.552350 -1.675
10775 1   59.546323  56.251051 -1.675
10776 1   57.060888  53.433709 -1.675
10777 1   55.837690  54.154949 -1.675
10778 1   55.850703  55.574889 -1.675
10779 1   57.086914  56.273590 -1.675
10780 1   54.601480  53.456248 -1.675
10781 1   53.378281  54.177487 -1.675
10782 1   53.391294  55.597428 -1.675
10783 1   54.627505  56.296129 -1.675
10784 1   52.142071  53.478787 -1.675
10785 1   50.918873  54.200026 -1.675
10786 1   50.931885  55.619967 -1.675
10787 1   52.168096  56.318667 -1.675
10788 1   49.682662  53.501325 -1.675
10789 1   48.459464  54.222565 -1.675
10790 1   48.472476  55.642505 -1.675
10791 1   49.708687  56.341206 -1.675
10792 1   47.223253  53.523864 -1.675
10793 1   46.000055  54.245104 -1.675
10794 1   46.013068  55.665044 -1.675
10795 1   47.249278  56.363745 -1.675
10796 1   44.763844  53.546403 -1.675
10797 1   43.540646  54.267642 -1.675
10798 1   43.553659  55.687583 -1.675
10799 1   44.789870  56.386284 -1.675
10800 1   42.304435  53.568942 -1.675
10801 1   41.081237  54.290181 -1.675
10802 1   41.094250  55.710121 -1.675
10803 1   42.330461  56.408822 -1.675
10804 1   39.845026  53.591480 -1.675
10805 1   38.621828  54.312720 -1.675
10806 1   38.634841  55.732660 -1.675
10807 1   39.871052  56.431361 -1.675
10808 1   37.385617  53.614019 -1.675
10809 1   36.162419  54.335259 -1.675
10810 1   36.175432  55.755199 -1.675
10811 1   37.411643  56.453900 -1.675
10812 1   34.926209  53.636558 -1.675
10813 1   33.703010  54.357797 -1.675
10814 1   33.716023  55.777738 -1.675
10815 1   34.952234  56.476438 -1.675
10816 1   32.466800  53.659096 -1.675
10817 1   31.243602  54.380336 -1.675
10818 1   31.256614  55.800276 -1.675
10819 1   32.492825  56.498977 -1.675
10820 1   30.007391  53.681635 -1.675
10821 1   28.784193  54.402875 -1.675
10822 1   28.797205  55.822815 -1.675
10823 1   30.033416  56.521516 -1.675
10824 1   27.547982  53.704174 -1.675
10825 1   26.324784  54.425413 -1.675
10826 1   26.337797  55.845354 -1.675
10827 1   27.574007  56.544055 -1.675
10828 1   25.088573  53.726713 -1.675
10829 1   23.865375  54.447952 -1.675
10830 1   23.878388  55.867893 -1.675
10831 1   25.114599  56.566593 -1.675
10832 1   22.629164  53.749251 -1.675
10833 1   21.405966  54.470491 -1.675
10834 1   21.418979  55.890431 -1.675
10835 1   22.655190  56.589132 -1.675
10836 1   20.169755  53.771790 -1.675
10837 1   18.946557  54.493030 -1.675
10838 1   18.959570  55.912970 -1.675
10839 1   20.195781  56.611671 -1.675
10840 1   17.710346  53.794329 -1.675
10841 1   16.487148  54.515568 -1.675
10842 1   16.500161  55.935509 -1.675
10843 1   17.736372  56.634210 -1.675
10844 1   15.250938  53.816868 -1.675
10845 1   14.027739  54.538107 -1.675
10846 1   14.040752  55.958048 -1.675
10847 1   15.276963  56.656748 -1.675
10848 1   12.791529  53.839406 -1.675
10849 1   11.568331  54.560646 -1.675
10850 1   11.581343  55.980586 -1.675
10851 1   12.817554  56.679287 -1.675
10852 1   10.332120  53.861945 -1.675
10853 1    9.108922  54.583185 -1.675
10854 1    9.121934  56.003125 -1.675
10855 1   10.358145  56.701826 -1.675
10856 1    7.872711  53.884484 -1.675
10857 1    6.649513  54.605723 -1.675
10858 1    6.662526  56.025664 -1.675
10859 1    7.898736  56.724365 -1.675
10860 1    5.413302  53.907023 -1.675
10861 1    4.190104  54.628262 -1.675
10862 1    4.203117  56.048202 -1.675
10863 1    5.439328  56.746903 -1.675
10864 1    2.953893  53.929561 -1.675
10865 1    1.730695  54.650801 -1.675
10866 1    1.743708  56.070741 -1.675
10867 1    2.979919  56.769442 -1.675
10868 1    0.494484  53.952100 -1.675
10869 1   -0.728714  54.673340 -1.675
10870 1   -0.715701  56.093280 -1.675
10871 1    0.520510  56.791981 -1.675
10872 1   -1.964925  53.974639 -1.675
10873 1   -3.188123  54.695878 -1.675
10874 1   -3.175110  56.115819 -1.675
10875 1   -1.938899  56.814520 -1.675
10876 1   -4.424333  53.997178 -1.675
10877 1   -5.647531  54.718417 -1.675
10878 1   -5.634519  56.138357 -1.675
10879 1   -4.398308  56.837058 -1.675
10880 1   -6.883742  54.019716 -1.675
10881 1   -8.106940  54.740956 -1.675
10882 1   -8.093928  56.160896 -1.675
10883 1   -6.857717  56.859597 -1.675
10884 1   -9.343151  54.042255 -1.675
10885 1  -10.566349  54.763495 -1.675
10886 1  -10.553336  56.183435 -1.675
10887 1   -9.317126  56.882136 -1.675
10888 1  -11.802560  54.064794 -1.675
10889 1  -13.025758  54.786033 -1.675
10890 1  -13.012745  56.205974 -1.675
10891 1  -11.776535  56.904674 -1.675
10892 1  -14.261969  54.087332 -1.675
10893 1  -15.485167  54.808572 -1.675
10894 1  -15.472154  56.228512 -1.675
10895 1  -14.235943  56.927213 -1.675
10896 1  -16.721378  54.109871 -1.675
10897 1  -17.944576  54.831111 -1.675
10898 1  -17.931563  56.251051 -1.675
10899 1  -16.695352  56.949752 -1.675
10900 1  -19.180787  54.132410 -1.675
10901 1  -20.403985  54.853649 -1.675
10902 1  -20.390972  56.273590 -1.675
10903 1  -19.154761  56.972291 -1.675
10904 1  -21.640196  54.154949 -1.675
10905 1  -22.863394  54.876188 -1.675
10906 1  -22.850381  56.296129 -1.675
10907 1  -21.614170  56.994829 -1.675
10908 1  -24.099604  54.177487 -1.675
10909 1  -25.322802  54.898727 -1.675
10910 1  -25.309790  56.318667 -1.675
10911 1  -24.073579  57.017368 -1.675
10912 1  -26.559013  54.200026 -1.675
10913 1  -27.782211  54.921266 -1.675
10914 1  -27.769199  56.341206 -1.675
10915 1  -26.532988  57.039907 -1.675
10916 1  -29.018422  54.222565 -1.675
10917 1  -30.241620  54.943804 -1.675
10918 1  -30.228607  56.363745 -1.675
10919 1  -28.992397  57.062446 -1.675
10920 1  -31.477831  54.245104 -1.675
10921 1  -32.701029  54.966343 -1.675
10922 1  -32.688016  56.386284 -1.675
10923 1  -31.451806  57.084984 -1.675
10924 1  -33.937240  54.267642 -1.675
10925 1  -35.160438  54.988882 -1.675
10926 1  -35.147425  56.408822 -1.675
10927 1  -33.911214  57.107523 -1.675
10928 1  -36.396649  54.290181 -1.675
10929 1  -37.619847  55.011421 -1.675
10930 1  -37.606834  56.431361 -1.675
10931 1  -36.370623  57.130062 -1.675
10932 1  -38.856058  54.312720 -1.675
10933 1  -40.079256  55.033959 -1.675
10934 1  -40.066243  56.453900 -1.675
10935 1  -38.830032  57.152601 -1.675
10936 1  -41.315467  54.335259 -1.675
10937 1  -42.538665  55.056498 -1.675
10938 1  -42.525652  56.476438 -1.675
10939 1  -41.289441  57.175139 -1.675
10940 1  -43.774875  54.357797 -1.675
10941 1  -44.998073  55.079037 -1.675
10942 1  -44.985061  56.498977 -1.675
10943 1  -43.748850  57.197678 -1.675
10944 1  -46.234284  54.380336 -1.675
10945 1  -47.457482  55.101576 -1.675
10946 1  -47.444470  56.521516 -1.675
10947 1  -46.208259  57.220217 -1.675
10948 1  -48.693693  54.402875 -1.675
10949 1  -49.916891  55.124114 -1.675
10950 1  -49.903878  56.544055 -1.675
10951 1  -48.667668  57.242756 -1.675
10952 1  -51.153102  54.425413 -1.675
10953 1  -52.376300  55.146653 -1.675
10954 1  -52.363287  56.566593 -1.675
10955 1  -51.127077  57.265294 -1.675
10956 1  -53.612511  54.447952 -1.675
10957 1  -54.835709  55.169192 -1.675
10958 1  -54.822696  56.589132 -1.675
10959 1  -53.586485  57.287833 -1.675
10960 1  -56.071920  54.470491 -1.675
10961 1  -57.295118  55.191731 -1.675
10962 1  -57.282105  56.611671 -1.675
10963 1  -56.045894  57.310372 -1.675
10964 1  -58.531329  54.493030 -1.675
10965 1  -59.754527  55.214269 -1.675
10966 1  -59.741514  56.634210 -1.675
10967 1  -58.505303  57.332910 -1.675
10968 1  -60.990738  54.515568 -1.675
10969 1  -62.213936  55.236808 -1.675
10970 1  -62.200923  56.656748 -1.675
10971 1  -60.964712  57.355449 -1.675
10972 1  -63.450146  54.538107 -1.675
10973 1  -64.673344  55.259347 -1.675
10974 1  -64.660332  56.679287 -1.675
10975 1  -63.424121  57.377988 -1.675
10976 1  -65.909555  54.560646 -1.675
10977 1  -67.132753  55.281885 -1.675
10978 1  -67.119741  56.701826 -1.675
10979 1  -65.883530  57.400527 -1.675
10980 1  -68.368964  54.583185 -1.675
10981 1  -69.592162  55.304424 -1.675
10982 1  -69.579149  56.724365 -1.675
10983 1  -68.342939  57.423065 -1.675
10984 1  -70.828373  54.605723 -1.675
10985 1  -72.051571  55.326963 -1.675
10986 1  -72.038558  56.746903 -1.675
10987 1  -70.802348  57.445604 -1.675
10988 1  -73.287782  54.628262 -1.675
10989 1  -74.510980  55.349502 -1.675
10990 1  -74.497967  56.769442 -1.675
10991 1  -73.261756  57.468143 -1.675
10992 1  -75.747191  54.650801 -1.675
10993 1  -76.970389  55.372040 -1.675
10994 1  -76.957376  56.791981 -1.675
10995 1  -75.721165  57.490682 -1.675
10996 1  -78.206600  54.673340 -1.675
10997 1  -79.429798  55.394579 -1.675
10998 1  -79.416785  56.814520 -1.675
10999 1  -78.180574  57.513220 -1.675
11000 1  -80.666008  54.695878 -1.675
11001 1  -81.889207  55.417118 -1.675
11002 1  -81.876194  56.837058 -1.675
11003 1  -80.639983  57.535759 -1.675
11004 1  -83.125417  54.718417 -1.675
11005 1  -84.348615  55.439657 -1.675
11006 1  -84.335603  56.859597 -1.675
11007 1  -83.099392  57.558298 -1.675
11008 1  -85.584826  54.740956 -1.675
11009 1  -86.808024  55.462195 -1.675
11010 1  -86.795012  56.882136 -1.675
11011 1  -85.558801  57.580837 -1.675
11012 1  -88.044235  54.763495 -1.675
11013 1  -89.267433  55.484734 -1.675
11014 1  -89.254420  56.904674 -1.675
11015 1  -88.018210  57.603375 -1.675
11016 1  -90.503644  54.786033 -1.675
11017 1  -91.726842  55.507273 -1.675
11018 1  -91.713829  56.927213 -1.675
11019 1  -90.477618  57.625914 -1.675
11020 1  -92.963053  54.808572 -1.675
11021 1  -94.186251  55.529812 -1.675
11022 1  -94.173238  56.949752 -1.675
11023 1  -92.937027  57.648453 -1.675
11024 1  -95.422462  54.831111 -1.675
11025 1  -96.645660  55.552350 -1.675
11026 1  -96.632647  56.972291 -1.675
11027 1  -95.396436  57.670991 -1.675
11028 1  -97.881871  54.853649 -1.675
11029 1  -99.105069  55.574889 -1.675
11030 1  -99.092056  56.994829 -1.675
11031 1  -97.855845  57.693530 -1.675
11032 1 -100.341279  54.876188 -1.675
11033 1 -101.564478  55.597428 -1.675
11034 1 -101.551465  57.017368 -1.675
11035 1 -100.315254  57.716069 -1.675
11036 1 -102.800688  54.898727 -1.675
11037 1 -104.023886  55.619967 -1.675
11038 1 -104.010874  57.039907 -1.675
11039 1 -102.774663  57.738608 -1.675
11040 1 -105.260097  54.921266 -1.675
11041 1 -106.483295  55.642505 -1.675
11042 1 -106.470283  57.062446 -1.675
11043 1 -105.234072  57.761146 -1.675
11044 1 -107.719506  54.943804 -1.675
11045 1 -108.942704  55.665044 -1.675
11046 1 -108.929691  57.084984 -1.675
11047 1 -107.693481  57.783685 -1.675
11048 1 -110.178915  54.966343 -1.675
11049 1 -111.402113  55.687583 -1.675
11050 1 -111.389100  57.107523 -1.675
11051 1 -110.152889  57.806224 -1.675
11052 1 -112.638324  54.988882 -1.675
11053 1 -113.861522  55.710121 -1.675
11054 1 -113.848509  57.130062 -1.675
11055 1 -112.612298  57.828763 -1.675
11056 1 -115.097733  55.011421 -1.675
11057 1 -115.071707  57.851301 -1.675
11058 1  116.125740  57.152601 -1.675
11059 1  114.902542  57.873840 -1.675
11060 1  114.915554  59.293780 -1.675
11061 1  116.151765  59.992481 -1.675
11062 1  113.666331  57.175139 -1.675
11063 1  112.443133  57.896379 -1.675
11064 1  112.456145  59.316319 -1.675
11065 1  113.692356  60.015020 -1.675
11066 1  111.206922  57.197678 -1.675
11067 1  109.983724  57.918918 -1.675
11068 1  109.996737  59.338858 -1.675
11069 1  111.232947  60.037559 -1.675
11070 1  108.747513  57.220217 -1.675
11071 1  107.524315  57.941456 -1.675
11072 1  107.537328  59.361397 -1.675
11073 1  108.773538  60.060098 -1.675
11074 1  106.288104  57.242756 -1.675
11075 1  105.064906  57.963995 -1.675
11076 1  105.077919  59.383935 -1.675
11077 1  106.314130  60.082636 -1.675
11078 1  103.828695  57.265294 -1.675
11079 1  102.605497  57.986534 -1.675
11080 1  102.618510  59.406474 -1.675
11081 1  103.854721  60.105175 -1.675
11082 1  101.369286  57.287833 -1.675
11083 1  100.146088  58.009073 -1.675
11084 1  100.159101  59.429013 -1.675
11085 1  101.395312  60.127714 -1.675
11086 1   98.909877  57.310372 -1.675
11087 1   97.686679  58.031611 -1.675
11088 1   97.699692  59.451552 -1.675
11089 1   98.935903  60.150252 -1.675
11090 1   96.450469  57.332910 -1.675
11091 1   95.227271  58.054150 -1.675
11092 1   95.240283  59.474090 -1.675
11093 1   96.476494  60.172791 -1.675
11094 1   93.991060  57.355449 -1.675
11095 1   92.767862  58.076689 -1.675
11096 1   92.780874  59.496629 -1.675
11097 1   94.017085  60.195330 -1.675
11098 1   91.531651  57.377988 -1.675
11099 1   90.308453  58.099227 -1.675
11100 1   90.321466  59.519168 -1.675
11101 1   91.557676  60.217869 -1.675
11102 1   89.072242  57.400527 -1.675
11103 1   87.849044  58.121766 -1.675
11104 1   87.862057  59.541707 -1.675
11105 1   89.098267  60.240407 -1.675
11106 1   86.612833  57.423065 -1.675
11107 1   85.389635  58.144305 -1.675
11108 1   85.402648  59.564245 -1.675
11109 1   86.638859  60.262946 -1.675
11110 1   84.153424  57.445604 -1.675
11111 1   82.930226  58.166844 -1.675
11112 1   82.943239  59.586784 -1.675
11113 1   84.179450  60.285485 -1.675
11114 1   81.694015  57.468143 -1.675
11115 1   80.470817  58.189382 -1.675
11116 1   80.483830  59.609323 -1.675
11117 1   81.720041  60.308024 -1.675
11118 1   79.234607  57.490682 -1.675
11119 1   78.011408  58.211921 -1.675
11120 1   78.024421  59.631862 -1.675
11121 1   79.260632  60.330562 -1.675
11122 1   76.775198  57.513220 -1.675
11123 1   75.552000  58.234460 -1.675
11124 1   75.565012  59.654400 -1.675
11125 1   76.801223  60.353101 -1.675
11126 1   74.315789  57.535759 -1.675
11127 1   73.092591  58.256999 -1.675
11128 1   73.105603  59.676939 -1.675
11129 1   74.341814  60.375640 -1.675
11130 1   71.856380  57.558298 -1.675
11131 1   70.633182  58.279537 -1.675
11132 1   70.646195  59.699478 -1.675
11133 1   71.882405  60.398179 -1.675
11134 1   69.396971  57.580837 -1.675
11135 1   68.173773  58.302076 -1.675
11136 1   68.186786  59.722016 -1.675
11137 1   69.422996  60.420717 -1.675
11138 1   66.937562  57.603375 -1.675
11139 1   65.714364  58.324615 -1.675
11140 1   65.727377  59.744555 -1.675
11141 1   66.963588  60.443256 -1.675
11142 1   64.478153  57.625914 -1.675
11143 1   63.254955  58.347154 -1.675
11144 1   63.267968  59.767094 -1.675
11145 1   64.504179  60.465795 -1.675
11146 1   62.018744  57.648453 -1.675
11147 1   60.795546  58.369692 -1.675
11148 1   60.808559  59.789633 -1.675
11149 1   62.044770  60.488334 -1.675
11150 1   59.559336  57.670991 -1.675
11151 1   58.336137  58.392231 -1.675
11152 1   58.349150  59.812171 -1.675
11153 1   59.585361  60.510872 -1.675
11154 1   57.099927  57.693530 -1.675
11155 1   55.876729  58.414770 -1.675
11156 1   55.889741  59.834710 -1.675
11157 1   57.125952  60.533411 -1.675
11158 1   54.640518  57.716069 -1.675
11159 1   53.417320  58.437309 -1.675
11160 1   53.430332  59.857249 -1.675
11161 1   54.666543  60.555950 -1.675
11162 1   52.181109  57.738608 -1.675
11163 1   50.957911  58.459847 -1.675
11164 1   50.970924  59.879788 -1.675
11165 1   52.207134  60.578488 -1.675
11166 1   49.721700  57.761146 -1.675
11167 1   48.498502  58.482386 -1.675
11168 1   48.511515  59.902326 -1.675
11169 1   49.747726  60.601027 -1.675
11170 1   47.262291  57.783685 -1.675
11171 1   46.039093  58.504925 -1.675
11172 1   46.052106  59.924865 -1.675
11173 1   47.288317  60.623566 -1.675
11174 1   44.802882  57.806224 -1.675
11175 1   43.579684  58.527463 -1.675
11176 1   43.592697  59.947404 -1.675
11177 1   44.828908  60.646105 -1.675
11178 1   42.343473  57.828763 -1.675
11179 1   41.120275  58.550002 -1.675
11180 1   41.133288  59.969943 -1.675
11181 1   42.369499  60.668643 -1.675
11182 1   39.884065  57.851301 -1.675
11183 1   38.660866  58.572541 -1.675
11184 1   38.673879  59.992481 -1.675
11185 1   39.910090  60.691182 -1.675
11186 1   37.424656  57.873840 -1.675
11187 1   36.201458  58.595080 -1.675
11188 1   36.214470  60.015020 -1.675
11189 1   37.450681  60.713721 -1.675
11190 1   34.965247  57.896379 -1.675
11191 1   33.742049  58.617618 -1.675
11192 1   33.755061  60.037559 -1.675
11193 1   34.991272  60.736260 -1.675
11194 1   32.505838  57.918918 -1.675
11195 1   31.282640  58.640157 -1.675
11196 1   31.295653  60.060098 -1.675
11197 1   32.531863  60.758798 -1.675
11198 1   30.046429  57.941456 -1.675
11199 1   28.823231  58.662696 -1.675
11200 1   28.836244  60.082636 -1.675
11201 1   30.072455  60.781337 -1.675
11202 1   27.587020  57.963995 -1.675
11203 1   26.363822  58.685235 -1.675
11204 1   26.376835  60.105175 -1.675
11205 1   27.613046  60.803876 -1.675
11206 1   25.127611  57.986534 -1.675
11207 1   23.904413  58.707773 -1.675
11208 1   23.917426  60.127714 -1.675
11209 1   25.153637  60.826415 -1.675
11210 1   22.668202  58.009073 -1.675
11211 1   21.445004  58.730312 -1.675
11212 1   21.458017  60.150252 -1.675
11213 1   22.694228  60.848953 -1.675
11214 1   20.208794  58.031611 -1.675
11215 1   18.985595  58.752851 -1.675
11216 1   18.998608  60.172791 -1.675
11217 1   20.234819  60.871492 -1.675
11218 1   17.749385  58.054150 -1.675
11219 1   16.526187  58.775390 -1.675
11220 1   16.539199  60.195330 -1.675
11221 1   17.775410  60.894031 -1.675
11222 1   15.289976  58.076689 -1.675
11223 1   14.066778  58.797928 -1.675
11224 1   14.079790  60.217869 -1.675
11225 1   15.316001  60.916569 -1.675
11226 1   12.830567  58.099227 -1.675
11227 1   11.607369  58.820467 -1.675
11228 1   11.620382  60.240407 -1.675
11229 1   12.856592  60.939108 -1.675
11230 1   10.371158  58.121766 -1.675
11231 1    9.147960  58.843006 -1.675
11232 1    9.160973  60.262946 -1.675
11233 1   10.397184  60.961647 -1.675
11234 1    7.911749  58.144305 -1.675
11235 1    6.688551  58.865545 -1.675
11236 1    6.701564  60.285485 -1.675
11237 1    7.937775  60.984186 -1.675
11238 1    5.452340  58.166844 -1.675
11239 1    4.229142  58.888083 -1.675
11240 1    4.242155  60.308024 -1.675
11241 1    5.478366  61.006724 -1.675
11242 1    2.992931  58.189382 -1.675
11243 1    1.769733  58.910622 -1.675
11244 1    1.782746  60.330562 -1.675
11245 1    3.018957  61.029263 -1.675
11246 1    0.533523  58.211921 -1.675
11247 1   -0.689676  58.933161 -1.675
11248 1   -0.676663  60.353101 -1.675
11249 1    0.559548  61.051802 -1.675
11250 1   -1.925886  58.234460 -1.675
11251 1   -3.149084  58.955699 -1.675
11252 1   -3.136072  60.375640 -1.675
11253 1   -1.899861  61.074341 -1.675
11254 1   -4.385295  58.256999 -1.675
11255 1   -5.608493  58.978238 -1.675
11256 1   -5.595481  60.398179 -1.675
11257 1   -4.359270  61.096879 -1.675
11258 1   -6.844704  58.279537 -1.675
11259 1   -8.067902  59.000777 -1.675
11260 1   -8.054889  60.420717 -1.675
11261 1   -6.818679  61.119418 -1.675
11262 1   -9.304113  58.302076 -1.675
11263 1  -10.527311  59.023316 -1.675
11264 1  -10.514298  60.443256 -1.675
11265 1   -9.278087  61.141957 -1.675
11266 1  -11.763522  58.324615 -1.675
11267 1  -12.986720  59.045854 -1.675
11268 1  -12.973707  60.465795 -1.675
11269 1  -11.737496  61.164496 -1.675
11270 1  -14.222931  58.347154 -1.675
11271 1  -15.446129  59.068393 -1.675
11272 1  -15.433116  60.488334 -1.675
11273 1  -14.196905  61.187034 -1.675
11274 1  -16.682340  58.369692 -1.675
11275 1  -17.905538  59.090932 -1.675
11276 1  -17.892525  60.510872 -1.675
11277 1  -16.656314  61.209573 -1.675
11278 1  -19.141748  58.392231 -1.675
11279 1  -20.364946  59.113471 -1.675
11280 1  -20.351934  60.533411 -1.675
11281 1  -19.115723  61.232112 -1.675
11282 1  -21.601157  58.414770 -1.675
11283 1  -22.824355  59.136009 -1.675
11284 1  -22.811343  60.555950 -1.675
11285 1  -21.575132  61.254651 -1.675
11286 1  -24.060566  58.437309 -1.675
11287 1  -25.283764  59.158548 -1.675
11288 1  -25.270751  60.578488 -1.675
11289 1  -24.034541  61.277189 -1.675
11290 1  -26.519975  58.459847 -1.675
11291 1  -27.743173  59.181087 -1.675
11292 1  -27.730160  60.601027 -1.675
11293 1  -26.493950  61.299728 -1.675
11294 1  -28.979384  58.482386 -1.675
11295 1  -30.202582  59.203626 -1.675
11296 1  -30.189569  60.623566 -1.675
11297 1  -28.953358  61.322267 -1.675
11298 1  -31.438793  58.504925 -1.675
11299 1  -32.661991  59.226164 -1.675
11300 1  -32.648978  60.646105 -1.675
11301 1  -31.412767  61.344805 -1.675
11302 1  -33.898202  58.527463 -1.675
11303 1  -35.121400  59.248703 -1.675
11304 1  -35.108387  60.668643 -1.675
11305 1  -33.872176  61.367344 -1.675
11306 1  -36.357611  58.550002 -1.675
11307 1  -37.580809  59.271242 -1.675
11308 1  -37.567796  60.691182 -1.675
11309 1  -36.331585  61.389883 -1.675
11310 1  -38.817019  58.572541 -1.675
11311 1  -40.040217  59.293780 -1.675
11312 1  -40.027205  60.713721 -1.675
11313 1  -38.790994  61.412422 -1.675
11314 1  -41.276428  58.595080 -1.675
11315 1  -42.499626  59.316319 -1.675
11316 1  -42.486614  60.736260 -1.675
11317 1  -41.250403  61.434960 -1.675
11318 1  -43.735837  58.617618 -1.675
11319 1  -44.959035  59.338858 -1.675
11320 1  -44.946022  60.758798 -1.675
11321 1  -43.709812  61.457499 -1.675
11322 1  -46.195246  58.640157 -1.675
11323 1  -47.418444  59.361397 -1.675
11324 1  -47.405431  60.781337 -1.675
11325 1  -46.169221  61.480038 -1.675
11326 1  -48.654655  58.662696 -1.675
11327 1  -49.877853  59.383935 -1.675
11328 1  -49.864840  60.803876 -1.675
11329 1  -48.628629  61.502577 -1.675
11330 1  -51.114064  58.685235 -1.675
11331 1  -52.337262  59.406474 -1.675
11332 1  -52.324249  60.826415 -1.675
11333 1  -51.088038  61.525115 -1.675
11334 1  -53.573473  58.707773 -1.675
11335 1  -54.796671  59.429013 -1.675
11336 1  -54.783658  60.848953 -1.675
11337 1  -53.547447  61.547654 -1.675
11338 1  -56.032882  58.730312 -1.675
11339 1  -57.256080  59.451552 -1.675
11340 1  -57.243067  60.871492 -1.675
11341 1  -56.006856  61.570193 -1.675
11342 1  -58.492290  58.752851 -1.675
11343 1  -59.715488  59.474090 -1.675
11344 1  -59.702476  60.894031 -1.675
11345 1  -58.466265  61.592732 -1.675
11346 1  -60.951699  58.775390 -1.675
11347 1  -62.174897  59.496629 -1.675
11348 1  -62.161885  60.916569 -1.675
11349 1  -60.925674  61.615270 -1.675
11350 1  -63.411108  58.797928 -1.675
11351 1  -64.634306  59.519168 -1.675
11352 1  -64.621293  60.939108 -1.675
11353 1  -63.385083  61.637809 -1.675
11354 1  -65.870517  58.820467 -1.675
11355 1  -67.093715  59.541707 -1.675
11356 1  -67.080702  60.961647 -1.675
11357 1  -65.844492  61.660348 -1.675
11358 1  -68.329926  58.843006 -1.675
11359 1  -69.553124  59.564245 -1.675
11360 1  -69.540111  60.984186 -1.675
11361 1  -68.303900  61.682887 -1.675
11362 1  -70.789335  58.865545 -1.675
11363 1  -72.012533  59.586784 -1.675
11364 1  -71.999520  61.006724 -1.675
11365 1  -70.763309  61.705425 -1.675
11366 1  -73.248744  58.888083 -1.675
11367 1  -74.471942  59.609323 -1.675
11368 1  -74.458929  61.029263 -1.675
11369 1  -73.222718  61.727964 -1.675
11370 1  -75.708153  58.910622 -1.675
11371 1  -76.931351  59.631862 -1.675
11372 1  -76.918338  61.051802 -1.675
11373 1  -75.682127  61.750503 -1.675
11374 1  -78.167561  58.933161 -1.675
11375 1  -79.390759  59.654400 -1.675
11376 1  -79.377747  61.074341 -1.675
11377 1  -78.141536  61.773041 -1.675
11378 1  -80.626970  58.955699 -1.675
11379 1  -81.850168  59.676939 -1.675
11380 1  -81.837156  61.096879 -1.675
11381 1  -80.600945  61.795580 -1.675
11382 1  -83.086379  58.978238 -1.675
11383 1  -84.309577  59.699478 -1.675
11384 1  -84.296564  61.119418 -1.675
11385 1  -83.060354  61.818119 -1.675
11386 1  -85.545788  59.000777 -1.675
11387 1  -86.768986  59.722016 -1.675
11388 1  -86.755973  61.141957 -1.675
11389 1  -85.519763  61.840658 -1.675
11390 1  -88.005197  59.023316 -1.675
11391 1  -89.228395  59.744555 -1.675
11392 1  -89.215382  61.164496 -1.675
11393 1  -87.979171  61.863196 -1.675
11394 1  -90.464606  59.045854 -1.675
11395 1  -91.687804  59.767094 -1.675
11396 1  -91.674791  61.187034 -1.675
11397 1  -90.438580  61.885735 -1.675
11398 1  -92.924015  59.068393 -1.675
11399 1  -94.147213  59.789633 -1.675
11400 1  -94.134200  61.209573 -1.675
11401 1  -92.897989  61.908274 -1.675
11402 1  -95.383423  59.090932 -1.675
11403 1  -96.606622  59.812171 -1.675
11404 1  -96.593609  61.232112 -1.675
11405 1  -95.357398  61.930813 -1.675
11406 1  -97.842832  59.113471 -1.675
11407 1  -99.066030  59.834710 -1.675
11408 1  -99.053018  61.254651 -1.675
11409 1  -97.816807  61.953351 -1.675
11410 1 -100.302241  59.136009 -1.675
11411 1 -101.525439  59.857249 -1.675
11412 1 -101.512427  61.277189 -1.675
11413 1 -100.276216  61.975890 -1.675
11414 1 -102.761650  59.158548 -1.675
11415 1 -103.984848  59.879788 -1.675
11416 1 -103.971835  61.299728 -1.675
11417 1 -102.735625  61.998429 -1.675
11418 1 -105.221059  59.181087 -1.675
11419 1 -106.444257  59.902326 -1.675
11420 1 -106.431244  61.322267 -1.675
11421 1 -105.195033  62.020968 -1.675
11422 1 -107.680468  59.203626 -1.675
11423 1 -108.903666  59.924865 -1.675
11424 1 -108.890653  61.344805 -1.675
11425 1 -107.654442  62.043506 -1.675
11426 1 -110.139877  59.226164 -1.675
11427 1 -111.363075  59.947404 -1.675
11428 1 -111.350062  61.367344 -1.675
11429 1 -110.113851  62.066045 -1.675
11430 1 -112.599286  59.248703 -1.675
11431 1 -113.822484  59.969943 -1.675
11432 1 -113.809471  61.389883 -1.675
11433 1 -112.573260  62.088584 -1.675
11434 1 -115.058694  59.271242 -1.675
11435 1 -115.032669  62.111123 -1.675
11436 1  116.164778  61.412422 -1.675
11437 1  114.941580  62.133661 -1.675
11438 1  114.954593  63.553602 -1.675
11439 1  116.190803  64.252302 -1.675
11440 1  113.705369  61.434960 -1.675
11441 1  112.482171  62.156200 -1.675
11442 1  112.495184  63.576140 -1.675
11443 1  113.731394  64.274841 -1.675
11444 1  111.245960  61.457499 -1.675
11445 1  110.022762  62.178739 -1.675
11446 1  110.035775  63.598679 -1.675
11447 1  111.271986  64.297380 -1.675
11448 1  108.786551  61.480038 -1.675
11449 1  107.563353  62.201277 -1.675
11450 1  107.576366  63.621218 -1.675
11451 1  108.812577  64.319919 -1.675
11452 1  106.327142  61.502577 -1.675
11453 1  105.103944  62.223816 -1.675
11454 1  105.116957  63.643757 -1.675
11455 1  106.353168  64.342457 -1.675
11456 1  103.867733  61.525115 -1.675
11457 1  102.644535  62.246355 -1.675
11458 1  102.657548  63.666295 -1.675
11459 1  103.893759  64.364996 -1.675
11460 1  101.408325  61.547654 -1.675
11461 1  100.185127  62.268894 -1.675
11462 1  100.198139  63.688834 -1.675
11463 1  101.434350  64.387535 -1.675
11464 1   98.948916  61.570193 -1.675
11465 1   97.725718  62.291432 -1.675
11466 1   97.738730  63.711373 -1.675
11467 1   98.974941  64.410074 -1.675
11468 1   96.489507  61.592732 -1.675
11469 1   95.266309  62.313971 -1.675
11470 1   95.279322  63.733912 -1.675
11471 1   96.515532  64.432612 -1.675
11472 1   94.030098  61.615270 -1.675
11473 1   92.806900  62.336510 -1.675
11474 1   92.819913  63.756450 -1.675
11475 1   94.056123  64.455151 -1.675
11476 1   91.570689  61.637809 -1.675
11477 1   90.347491  62.359049 -1.675
11478 1   90.360504  63.778989 -1.675
11479 1   91.596715  64.477690 -1.675
11480 1   89.111280  61.660348 -1.675
11481 1   87.888082  62.381587 -1.675
11482 1   87.901095  63.801528 -1.675
11483 1   89.137306  64.500229 -1.675
11484 1   86.651871  61.682887 -1.675
11485 1   85.428673  62.404126 -1.675
11486 1   85.441686  63.824066 -1.675
11487 1   86.677897  64.522767 -1.675
11488 1   84.192462  61.705425 -1.675
11489 1   82.969264  62.426665 -1.675
11490 1   82.982277  63.846605 -1.675
11491 1   84.218488  64.545306 -1.675
11492 1   81.733054  61.727964 -1.675
11493 1   80.509856  62.449204 -1.675
11494 1   80.522868  63.869144 -1.675
11495 1   81.759079  64.567845 -1.675
11496 1   79.273645  61.750503 -1.675
11497 1   78.050447  62.471742 -1.675
11498 1   78.063459  63.891683 -1.675
11499 1   79.299670  64.590383 -1.675
11500 1   76.814236  61.773041 -1.675
11501 1   75.591038  62.494281 -1.675
11502 1   75.604051  63.914221 -1.675
11503 1   76.840261  64.612922 -1.675
11504 1   74.354827  61.795580 -1.675
11505 1   73.131629  62.516820 -1.675
11506 1   73.144642  63.936760 -1.675
11507 1   74.380852  64.635461 -1.675
11508 1   71.895418  61.818119 -1.675
11509 1   70.672220  62.539358 -1.675
11510 1   70.685233  63.959299 -1.675
11511 1   71.921444  64.658000 -1.675
11512 1   69.436009  61.840658 -1.675
11513 1   68.212811  62.561897 -1.675
11514 1   68.225824  63.981838 -1.675
11515 1   69.462035  64.680538 -1.675
11516 1   66.976600  61.863196 -1.675
11517 1   65.753402  62.584436 -1.675
11518 1   65.766415  64.004376 -1.675
11519 1   67.002626  64.703077 -1.675
11520 1   64.517191  61.885735 -1.675
11521 1   63.293993  62.606975 -1.675
11522 1   63.307006  64.026915 -1.675
11523 1   64.543217  64.725616 -1.675
11524 1   62.057783  61.908274 -1.675
11525 1   60.834585  62.629513 -1.675
11526 1   60.847597  64.049454 -1.675
11527 1   62.083808  64.748155 -1.675
11528 1   59.598374  61.930813 -1.675
11529 1   58.375176  62.652052 -1.675
11530 1   58.388188  64.071993 -1.675
11531 1   59.624399  64.770693 -1.675
11532 1   57.138965  61.953351 -1.675
11533 1   55.915767  62.674591 -1.675
11534 1   55.928780  64.094531 -1.675
11535 1   57.164990  64.793232 -1.675
11536 1   54.679556  61.975890 -1.675
11537 1   53.456358  62.697130 -1.675
11538 1   53.469371  64.117070 -1.675
11539 1   54.705581  64.815771 -1.675
11540 1   52.220147  61.998429 -1.675
11541 1   50.996949  62.719668 -1.675
11542 1   51.009962  64.139609 -1.675
11543 1   52.246173  64.838310 -1.675
11544 1   49.760738  62.020968 -1.675
11545 1   48.537540  62.742207 -1.675
11546 1   48.550553  64.162147 -1.675
11547 1   49.786764  64.860848 -1.675
11548 1   47.301329  62.043506 -1.675
11549 1   46.078131  62.764746 -1.675
11550 1   46.091144  64.184686 -1.675
11551 1   47.327355  64.883387 -1.675
11552 1   44.841921  62.066045 -1.675
11553 1   43.618722  62.787285 -1.675
11554 1   43.631735  64.207225 -1.675
11555 1   44.867946  64.905926 -1.675
11556 1   42.382512  62.088584 -1.675
11557 1   41.159314  62.809823 -1.675
11558 1   41.172326  64.229764 -1.675
11559 1   42.408537  64.928465 -1.675
11560 1   39.923103  62.111123 -1.675
11561 1   38.699905  62.832362 -1.675
11562 1   38.712917  64.252302 -1.675
11563 1   39.949128  64.951003 -1.675
11564 1   37.463694  62.133661 -1.675
11565 1   36.240496  62.854901 -1.675
11566 1   36.253509  64.274841 -1.675
11567 1   37.489719  64.973542 -1.675
11568 1   35.004285  62.156200 -1.675
11569 1   33.781087  62.877440 -1.675
11570 1   33.794100  64.297380 -1.675
11571 1   35.030311  64.996081 -1.675
11572 1   32.544876  62.178739 -1.675
11573 1   31.321678  62.899978 -1.675
11574 1   31.334691  64.319919 -1.675
11575 1   32.570902  65.018619 -1.675
11576 1   30.085467  62.201277 -1.675
11577 1   28.862269  62.922517 -1.675
11578 1   28.875282  64.342457 -1.675
11579 1   30.111493  65.041158 -1.675
11580 1   27.626058  62.223816 -1.675
11581 1   26.402860  62.945056 -1.675
11582 1   26.415873  64.364996 -1.675
11583 1   27.652084  65.063697 -1.675
11584 1   25.166650  62.246355 -1.675
11585 1   23.943451  62.967594 -1.675
11586 1   23.956464  64.387535 -1.675
11587 1   25.192675  65.086236 -1.675
11588 1   22.707241  62.268894 -1.675
11589 1   21.484043  62.990133 -1.675
11590 1   21.497055  64.410074 -1.675
11591 1   22.733266  65.108774 -1.675
11592 1   20.247832  62.291432 -1.675
11593 1   19.024634  63.012672 -1.675
11594 1   19.037646  64.432612 -1.675
11595 1   20.273857  65.131313 -1.675
11596 1   17.788423  62.313971 -1.675
11597 1   16.565225  63.035211 -1.675
11598 1   16.578238  64.455151 -1.675
11599 1   17.814448  65.153852 -1.675
11600 1   15.329014  62.336510 -1.675
11601 1   14.105816  63.057749 -1.675
11602 1   14.118829  64.477690 -1.675
11603 1   15.355040  65.176391 -1.675
11604 1   12.869605  62.359049 -1.675
11605 1   11.646407  63.080288 -1.675
11606 1   11.659420  64.500229 -1.675
11607 1   12.895631  65.198929 -1.675
11608 1   10.410196  62.381587 -1.675
11609 1    9.186998  63.102827 -1.675
11610 1    9.200011  64.522767 -1.675
11611 1   10.436222  65.221468 -1.675
11612 1    7.950787  62.404126 -1.675
11613 1    6.727589  63.125366 -1.675
11614 1    6.740602  64.545306 -1.675
11615 1    7.976813  65.244007 -1.675
11616 1    5.491379  62.426665 -1.675
11617 1    4.268180  63.147904 -1.675
11618 1    4.281193  64.567845 -1.675
11619 1    5.517404  65.266546 -1.675
11620 1    3.031970  62.449204 -1.675
11621 1    1.808772  63.170443 -1.675
11622 1    1.821784  64.590383 -1.675
11623 1    3.057995  65.289084 -1.675
11624 1    0.572561  62.471742 -1.675
11625 1   -0.650637  63.192982 -1.675
11626 1   -0.637625  64.612922 -1.675
11627 1    0.598586  65.311623 -1.675
11628 1   -1.886848  62.494281 -1.675
11629 1   -3.110046  63.215521 -1.675
11630 1   -3.097033  64.635461 -1.675
11631 1   -1.860823  65.334162 -1.675
11632 1   -4.346257  62.516820 -1.675
11633 1   -5.569455  63.238059 -1.675
11634 1   -5.556442  64.658000 -1.675
11635 1   -4.320231  65.356701 -1.675
11636 1   -6.805666  62.539358 -1.675
11637 1   -8.028864  63.260598 -1.675
11638 1   -8.015851  64.680538 -1.675
11639 1   -6.779640  65.379239 -1.675
11640 1   -9.265075  62.561897 -1.675
11641 1  -10.488273  63.283137 -1.675
11642 1  -10.475260  64.703077 -1.675
11643 1   -9.239049  65.401778 -1.675
11644 1  -11.724484  62.584436 -1.675
11645 1  -12.947682  63.305676 -1.675
11646 1  -12.934669  64.725616 -1.675
11647 1  -11.698458  65.424317 -1.675
11648 1  -14.183892  62.606975 -1.675
11649 1  -15.407091  63.328214 -1.675
11650 1  -15.394078  64.748155 -1.675
11651 1  -14.157867  65.446855 -1.675
11652 1  -16.643301  62.629513 -1.675
11653 1  -17.866499  63.350753 -1.675
11654 1  -17.853487  64.770693 -1.675
11655 1  -16.617276  65.469394 -1.675
11656 1  -19.102710  62.652052 -1.675
11657 1  -20.325908  63.373292 -1.675
11658 1  -20.312896  64.793232 -1.675
11659 1  -19.076685  65.491933 -1.675
11660 1  -21.562119  62.674591 -1.675
11661 1  -22.785317  63.395830 -1.675
11662 1  -22.772304  64.815771 -1.675
11663 1  -21.536094  65.514472 -1.675
11664 1  -24.021528  62.697130 -1.675
11665 1  -25.244726  63.418369 -1.675
11666 1  -25.231713  64.838310 -1.675
11667 1  -23.995502  65.537010 -1.675
11668 1  -26.480937  62.719668 -1.675
11669 1  -27.704135  63.440908 -1.675
11670 1  -27.691122  64.860848 -1.675
11671 1  -26.454911  65.559549 -1.675
11672 1  -28.940346  62.742207 -1.675
11673 1  -30.163544  63.463447 -1.675
11674 1  -30.150531  64.883387 -1.675
11675 1  -28.914320  65.582088 -1.675
11676 1  -31.399755  62.764746 -1.675
11677 1  -32.622953  63.485985 -1.675
11678 1  -32.609940  64.905926 -1.675
11679 1  -31.373729  65.604627 -1.675
11680 1  -33.859163  62.787285 -1.675
11681 1  -35.082361  63.508524 -1.675
11682 1  -35.069349  64.928465 -1.675
11683 1  -33.833138  65.627165 -1.675
11684 1  -36.318572  62.809823 -1.675
11685 1  -37.541770  63.531063 -1.675
11686 1  -37.528758  64.951003 -1.675
11687 1  -36.292547  65.649704 -1.675
11688 1  -38.777981  62.832362 -1.675
11689 1  -40.001179  63.553602 -1.675
11690 1  -39.988166  64.973542 -1.675
11691 1  -38.751956  65.672243 -1.675
11692 1  -41.237390  62.854901 -1.675
11693 1  -42.460588  63.576140 -1.675
11694 1  -42.447575  64.996081 -1.675
11695 1  -41.211365  65.694782 -1.675
11696 1  -43.696799  62.877440 -1.675
11697 1  -44.919997  63.598679 -1.675
11698 1  -44.906984  65.018619 -1.675
11699 1  -43.670773  65.717320 -1.675
11700 1  -46.156208  62.899978 -1.675
11701 1  -47.379406  63.621218 -1.675
11702 1  -47.366393  65.041158 -1.675
11703 1  -46.130182  65.739859 -1.675
11704 1  -48.615617  62.922517 -1.675
11705 1  -49.838815  63.643757 -1.675
11706 1  -49.825802  65.063697 -1.675
11707 1  -48.589591  65.762398 -1.675
11708 1  -51.075026  62.945056 -1.675
11709 1  -52.298224  63.666295 -1.675
11710 1  -52.285211  65.086236 -1.675
11711 1  -51.049000  65.784936 -1.675
11712 1  -53.534434  62.967594 -1.675
11713 1  -54.757632  63.688834 -1.675
11714 1  -54.744620  65.108774 -1.675
11715 1  -53.508409  65.807475 -1.675
11716 1  -55.993843  62.990133 -1.675
11717 1  -57.217041  63.711373 -1.675
11718 1  -57.204029  65.131313 -1.675
11719 1  -55.967818  65.830014 -1.675
11720 1  -58.453252  63.012672 -1.675
11721 1  -59.676450  63.733912 -1.675
11722 1  -59.663437  65.153852 -1.675
11723 1  -58.427227  65.852553 -1.675
11724 1  -60.912661  63.035211 -1.675
11725 1  -62.135859  63.756450 -1.675
11726 1  -62.122846  65.176391 -1.675
11727 1  -60.886636  65.875091 -1.675
11728 1  -63.372070  63.057749 -1.675
11729 1  -64.595268  63.778989 -1.675
11730 1  -64.582255  65.198929 -1.675
11731 1  -63.346044  65.897630 -1.675
11732 1  -65.831479  63.080288 -1.675
11733 1  -67.054677  63.801528 -1.675
11734 1  -67.041664  65.221468 -1.675
11735 1  -65.805453  65.920169 -1.675
11736 1  -68.290888  63.102827 -1.675
11737 1  -69.514086  63.824066 -1.675
11738 1  -69.501073  65.244007 -1.675
11739 1  -68.264862  65.942708 -1.675
11740 1  -70.750297  63.125366 -1.675
11741 1  -71.973495  63.846605 -1.675
11742 1  -71.960482  65.266546 -1.675
11743 1  -70.724271  65.965246 -1.675
11744 1  -73.209705  63.147904 -1.675
11745 1  -74.432903  63.869144 -1.675
11746 1  -74.419891  65.289084 -1.675
11747 1  -73.183680  65.987785 -1.675
11748 1  -75.669114  63.170443 -1.675
11749 1  -76.892312  63.891683 -1.675
11750 1  -76.879300  65.311623 -1.675
11751 1  -75.643089  66.010324 -1.675
11752 1  -78.128523  63.192982 -1.675
11753 1  -79.351721  63.914221 -1.675
11754 1  -79.338708  65.334162 -1.675
11755 1  -78.102498  66.032863 -1.675
11756 1  -80.587932  63.215521 -1.675
11757 1  -81.811130  63.936760 -1.675
11758 1  -81.798117  65.356701 -1.675
11759 1  -80.561907  66.055401 -1.675
11760 1  -83.047341  63.238059 -1.675
11761 1  -84.270539  63.959299 -1.675
11762 1  -84.257526  65.379239 -1.675
11763 1  -83.021315  66.077940 -1.675
11764 1  -85.506750  63.260598 -1.675
11765 1  -86.729948  63.981838 -1.675
11766 1  -86.716935  65.401778 -1.675
11767 1  -85.480724  66.100479 -1.675
11768 1  -87.966159  63.283137 -1.675
11769 1  -89.189357  64.004376 -1.675
11770 1  -89.176344  65.424317 -1.675
11771 1  -87.940133  66.123018 -1.675
11772 1  -90.425568  63.305676 -1.675
11773 1  -91.648766  64.026915 -1.675
11774 1  -91.635753  65.446855 -1.675
11775 1  -90.399542  66.145556 -1.675
11776 1  -92.884976  63.328214 -1.675
11777 1  -94.108174  64.049454 -1.675
11778 1  -94.095162  65.469394 -1.675
11779 1  -92.858951  66.168095 -1.675
11780 1  -95.344385  63.350753 -1.675
11781 1  -96.567583  64.071993 -1.675
11782 1  -96.554571  65.491933 -1.675
11783 1  -95.318360  66.190634 -1.675
11784 1  -97.803794  63.373292 -1.675
11785 1  -99.026992  64.094531 -1.675
11786 1  -99.013979  65.514472 -1.675
11787 1  -97.777769  66.213172 -1.675
11788 1 -100.263203  63.395830 -1.675
11789 1 -101.486401  64.117070 -1.675
11790 1 -101.473388  65.537010 -1.675
11791 1 -100.237178  66.235711 -1.675
11792 1 -102.722612  63.418369 -1.675
11793 1 -103.945810  64.139609 -1.675
11794 1 -103.932797  65.559549 -1.675
11795 1 -102.696586  66.258250 -1.675
11796 1 -105.182021  63.440908 -1.675
11797 1 -106.405219  64.162147 -1.675
11798 1 -106.392206  65.582088 -1.675
11799 1 -105.155995  66.280789 -1.675
11800 1 -107.641430  63.463447 -1.675
11801 1 -108.864628  64.184686 -1.675
11802 1 -108.851615  65.604627 -1.675
11803 1 -107.615404  66.303327 -1.675
11804 1 -110.100838  63.485985 -1.675
11805 1 -111.324037  64.207225 -1.675
11806 1 -111.311024  65.627165 -1.675
11807 1 -110.074813  66.325866 -1.675
11808 1 -112.560247  63.508524 -1.675
11809 1 -113.783445  64.229764 -1.675
11810 1 -113.770433  65.649704 -1.675
11811 1 -112.534222  66.348405 -1.675
11812 1 -115.019656  63.531063 -1.675
11813 1 -114.993631  66.370944 -1.675
11814 1  116.203816  65.672243 -1.675
11815 1  114.980618  66.393482 -1.675
11816 1  113.744407  65.694782 -1.675
11817 1  112.521209  66.416021 -1.675
11818 1  111.284998  65.717320 -1.675
11819 1  110.061800  66.438560 -1.675
11820 1  108.825589  65.739859 -1.675
11821 1  107.602391  66.461099 -1.675
11822 1  106.366181  65.762398 -1.675
11823 1  105.142983  66.483637 -1.675
11824 1  103.906772  65.784936 -1.675
11825 1  102.683574  66.506176 -1.675
11826 1  101.447363  65.807475 -1.675
11827 1  100.224165  66.528715 -1.675
11828 1   98.987954  65.830014 -1.675
11829 1   97.764756  66.551254 -1.675
11830 1   96.528545  65.852553 -1.675
11831 1   95.305347  66.573792 -1.675
11832 1   94.069136  65.875091 -1.675
11833 1   92.845938  66.596331 -1.675
11834 1   91.609727  65.897630 -1.675
11835 1   90.386529  66.618870 -1.675
11836 1   89.150318  65.920169 -1.675
11837 1   87.927120  66.641408 -1.675
11838 1   86.690910  65.942708 -1.675
11839 1   85.467712  66.663947 -1.675
11840 1   84.231501  65.965246 -1.675
11841 1   83.008303  66.686486 -1.675
11842 1   81.772092  65.987785 -1.675
11843 1   80.548894  66.709025 -1.675
11844 1   79.312683  66.010324 -1.675
11845 1   78.089485  66.731563 -1.675
11846 1   76.853274  66.032863 -1.675
11847 1   75.630076  66.754102 -1.675
11848 1   74.393865  66.055401 -1.675
11849 1   73.170667  66.776641 -1.675
11850 1   71.934456  66.077940 -1.675
11851 1   70.711258  66.799180 -1.675
11852 1   69.475047  66.100479 -1.675
11853 1   68.251849  66.821718 -1.675
11854 1   67.015639  66.123018 -1.675
11855 1   65.792441  66.844257 -1.675
11856 1   64.556230  66.145556 -1.675
11857 1   63.333032  66.866796 -1.675
11858 1   62.096821  66.168095 -1.675
11859 1   60.873623  66.889335 -1.675
11860 1   59.637412  66.190634 -1.675
11861 1   58.414214  66.911873 -1.675
11862 1   57.178003  66.213172 -1.675
11863 1   55.954805  66.934412 -1.675
11864 1   54.718594  66.235711 -1.675
11865 1   53.495396  66.956951 -1.675
11866 1   52.259185  66.258250 -1.675
11867 1   51.035987  66.979490 -1.675
11868 1   49.799776  66.280789 -1.675
11869 1   48.576578  67.002028 -1.675
11870 1   47.340368  66.303327 -1.675
11871 1   46.117170  67.024567 -1.675
11872 1   44.880959  66.325866 -1.675
11873 1   43.657761  67.047106 -1.675
11874 1   42.421550  66.348405 -1.675
11875 1   41.198352  67.069644 -1.675
11876 1   39.962141  66.370944 -1.675
11877 1   38.738943  67.092183 -1.675
11878 1   37.502732  66.393482 -1.675
11879 1   35.043323  66.416021 -1.675
11880 1   32.583914  66.438560 -1.675
11881 1   30.124506  66.461099 -1.675
11882 1   27.665097  66.483637 -1.675
11883 1   25.205688  66.506176 -1.675
11884 1   22.746279  66.528715 -1.675
11885 1   20.286870  66.551254 -1.675
11886 1   17.827461  66.573792 -1.675
11887 1   15.368052  66.596331 -1.675
11888 1   12.908643  66.618870 -1.675
11889 1   10.449235  66.641408 -1.675
11890 1    7.989826  66.663947 -1.675
11891 1    5.530417  66.686486 -1.675
11892 1    3.071008  66.709025 -1.675
11893 1    0.611599  66.731563 -1.675
11894 1   -1.847810  66.754102 -1.675
11895 1   -4.307219  66.776641 -1.675
11896 1   -6.766628  66.799180 -1.675
11897 1   -9.226036  66.821718 -1.675
11898 1  -11.685445  66.844257 -1.675
11899 1  -14.144854  66.866796 -1.675
11900 1  -16.604263  66.889335 -1.675
11901 1  -19.063672  66.911873 -1.675
11902 1  -21.523081  66.934412 -1.675
11903 1  -23.982490  66.956951 -1.675
11904 1  -26.441899  66.979490 -1.675
11905 1  -28.901307  67.002028 -1.675
11906 1  -31.360716  67.024567 -1.675
11907 1  -33.820125  67.047106 -1.675
11908 1  -36.279534  67.069644 -1.675
11909 1  -38.738943  67.092183 -1.675
11910 1  114.980618 -66.404751  1.675
11911 1  116.203816 -65.683511  1.675
11912 1  112.521209 -66.427290  1.675
11913 1  113.744407 -65.706050  1.675
11914 1  110.061800 -66.449828  1.675
11915 1  111.284998 -65.728589  1.675
11916 1  107.602391 -66.472367  1.675
11917 1  108.825589 -65.751127  1.675
11918 1  105.142983 -66.494906  1.675
11919 1  106.366181 -65.773666  1.675
11920 1  102.683574 -66.517444  1.675
11921 1  103.906772 -65.796205  1.675
11922 1  100.224165 -66.539983  1.675
11923 1  101.447363 -65.818744  1.675
11924 1   97.764756 -66.562522  1.675
11925 1   98.987954 -65.841282  1.675
11926 1   95.305347 -66.585061  1.675
11927 1   96.528545 -65.863821  1.675
11928 1   92.845938 -66.607599  1.675
11929 1   94.069136 -65.886360  1.675
11930 1   90.386529 -66.630138  1.675
11931 1   91.609727 -65.908899  1.675
11932 1   87.927120 -66.652677  1.675
11933 1   89.150318 -65.931437  1.675
11934 1   85.467712 -66.675216  1.675
11935 1   86.690910 -65.953976  1.675
11936 1   83.008303 -66.697754  1.675
11937 1   84.231501 -65.976515  1.675
11938 1   80.548894 -66.720293  1.675
11939 1   81.772092 -65.999054  1.675
11940 1   78.089485 -66.742832  1.675
11941 1   79.312683 -66.021592  1.675
11942 1   75.630076 -66.765371  1.675
11943 1   76.853274 -66.044131  1.675
11944 1   73.170667 -66.787909  1.675
11945 1   74.393865 -66.066670  1.675
11946 1   70.711258 -66.810448  1.675
11947 1   71.934456 -66.089208  1.675
11948 1   68.251849 -66.832987  1.675
11949 1   69.475047 -66.111747  1.675
11950 1   65.792441 -66.855526  1.675
11951 1   67.015639 -66.134286  1.675
11952 1   63.333032 -66.878064  1.675
11953 1   64.556230 -66.156825  1.675
11954 1   60.873623 -66.900603  1.675
11955 1   62.096821 -66.179363  1.675
11956 1   58.414214 -66.923142  1.675
11957 1   59.637412 -66.201902  1.675
11958 1   55.954805 -66.945680  1.675
11959 1   57.178003 -66.224441  1.675
11960 1   53.495396 -66.968219  1.675
11961 1   54.718594 -66.246980  1.675
11962 1   51.035987 -66.990758  1.675
11963 1   52.259185 -66.269518  1.675
11964 1   48.576578 -67.013297  1.675
11965 1   49.799776 -66.292057  1.675
11966 1   46.117170 -67.035835  1.675
11967 1   47.340368 -66.314596  1.675
11968 1   43.657761 -67.058374  1.675
11969 1   44.880959 -66.337135  1.675
11970 1   41.198352 -67.080913  1.675
11971 1   42.421550 -66.359673  1.675
11972 1   39.962141 -66.382212  1.675
11973 1   37.502732 -66.404751  1.675
11974 1   35.043323 -66.427290  1.675
11975 1   32.583914 -66.449828  1.675
11976 1   30.124506 -66.472367  1.675
11977 1   27.665097 -66.494906  1.675
11978 1   25.205688 -66.517444  1.675
11979 1   22.746279 -66.539983  1.675
11980 1   20.286870 -66.562522  1.675
11981 1   17.827461 -66.585061  1.675
11982 1   15.368052 -66.607599  1.675
11983 1   12.908643 -66.630138  1.675
11984 1   10.449235 -66.652677  1.675
11985 1    7.989826 -66.675216  1.675
11986 1    5.530417 -66.697754  1.675
11987 1    3.071008 -66.720293  1.675
11988 1    0.611599 -66.742832  1.675
11989 1   -1.847810 -66.765371  1.675
11990 1   -4.307219 -66.787909  1.675
11991 1   -6.766628 -66.810448  1.675
11992 1   -9.226036 -66.832987  1.675
11993 1  -11.685445 -66.855526  1.675
11994 1  -14.144854 -66.878064  1.675
11995 1  -16.604263 -66.900603  1.675
11996 1  -19.063672 -66.923142  1.675
11997 1  -21.523081 -66.945680  1.675
11998 1  -23.982490 -66.968219  1.675
11999 1  -26.441899 -66.990758  1.675
12000 1  -28.901307 -67.013297  1.675
12001 1  -31.360716 -67.035835  1.675
12002 1  -33.820125 -67.058374  1.675
12003 1  -36.279534 -67.080913  1.675
12004 1  -38.738943 -67.103452  1.675
12005 1  116.190803 -64.263571  1.675
12006 1  114.954593 -63.564870  1.675
12007 1  114.941580 -62.144930  1.675
12008 1  116.164778 -61.423690  1.675
12009 1  113.731394 -64.286110  1.675
12010 1  112.495184 -63.587409  1.675
12011 1  112.482171 -62.167468  1.675
12012 1  113.705369 -61.446229  1.675
12013 1  111.271986 -64.308648  1.675
12014 1  110.035775 -63.609948  1.675
12015 1  110.022762 -62.190007  1.675
12016 1  111.245960 -61.468768  1.675
12017 1  108.812577 -64.331187  1.675
12018 1  107.576366 -63.632486  1.675
12019 1  107.563353 -62.212546  1.675
12020 1  108.786551 -61.491306  1.675
12021 1  106.353168 -64.353726  1.675
12022 1  105.116957 -63.655025  1.675
12023 1  105.103944 -62.235085  1.675
12024 1  106.327142 -61.513845  1.675
12025 1  103.893759 -64.376265  1.675
12026 1  102.657548 -63.677564  1.675
12027 1  102.644535 -62.257623  1.675
12028 1  103.867733 -61.536384  1.675
12029 1  101.434350 -64.398803  1.675
12030 1  100.198139 -63.700102  1.675
12031 1  100.185127 -62.280162  1.675
12032 1  101.408325 -61.558923  1.675
12033 1   98.974941 -64.421342  1.675
12034 1   97.738730 -63.722641  1.675
12035 1   97.725718 -62.302701  1.675
12036 1   98.948916 -61.581461  1.675
12037 1   96.515532 -64.443881  1.675
12038 1   95.279322 -63.745180  1.675
12039 1   95.266309 -62.325240  1.675
12040 1   96.489507 -61.604000  1.675
12041 1   94.056123 -64.466419  1.675
12042 1   92.819913 -63.767719  1.675
12043 1   92.806900 -62.347778  1.675
12044 1   94.030098 -61.626539  1.675
12045 1   91.596715 -64.488958  1.675
12046 1   90.360504 -63.790257  1.675
12047 1   90.347491 -62.370317  1.675
12048 1   91.570689 -61.649077  1.675
12049 1   89.137306 -64.511497  1.675
12050 1   87.901095 -63.812796  1.675
12051 1   87.888082 -62.392856  1.675
12052 1   89.111280 -61.671616  1.675
12053 1   86.677897 -64.534036  1.675
12054 1   85.441686 -63.835335  1.675
12055 1   85.428673 -62.415395  1.675
12056 1   86.651871 -61.694155  1.675
12057 1   84.218488 -64.556574  1.675
12058 1   82.982277 -63.857874  1.675
12059 1   82.969264 -62.437933  1.675
12060 1   84.192462 -61.716694  1.675
12061 1   81.759079 -64.579113  1.675
12062 1   80.522868 -63.880412  1.675
12063 1   80.509856 -62.460472  1.675
12064 1   81.733054 -61.739232  1.675
12065 1   79.299670 -64.601652  1.675
12066 1   78.063459 -63.902951  1.675
12067 1   78.050447 -62.483011  1.675
12068 1   79.273645 -61.761771  1.675
12069 1   76.840261 -64.624191  1.675
12070 1   75.604051 -63.925490  1.675
12071 1   75.591038 -62.505549  1.675
12072 1   76.814236 -61.784310  1.675
12073 1   74.380852 -64.646729  1.675
12074 1   73.144642 -63.948029  1.675
12075 1   73.131629 -62.528088  1.675
12076 1   74.354827 -61.806849  1.675
12077 1   71.921444 -64.669268  1.675
12078 1   70.685233 -63.970567  1.675
12079 1   70.672220 -62.550627  1.675
12080 1   71.895418 -61.829387  1.675
12081 1   69.462035 -64.691807  1.675
12082 1   68.225824 -63.993106  1.675
12083 1   68.212811 -62.573166  1.675
12084 1   69.436009 -61.851926  1.675
12085 1   67.002626 -64.714346  1.675
12086 1   65.766415 -64.015645  1.675
12087 1   65.753402 -62.595704  1.675
12088 1   66.976600 -61.874465  1.675
12089 1   64.543217 -64.736884  1.675
12090 1   63.307006 -64.038184  1.675
12091 1   63.293993 -62.618243  1.675
12092 1   64.517191 -61.897004  1.675
12093 1   62.083808 -64.759423  1.675
12094 1   60.847597 -64.060722  1.675
12095 1   60.834585 -62.640782  1.675
12096 1   62.057783 -61.919542  1.675
12097 1   59.624399 -64.781962  1.675
12098 1   58.388188 -64.083261  1.675
12099 1   58.375176 -62.663321  1.675
12100 1   59.598374 -61.942081  1.675
12101 1   57.164990 -64.804501  1.675
12102 1   55.928780 -64.105800  1.675
12103 1   55.915767 -62.685859  1.675
12104 1   57.138965 -61.964620  1.675
12105 1   54.705581 -64.827039  1.675
12106 1   53.469371 -64.128338  1.675
12107 1   53.456358 -62.708398  1.675
12108 1   54.679556 -61.987159  1.675
12109 1   52.246173 -64.849578  1.675
12110 1   51.009962 -64.150877  1.675
12111 1   50.996949 -62.730937  1.675
12112 1   52.220147 -62.009697  1.675
12113 1   49.786764 -64.872117  1.675
12114 1   48.550553 -64.173416  1.675
12115 1   48.537540 -62.753476  1.675
12116 1   49.760738 -62.032236  1.675
12117 1   47.327355 -64.894655  1.675
12118 1   46.091144 -64.195955  1.675
12119 1   46.078131 -62.776014  1.675
12120 1   47.301329 -62.054775  1.675
12121 1   44.867946 -64.917194  1.675
12122 1   43.631735 -64.218493  1.675
12123 1   43.618722 -62.798553  1.675
12124 1   44.841921 -62.077313  1.675
12125 1   42.408537 -64.939733  1.675
12126 1   41.172326 -64.241032  1.675
12127 1   41.159314 -62.821092  1.675
12128 1   42.382512 -62.099852  1.675
12129 1   39.949128 -64.962272  1.675
12130 1   38.712917 -64.263571  1.675
12131 1   38.699905 -62.843630  1.675
12132 1   39.923103 -62.122391  1.675
12133 1   37.489719 -64.984810  1.675
12134 1   36.253509 -64.286110  1.675
12135 1   36.240496 -62.866169  1.675
12136 1   37.463694 -62.144930  1.675
12137 1   35.030311 -65.007349  1.675
12138 1   33.794100 -64.308648  1.675
12139 1   33.781087 -62.888708  1.675
12140 1   35.004285 -62.167468  1.675
12141 1   32.570902 -65.029888  1.675
12142 1   31.334691 -64.331187  1.675
12143 1   31.321678 -62.911247  1.675
12144 1   32.544876 -62.190007  1.675
12145 1   30.111493 -65.052427  1.675
12146 1   28.875282 -64.353726  1.675
12147 1   28.862269 -62.933785  1.675
12148 1   30.085467 -62.212546  1.675
12149 1   27.652084 -65.074965  1.675
12150 1   26.415873 -64.376265  1.675
12151 1   26.402860 -62.956324  1.675
12152 1   27.626058 -62.235085  1.675
12153 1   25.192675 -65.097504  1.675
12154 1   23.956464 -64.398803  1.675
12155 1   23.943451 -62.978863  1.675
12156 1   25.166650 -62.257623  1.675
12157 1   22.733266 -65.120043  1.675
12158 1   21.497055 -64.421342  1.675
12159 1   21.484043 -63.001402  1.675
12160 1   22.707241 -62.280162  1.675
12161 1   20.273857 -65.142582  1.675
12162 1   19.037646 -64.443881  1.675
12163 1   19.024634 -63.023940  1.675
12164 1   20.247832 -62.302701  1.675
12165 1   17.814448 -65.165120  1.675
12166 1   16.578238 -64.466419  1.675
12167 1   16.565225 -63.046479  1.675
12168 1   17.788423 -62.325240  1.675
12169 1   15.355040 -65.187659  1.675
12170 1   14.118829 -64.488958  1.675
12171 1   14.105816 -63.069018  1.675
12172 1   15.329014 -62.347778  1.675
12173 1   12.895631 -65.210198  1.675
12174 1   11.659420 -64.511497  1.675
12175 1   11.646407 -63.091557  1.675
12176 1   12.869605 -62.370317  1.675
12177 1   10.436222 -65.232737  1.675
12178 1    9.200011 -64.534036  1.675
12179 1    9.186998 -63.114095  1.675
12180 1   10.410196 -62.392856  1.675
12181 1    7.976813 -65.255275  1.675
12182 1    6.740602 -64.556574  1.675
12183 1    6.727589 -63.136634  1.675
12184 1    7.950787 -62.415395  1.675
12185 1    5.517404 -65.277814  1.675
12186 1    4.281193 -64.579113  1.675
12187 1    4.268180 -63.159173  1.675
12188 1    5.491379 -62.437933  1.675
12189 1    3.057995 -65.300353  1.675
12190 1    1.821784 -64.601652  1.675
12191 1    1.808772 -63.181712  1.675
12192 1    3.031970 -62.460472  1.675
12193 1    0.598586 -65.322891  1.675
12194 1   -0.637625 -64.624191  1.675
12195 1   -0.650637 -63.204250  1.675
12196 1    0.572561 -62.483011  1.675
12197 1   -1.860823 -65.345430  1.675
12198 1   -3.097033 -64.646729  1.675
12199 1   -3.110046 -63.226789  1.675
12200 1   -1.886848 -62.505549  1.675
12201 1   -4.320231 -65.367969  1.675
12202 1   -5.556442 -64.669268  1.675
12203 1   -5.569455 -63.249328  1.675
12204 1   -4.346257 -62.528088  1.675
12205 1   -6.779640 -65.390508  1.675
12206 1   -8.015851 -64.691807  1.675
12207 1   -8.028864 -63.271866  1.675
12208 1   -6.805666 -62.550627  1.675
12209 1   -9.239049 -65.413046  1.675
12210 1  -10.475260 -64.714346  1.675
12211 1  -10.488273 -63.294405  1.675
12212 1   -9.265075 -62.573166  1.675
12213 1  -11.698458 -65.435585  1.675
12214 1  -12.934669 -64.736884  1.675
12215 1  -12.947682 -63.316944  1.675
12216 1  -11.724484 -62.595704  1.675
12217 1  -14.157867 -65.458124  1.675
12218 1  -15.394078 -64.759423  1.675
12219 1  -15.407091 -63.339483  1.675
12220 1  -14.183892 -62.618243  1.675
12221 1  -16.617276 -65.480663  1.675
12222 1  -17.853487 -64.781962  1.675
12223 1  -17.866499 -63.362021  1.675
12224 1  -16.643301 -62.640782  1.675
12225 1  -19.076685 -65.503201  1.675
12226 1  -20.312896 -64.804501  1.675
12227 1  -20.325908 -63.384560  1.675
12228 1  -19.102710 -62.663321  1.675
12229 1  -21.536094 -65.525740  1.675
12230 1  -22.772304 -64.827039  1.675
12231 1  -22.785317 -63.407099  1.675
12232 1  -21.562119 -62.685859  1.675
12233 1  -23.995502 -65.548279  1.675
12234 1  -25.231713 -64.849578  1.675
12235 1  -25.244726 -63.429638  1.675
12236 1  -24.021528 -62.708398  1.675
12237 1  -26.454911 -65.570818  1.675
12238 1  -27.691122 -64.872117  1.675
12239 1  -27.704135 -63.452176  1.675
12240 1  -26.480937 -62.730937  1.675
12241 1  -28.914320 -65.593356  1.675
12242 1  -30.150531 -64.894655  1.675
12243 1  -30.163544 -63.474715  1.675
12244 1  -28.940346 -62.753476  1.675
12245 1  -31.373729 -65.615895  1.675
12246 1  -32.609940 -64.917194  1.675
12247 1  -32.622953 -63.497254  1.675
12248 1  -31.399755 -62.776014  1.675
12249 1  -33.833138 -65.638434  1.675
12250 1  -35.069349 -64.939733  1.675
12251 1  -35.082361 -63.519793  1.675
12252 1  -33.859163 -62.798553  1.675
12253 1  -36.292547 -65.660973  1.675
12254 1  -37.528758 -64.962272  1.675
12255 1  -37.541770 -63.542331  1.675
12256 1  -36.318572 -62.821092  1.675
12257 1  -38.751956 -65.683511  1.675
12258 1  -39.988166 -64.984810  1.675
12259 1  -40.001179 -63.564870  1.675
12260 1  -38.777981 -62.843630  1.675
12261 1  -41.211365 -65.706050  1.675
12262 1  -42.447575 -65.007349  1.675
12263 1  -42.460588 -63.587409  1.675
12264 1  -41.237390 -62.866169  1.675
12265 1  -43.670773 -65.728589  1.675
12266 1  -44.906984 -65.029888  1.675
12267 1  -44.919997 -63.609948  1.675
12268 1  -43.696799 -62.888708  1.675
12269 1  -46.130182 -65.751127  1.675
12270 1  -47.366393 -65.052427  1.675
12271 1  -47.379406 -63.632486  1.675
12272 1  -46.156208 -62.911247  1.675
12273 1  -48.589591 -65.773666  1.675
12274 1  -49.825802 -65.074965  1.675
12275 1  -49.838815 -63.655025  1.675
12276 1  -48.615617 -62.933785  1.675
12277 1  -51.049000 -65.796205  1.675
12278 1  -52.285211 -65.097504  1.675
12279 1  -52.298224 -63.677564  1.675
12280 1  -51.075026 -62.956324  1.675
12281 1  -53.508409 -65.818744  1.675
12282 1  -54.744620 -65.120043  1.675
12283 1  -54.757632 -63.700102  1.675
12284 1  -53.534434 -62.978863  1.675
12285 1  -55.967818 -65.841282  1.675
12286 1  -57.204029 -65.142582  1.675
12287 1  -57.217041 -63.722641  1.675
12288 1  -55.993843 -63.001402  1.675
12289 1  -58.427227 -65.863821  1.675
12290 1  -59.663437 -65.165120  1.675
12291 1  -59.676450 -63.745180  1.675
12292 1  -58.453252 -63.023940  1.675
12293 1  -60.886636 -65.886360  1.675
12294 1  -62.122846 -65.187659  1.675
12295 1  -62.135859 -63.767719  1.675
12296 1  -60.912661 -63.046479  1.675
12297 1  -63.346044 -65.908899  1.675
12298 1  -64.582255 -65.210198  1.675
12299 1  -64.595268 -63.790257  1.675
12300 1  -63.372070 -63.069018  1.675
12301 1  -65.805453 -65.931437  1.675
12302 1  -67.041664 -65.232737  1.675
12303 1  -67.054677 -63.812796  1.675
12304 1  -65.831479 -63.091557  1.675
12305 1  -68.264862 -65.953976  1.675
12306 1  -69.501073 -65.255275  1.675
12307 1  -69.514086 -63.835335  1.675
12308 1  -68.290888 -63.114095  1.675
12309 1  -70.724271 -65.976515  1.675
12310 1  -71.960482 -65.277814  1.675
12311 1  -71.973495 -63.857874  1.675
12312 1  -70.750297 -63.136634  1.675
12313 1  -73.183680 -65.999054  1.675
12314 1  -74.419891 -65.300353  1.675
12315 1  -74.432903 -63.880412  1.675
12316 1  -73.209705 -63.159173  1.675
12317 1  -75.643089 -66.021592  1.675
12318 1  -76.879300 -65.322891  1.675
12319 1  -76.892312 -63.902951  1.675
12320 1  -75.669114 -63.181712  1.675
12321 1  -78.102498 -66.044131  1.675
12322 1  -79.338708 -65.345430  1.675
12323 1  -79.351721 -63.925490  1.675
12324 1  -78.128523 -63.204250  1.675
12325 1  -80.561907 -66.066670  1.675
12326 1  -81.798117 -65.367969  1.675
12327 1  -81.811130 -63.948029  1.675
12328 1  -80.587932 -63.226789  1.675
12329 1  -83.021315 -66.089208  1.675
12330 1  -84.257526 -65.390508  1.675
12331 1  -84.270539 -63.970567  1.675
12332 1  -83.047341 -63.249328  1.675
12333 1  -85.480724 -66.111747  1.675
12334 1  -86.716935 -65.413046  1.675
12335 1  -86.729948 -63.993106  1.675
12336 1  -85.506750 -63.271866  1.675
12337 1  -87.940133 -66.134286  1.675
12338 1  -89.176344 -65.435585  1.675
12339 1  -89.189357 -64.015645  1.675
12340 1  -87.966159 -63.294405  1.675
12341 1  -90.399542 -66.156825  1.675
12342 1  -91.635753 -65.458124  1.675
12343 1  -91.648766 -64.038184  1.675
12344 1  -90.425568 -63.316944  1.675
12345 1  -92.858951 -66.179363  1.675
12346 1  -94.095162 -65.480663  1.675
12347 1  -94.108174 -64.060722  1.675
12348 1  -92.884976 -63.339483  1.675
12349 1  -95.318360 -66.201902  1.675
12350 1  -96.554571 -65.503201  1.675
12351 1  -96.567583 -64.083261  1.675
12352 1  -95.344385 -63.362021  1.675
12353 1  -97.777769 -66.224441  1.675
12354 1  -99.013979 -65.525740  1.675
12355 1  -99.026992 -64.105800  1.675
12356 1  -97.803794 -63.384560  1.675
12357 1 -100.237178 -66.246980  1.675
12358 1 -101.473388 -65.548279  1.675
12359 1 -101.486401 -64.128338  1.675
12360 1 -100.263203 -63.407099  1.675
12361 1 -102.696586 -66.269518  1.675
12362 1 -103.932797 -65.570818  1.675
12363 1 -103.945810 -64.150877  1.675
12364 1 -102.722612 -63.429638  1.675
12365 1 -105.155995 -66.292057  1.675
12366 1 -106.392206 -65.593356  1.675
12367 1 -106.405219 -64.173416  1.675
12368 1 -105.182021 -63.452176  1.675
12369 1 -107.615404 -66.314596  1.675
12370 1 -108.851615 -65.615895  1.675
12371 1 -108.864628 -64.195955  1.675
12372 1 -107.641430 -63.474715  1.675
12373 1 -110.074813 -66.337135  1.675
12374 1 -111.311024 -65.638434  1.675
12375 1 -111.324037 -64.218493  1.675
12376 1 -110.100838 -63.497254  1.675
12377 1 -112.534222 -66.359673  1.675
12378 1 -113.770433 -65.660973  1.675
12379 1 -113.783445 -64.241032  1.675
12380 1 -112.560247 -63.519793  1.675
12381 1 -114.993631 -66.382212  1.675
12382 1 -115.019656 -63.542331  1.675
12383 1  116.151765 -60.003750  1.675
12384 1  114.915554 -59.305049  1.675
12385 1  114.902542 -57.885109  1.675
12386 1  116.125740 -57.163869  1.675
12387 1  113.692356 -60.026288  1.675
12388 1  112.456145 -59.327588  1.675
12389 1  112.443133 -57.907647  1.675
12390 1  113.666331 -57.186408  1.675
12391 1  111.232947 -60.048827  1.675
12392 1  109.996737 -59.350126  1.675
12393 1  109.983724 -57.930186  1.675
12394 1  111.206922 -57.208946  1.675
12395 1  108.773538 -60.071366  1.675
12396 1  107.537328 -59.372665  1.675
12397 1  107.524315 -57.952725  1.675
12398 1  108.747513 -57.231485  1.675
12399 1  106.314130 -60.093905  1.675
12400 1  105.077919 -59.395204  1.675
12401 1  105.064906 -57.975263  1.675
12402 1  106.288104 -57.254024  1.675
12403 1  103.854721 -60.116443  1.675
12404 1  102.618510 -59.417743  1.675
12405 1  102.605497 -57.997802  1.675
12406 1  103.828695 -57.276563  1.675
12407 1  101.395312 -60.138982  1.675
12408 1  100.159101 -59.440281  1.675
12409 1  100.146088 -58.020341  1.675
12410 1  101.369286 -57.299101  1.675
12411 1   98.935903 -60.161521  1.675
12412 1   97.699692 -59.462820  1.675
12413 1   97.686679 -58.042880  1.675
12414 1   98.909877 -57.321640  1.675
12415 1   96.476494 -60.184060  1.675
12416 1   95.240283 -59.485359  1.675
12417 1   95.227271 -58.065418  1.675
12418 1   96.450469 -57.344179  1.675
12419 1   94.017085 -60.206598  1.675
12420 1   92.780874 -59.507898  1.675
12421 1   92.767862 -58.087957  1.675
12422 1   93.991060 -57.366718  1.675
12423 1   91.557676 -60.229137  1.675
12424 1   90.321466 -59.530436  1.675
12425 1   90.308453 -58.110496  1.675
12426 1   91.531651 -57.389256  1.675
12427 1   89.098267 -60.251676  1.675
12428 1   87.862057 -59.552975  1.675
12429 1   87.849044 -58.133035  1.675
12430 1   89.072242 -57.411795  1.675
12431 1   86.638859 -60.274215  1.675
12432 1   85.402648 -59.575514  1.675
12433 1   85.389635 -58.155573  1.675
12434 1   86.612833 -57.434334  1.675
12435 1   84.179450 -60.296753  1.675
12436 1   82.943239 -59.598052  1.675
12437 1   82.930226 -58.178112  1.675
12438 1   84.153424 -57.456873  1.675
12439 1   81.720041 -60.319292  1.675
12440 1   80.483830 -59.620591  1.675
12441 1   80.470817 -58.200651  1.675
12442 1   81.694015 -57.479411  1.675
12443 1   79.260632 -60.341831  1.675
12444 1   78.024421 -59.643130  1.675
12445 1   78.011408 -58.223190  1.675
12446 1   79.234607 -57.501950  1.675
12447 1   76.801223 -60.364370  1.675
12448 1   75.565012 -59.665669  1.675
12449 1   75.552000 -58.245728  1.675
12450 1   76.775198 -57.524489  1.675
12451 1   74.341814 -60.386908  1.675
12452 1   73.105603 -59.688207  1.675
12453 1   73.092591 -58.268267  1.675
12454 1   74.315789 -57.547028  1.675
12455 1   71.882405 -60.409447  1.675
12456 1   70.646195 -59.710746  1.675
12457 1   70.633182 -58.290806  1.675
12458 1   71.856380 -57.569566  1.675
12459 1   69.422996 -60.431986  1.675
12460 1   68.186786 -59.733285  1.675
12461 1   68.173773 -58.313345  1.675
12462 1   69.396971 -57.592105  1.675
12463 1   66.963588 -60.454524  1.675
12464 1   65.727377 -59.755824  1.675
12465 1   65.714364 -58.335883  1.675
12466 1   66.937562 -57.614644  1.675
12467 1   64.504179 -60.477063  1.675
12468 1   63.267968 -59.778362  1.675
12469 1   63.254955 -58.358422  1.675
12470 1   64.478153 -57.637182  1.675
12471 1   62.044770 -60.499602  1.675
12472 1   60.808559 -59.800901  1.675
12473 1   60.795546 -58.380961  1.675
12474 1   62.018744 -57.659721  1.675
12475 1   59.585361 -60.522141  1.675
12476 1   58.349150 -59.823440  1.675
12477 1   58.336137 -58.403499  1.675
12478 1   59.559336 -57.682260  1.675
12479 1   57.125952 -60.544679  1.675
12480 1   55.889741 -59.845979  1.675
12481 1   55.876729 -58.426038  1.675
12482 1   57.099927 -57.704799  1.675
12483 1   54.666543 -60.567218  1.675
12484 1   53.430332 -59.868517  1.675
12485 1   53.417320 -58.448577  1.675
12486 1   54.640518 -57.727337  1.675
12487 1   52.207134 -60.589757  1.675
12488 1   50.970924 -59.891056  1.675
12489 1   50.957911 -58.471116  1.675
12490 1   52.181109 -57.749876  1.675
12491 1   49.747726 -60.612296  1.675
12492 1   48.511515 -59.913595  1.675
12493 1   48.498502 -58.493654  1.675
12494 1   49.721700 -57.772415  1.675
12495 1   47.288317 -60.634834  1.675
12496 1   46.052106 -59.936134  1.675
12497 1   46.039093 -58.516193  1.675
12498 1   47.262291 -57.794954  1.675
12499 1   44.828908 -60.657373  1.675
12500 1   43.592697 -59.958672  1.675
12501 1   43.579684 -58.538732  1.675
12502 1   44.802882 -57.817492  1.675
12503 1   42.369499 -60.679912  1.675
12504 1   41.133288 -59.981211  1.675
12505 1   41.120275 -58.561271  1.675
12506 1   42.343473 -57.840031  1.675
12507 1   39.910090 -60.702451  1.675
12508 1   38.673879 -60.003750  1.675
12509 1   38.660866 -58.583809  1.675
12510 1   39.884065 -57.862570  1.675
12511 1   37.450681 -60.724989  1.675
12512 1   36.214470 -60.026288  1.675
12513 1   36.201458 -58.606348  1.675
12514 1   37.424656 -57.885109  1.675
12515 1   34.991272 -60.747528  1.675
12516 1   33.755061 -60.048827  1.675
12517 1   33.742049 -58.628887  1.675
12518 1   34.965247 -57.907647  1.675
12519 1   32.531863 -60.770067  1.675
12520 1   31.295653 -60.071366  1.675
12521 1   31.282640 -58.651426  1.675
12522 1   32.505838 -57.930186  1.675
12523 1   30.072455 -60.792606  1.675
12524 1   28.836244 -60.093905  1.675
12525 1   28.823231 -58.673964  1.675
12526 1   30.046429 -57.952725  1.675
12527 1   27.613046 -60.815144  1.675
12528 1   26.376835 -60.116443  1.675
12529 1   26.363822 -58.696503  1.675
12530 1   27.587020 -57.975263  1.675
12531 1   25.153637 -60.837683  1.675
12532 1   23.917426 -60.138982  1.675
12533 1   23.904413 -58.719042  1.675
12534 1   25.127611 -57.997802  1.675
12535 1   22.694228 -60.860222  1.675
12536 1   21.458017 -60.161521  1.675
12537 1   21.445004 -58.741581  1.675
12538 1   22.668202 -58.020341  1.675
12539 1   20.234819 -60.882760  1.675
12540 1   18.998608 -60.184060  1.675
12541 1   18.985595 -58.764119  1.675
12542 1   20.208794 -58.042880  1.675
12543 1   17.775410 -60.905299  1.675
12544 1   16.539199 -60.206598  1.675
12545 1   16.526187 -58.786658  1.675
12546 1   17.749385 -58.065418  1.675
12547 1   15.316001 -60.927838  1.675
12548 1   14.079790 -60.229137  1.675
12549 1   14.066778 -58.809197  1.675
12550 1   15.289976 -58.087957  1.675
12551 1   12.856592 -60.950377  1.675
12552 1   11.620382 -60.251676  1.675
12553 1   11.607369 -58.831735  1.675
12554 1   12.830567 -58.110496  1.675
12555 1   10.397184 -60.972915  1.675
12556 1    9.160973 -60.274215  1.675
12557 1    9.147960 -58.854274  1.675
12558 1   10.371158 -58.133035  1.675
12559 1    7.937775 -60.995454  1.675
12560 1    6.701564 -60.296753  1.675
12561 1    6.688551 -58.876813  1.675
12562 1    7.911749 -58.155573  1.675
12563 1    5.478366 -61.017993  1.675
12564 1    4.242155 -60.319292  1.675
12565 1    4.229142 -58.899352  1.675
12566 1    5.452340 -58.178112  1.675
12567 1    3.018957 -61.040532  1.675
12568 1    1.782746 -60.341831  1.675
12569 1    1.769733 -58.921890  1.675
12570 1    2.992931 -58.200651  1.675
12571 1    0.559548 -61.063070  1.675
12572 1   -0.676663 -60.364370  1.675
12573 1   -0.689676 -58.944429  1.675
12574 1    0.533523 -58.223190  1.675
12575 1   -1.899861 -61.085609  1.675
12576 1   -3.136072 -60.386908  1.675
12577 1   -3.149084 -58.966968  1.675
12578 1   -1.925886 -58.245728  1.675
12579 1   -4.359270 -61.108148  1.675
12580 1   -5.595481 -60.409447  1.675
12581 1   -5.608493 -58.989507  1.675
12582 1   -4.385295 -58.268267  1.675
12583 1   -6.818679 -61.130687  1.675
12584 1   -8.054889 -60.431986  1.675
12585 1   -8.067902 -59.012045  1.675
12586 1   -6.844704 -58.290806  1.675
12587 1   -9.278087 -61.153225  1.675
12588 1  -10.514298 -60.454524  1.675
12589 1  -10.527311 -59.034584  1.675
12590 1   -9.304113 -58.313345  1.675
12591 1  -11.737496 -61.175764  1.675
12592 1  -12.973707 -60.477063  1.675
12593 1  -12.986720 -59.057123  1.675
12594 1  -11.763522 -58.335883  1.675
12595 1  -14.196905 -61.198303  1.675
12596 1  -15.433116 -60.499602  1.675
12597 1  -15.446129 -59.079662  1.675
12598 1  -14.222931 -58.358422  1.675
12599 1  -16.656314 -61.220841  1.675
12600 1  -17.892525 -60.522141  1.675
12601 1  -17.905538 -59.102200  1.675
12602 1  -16.682340 -58.380961  1.675
12603 1  -19.115723 -61.243380  1.675
12604 1  -20.351934 -60.544679  1.675
12605 1  -20.364946 -59.124739  1.675
12606 1  -19.141748 -58.403499  1.675
12607 1  -21.575132 -61.265919  1.675
12608 1  -22.811343 -60.567218  1.675
12609 1  -22.824355 -59.147278  1.675
12610 1  -21.601157 -58.426038  1.675
12611 1  -24.034541 -61.288458  1.675
12612 1  -25.270751 -60.589757  1.675
12613 1  -25.283764 -59.169817  1.675
12614 1  -24.060566 -58.448577  1.675
12615 1  -26.493950 -61.310996  1.675
12616 1  -27.730160 -60.612296  1.675
12617 1  -27.743173 -59.192355  1.675
12618 1  -26.519975 -58.471116  1.675
12619 1  -28.953358 -61.333535  1.675
12620 1  -30.189569 -60.634834  1.675
12621 1  -30.202582 -59.214894  1.675
12622 1  -28.979384 -58.493654  1.675
12623 1  -31.412767 -61.356074  1.675
12624 1  -32.648978 -60.657373  1.675
12625 1  -32.661991 -59.237433  1.675
12626 1  -31.438793 -58.516193  1.675
12627 1  -33.872176 -61.378613  1.675
12628 1  -35.108387 -60.679912  1.675
12629 1  -35.121400 -59.259971  1.675
12630 1  -33.898202 -58.538732  1.675
12631 1  -36.331585 -61.401151  1.675
12632 1  -37.567796 -60.702451  1.675
12633 1  -37.580809 -59.282510  1.675
12634 1  -36.357611 -58.561271  1.675
12635 1  -38.790994 -61.423690  1.675
12636 1  -40.027205 -60.724989  1.675
12637 1  -40.040217 -59.305049  1.675
12638 1  -38.817019 -58.583809  1.675
12639 1  -41.250403 -61.446229  1.675
12640 1  -42.486614 -60.747528  1.675
12641 1  -42.499626 -59.327588  1.675
12642 1  -41.276428 -58.606348  1.675
12643 1  -43.709812 -61.468768  1.675
12644 1  -44.946022 -60.770067  1.675
12645 1  -44.959035 -59.350126  1.675
12646 1  -43.735837 -58.628887  1.675
12647 1  -46.169221 -61.491306  1.675
12648 1  -47.405431 -60.792606  1.675
12649 1  -47.418444 -59.372665  1.675
12650 1  -46.195246 -58.651426  1.675
12651 1  -48.628629 -61.513845  1.675
12652 1  -49.864840 -60.815144  1.675
12653 1  -49.877853 -59.395204  1.675
12654 1  -48.654655 -58.673964  1.675
12655 1  -51.088038 -61.536384  1.675
12656 1  -52.324249 -60.837683  1.675
12657 1  -52.337262 -59.417743  1.675
12658 1  -51.114064 -58.696503  1.675
12659 1  -53.547447 -61.558923  1.675
12660 1  -54.783658 -60.860222  1.675
12661 1  -54.796671 -59.440281  1.675
12662 1  -53.573473 -58.719042  1.675
12663 1  -56.006856 -61.581461  1.675
12664 1  -57.243067 -60.882760  1.675
12665 1  -57.256080 -59.462820  1.675
12666 1  -56.032882 -58.741581  1.675
12667 1  -58.466265 -61.604000  1.675
12668 1  -59.702476 -60.905299  1.675
12669 1  -59.715488 -59.485359  1.675
12670 1  -58.492290 -58.764119  1.675
12671 1  -60.925674 -61.626539  1.675
12672 1  -62.161885 -60.927838  1.675
12673 1  -62.174897 -59.507898  1.675
12674 1  -60.951699 -58.786658  1.675
12675 1  -63.385083 -61.649077  1.675
12676 1  -64.621293 -60.950377  1.675
12677 1  -64.634306 -59.530436  1.675
12678 1  -63.411108 -58.809197  1.675
12679 1  -65.844492 -61.671616  1.675
12680 1  -67.080702 -60.972915  1.675
12681 1  -67.093715 -59.552975  1.675
12682 1  -65.870517 -58.831735  1.675
12683 1  -68.303900 -61.694155  1.675
12684 1  -69.540111 -60.995454  1.675
12685 1  -69.553124 -59.575514  1.675
12686 1  -68.329926 -58.854274  1.675
12687 1  -70.763309 -61.716694  1.675
12688 1  -71.999520 -61.017993  1.675
12689 1  -72.012533 -59.598052  1.675
12690 1  -70.789335 -58.876813  1.675
12691 1  -73.222718 -61.739232  1.675
12692 1  -74.458929 -61.040532  1.675
12693 1  -74.471942 -59.620591  1.675
12694 1  -73.248744 -58.899352  1.675
12695 1  -75.682127 -61.761771  1.675
12696 1  -76.918338 -61.063070  1.675
12697 1  -76.931351 -59.643130  1.675
12698 1  -75.708153 -58.921890  1.675
12699 1  -78.141536 -61.784310  1.675
12700 1  -79.377747 -61.085609  1.675
12701 1  -79.390759 -59.665669  1.675
12702 1  -78.167561 -58.944429  1.675
12703 1  -80.600945 -61.806849  1.675
12704 1  -81.837156 -61.108148  1.675
12705 1  -81.850168 -59.688207  1.675
12706 1  -80.626970 -58.966968  1.675
12707 1  -83.060354 -61.829387  1.675
12708 1  -84.296564 -61.130687  1.675
12709 1  -84.309577 -59.710746  1.675
12710 1  -83.086379 -58.989507  1.675
12711 1  -85.519763 -61.851926  1.675
12712 1  -86.755973 -61.153225  1.675
12713 1  -86.768986 -59.733285  1.675
12714 1  -85.545788 -59.012045  1.675
12715 1  -87.979171 -61.874465  1.675
12716 1  -89.215382 -61.175764  1.675
12717 1  -89.228395 -59.755824  1.675
12718 1  -88.005197 -59.034584  1.675
12719 1  -90.438580 -61.897004  1.675
12720 1  -91.674791 -61.198303  1.675
12721 1  -91.687804 -59.778362  1.675
12722 1  -90.464606 -59.057123  1.675
12723 1  -92.897989 -61.919542  1.675
12724 1  -94.134200 -61.220841  1.675
12725 1  -94.147213 -59.800901  1.675
12726 1  -92.924015 -59.079662  1.675
12727 1  -95.357398 -61.942081  1.675
12728 1  -96.593609 -61.243380  1.675
12729 1  -96.606622 -59.823440  1.675
12730 1  -95.383423 -59.102200  1.675
12731 1  -97.816807 -61.964620  1.675
12732 1  -99.053018 -61.265919  1.675
12733 1  -99.066030 -59.845979  1.675
12734 1  -97.842832 -59.124739  1.675
12735 1 -100.276216 -61.987159  1.675
12736 1 -101.512427 -61.288458  1.675
12737 1 -101.525439 -59.868517  1.675
12738 1 -100.302241 -59.147278  1.675
12739 1 -102.735625 -62.009697  1.675
12740 1 -103.971835 -61.310996  1.675
12741 1 -103.984848 -59.891056  1.675
12742 1 -102.761650 -59.169817  1.675
12743 1 -105.195033 -62.032236  1.675
12744 1 -106.431244 -61.333535  1.675
12745 1 -106.444257 -59.913595  1.675
12746 1 -105.221059 -59.192355  1.675
12747 1 -107.654442 -62.054775  1.675
12748 1 -108.890653 -61.356074  1.675
12749 1 -108.903666 -59.936134  1.675
12750 1 -107.680468 -59.214894  1.675
12751 1 -110.113851 -62.077313  1.675
12752 1 -111.350062 -61.378613  1.675
12753 1 -111.363075 -59.958672  1.675
12754 1 -110.139877 -59.237433  1.675
12755 1 -112.573260 -62.099852  1.675
12756 1 -113.809471 -61.401151  1.675
12757 1 -113.822484 -59.981211  1.675
12758 1 -112.599286 -59.259971  1.675
12759 1 -115.032669 -62.122391  1.675
12760 1 -115.058694 -59.282510  1.675
12761 1  116.112727 -55.743929  1.675
12762 1  114.876516 -55.045228  1.675
12763 1  114.863503 -53.625287  1.675
12764 1  116.086701 -52.904048  1.675
12765 1  113.653318 -55.766467  1.675
12766 1  112.417107 -55.067767  1.675
12767 1  112.404094 -53.647826  1.675
12768 1  113.627292 -52.926587  1.675
12769 1  111.193909 -55.789006  1.675
12770 1  109.957698 -55.090305  1.675
12771 1  109.944686 -53.670365  1.675
12772 1  111.167884 -52.949125  1.675
12773 1  108.734500 -55.811545  1.675
12774 1  107.498289 -55.112844  1.675
12775 1  107.485277 -53.692904  1.675
12776 1  108.708475 -52.971664  1.675
12777 1  106.275091 -55.834084  1.675
12778 1  105.038881 -55.135383  1.675
12779 1  105.025868 -53.715442  1.675
12780 1  106.249066 -52.994203  1.675
12781 1  103.815682 -55.856622  1.675
12782 1  102.579472 -55.157921  1.675
12783 1  102.566459 -53.737981  1.675
12784 1  103.789657 -53.016742  1.675
12785 1  101.356274 -55.879161  1.675
12786 1  100.120063 -55.180460  1.675
12787 1  100.107050 -53.760520  1.675
12788 1  101.330248 -53.039280  1.675
12789 1   98.896865 -55.901700  1.675
12790 1   97.660654 -55.202999  1.675
12791 1   97.647641 -53.783059  1.675
12792 1   98.870839 -53.061819  1.675
12793 1   96.437456 -55.924239  1.675
12794 1   95.201245 -55.225538  1.675
12795 1   95.188232 -53.805597  1.675
12796 1   96.411430 -53.084358  1.675
12797 1   93.978047 -55.946777  1.675
12798 1   92.741836 -55.248076  1.675
12799 1   92.728823 -53.828136  1.675
12800 1   93.952022 -53.106896  1.675
12801 1   91.518638 -55.969316  1.675
12802 1   90.282427 -55.270615  1.675
12803 1   90.269415 -53.850675  1.675
12804 1   91.492613 -53.129435  1.675
12805 1   89.059229 -55.991855  1.675
12806 1   87.823018 -55.293154  1.675
12807 1   87.810006 -53.873214  1.675
12808 1   89.033204 -53.151974  1.675
12809 1   86.599820 -56.014393  1.675
12810 1   85.363610 -55.315693  1.675
12811 1   85.350597 -53.895752  1.675
12812 1   86.573795 -53.174513  1.675
12813 1   84.140412 -56.036932  1.675
12814 1   82.904201 -55.338231  1.675
12815 1   82.891188 -53.918291  1.675
12816 1   84.114386 -53.197051  1.675
12817 1   81.681003 -56.059471  1.675
12818 1   80.444792 -55.360770  1.675
12819 1   80.431779 -53.940830  1.675
12820 1   81.654977 -53.219590  1.675
12821 1   79.221594 -56.082010  1.675
12822 1   77.985383 -55.383309  1.675
12823 1   77.972370 -53.963368  1.675
12824 1   79.195568 -53.242129  1.675
12825 1   76.762185 -56.104548  1.675
12826 1   75.525974 -55.405848  1.675
12827 1   75.512961 -53.985907  1.675
12828 1   76.736159 -53.264668  1.675
12829 1   74.302776 -56.127087  1.675
12830 1   73.066565 -55.428386  1.675
12831 1   73.053552 -54.008446  1.675
12832 1   74.276751 -53.287206  1.675
12833 1   71.843367 -56.149626  1.675
12834 1   70.607156 -55.450925  1.675
12835 1   70.594144 -54.030985  1.675
12836 1   71.817342 -53.309745  1.675
12837 1   69.383958 -56.172165  1.675
12838 1   68.147747 -55.473464  1.675
12839 1   68.134735 -54.053523  1.675
12840 1   69.357933 -53.332284  1.675
12841 1   66.924549 -56.194703  1.675
12842 1   65.688339 -55.496003  1.675
12843 1   65.675326 -54.076062  1.675
12844 1   66.898524 -53.354823  1.675
12845 1   64.465141 -56.217242  1.675
12846 1   63.228930 -55.518541  1.675
12847 1   63.215917 -54.098601  1.675
12848 1   64.439115 -53.377361  1.675
12849 1   62.005732 -56.239781  1.675
12850 1   60.769521 -55.541080  1.675
12851 1   60.756508 -54.121140  1.675
12852 1   61.979706 -53.399900  1.675
12853 1   59.546323 -56.262320  1.675
12854 1   58.310112 -55.563619  1.675
12855 1   58.297099 -54.143678  1.675
12856 1   59.520297 -53.422439  1.675
12857 1   57.086914 -56.284858  1.675
12858 1   55.850703 -55.586157  1.675
12859 1   55.837690 -54.166217  1.675
12860 1   57.060888 -53.444978  1.675
12861 1   54.627505 -56.307397  1.675
12862 1   53.391294 -55.608696  1.675
12863 1   53.378281 -54.188756  1.675
12864 1   54.601480 -53.467516  1.675
12865 1   52.168096 -56.329936  1.675
12866 1   50.931885 -55.631235  1.675
12867 1   50.918873 -54.211295  1.675
12868 1   52.142071 -53.490055  1.675
12869 1   49.708687 -56.352474  1.675
12870 1   48.472476 -55.653774  1.675
12871 1   48.459464 -54.233833  1.675
12872 1   49.682662 -53.512594  1.675
12873 1   47.249278 -56.375013  1.675
12874 1   46.013068 -55.676312  1.675
12875 1   46.000055 -54.256372  1.675
12876 1   47.223253 -53.535132  1.675
12877 1   44.789870 -56.397552  1.675
12878 1   43.553659 -55.698851  1.675
12879 1   43.540646 -54.278911  1.675
12880 1   44.763844 -53.557671  1.675
12881 1   42.330461 -56.420091  1.675
12882 1   41.094250 -55.721390  1.675
12883 1   41.081237 -54.301450  1.675
12884 1   42.304435 -53.580210  1.675
12885 1   39.871052 -56.442629  1.675
12886 1   38.634841 -55.743929  1.675
12887 1   38.621828 -54.323988  1.675
12888 1   39.845026 -53.602749  1.675
12889 1   37.411643 -56.465168  1.675
12890 1   36.175432 -55.766467  1.675
12891 1   36.162419 -54.346527  1.675
12892 1   37.385617 -53.625287  1.675
12893 1   34.952234 -56.487707  1.675
12894 1   33.716023 -55.789006  1.675
12895 1   33.703010 -54.369066  1.675
12896 1   34.926209 -53.647826  1.675
12897 1   32.492825 -56.510246  1.675
12898 1   31.256614 -55.811545  1.675
12899 1   31.243602 -54.391604  1.675
12900 1   32.466800 -53.670365  1.675
12901 1   30.033416 -56.532784  1.675
12902 1   28.797205 -55.834084  1.675
12903 1   28.784193 -54.414143  1.675
12904 1   30.007391 -53.692904  1.675
12905 1   27.574007 -56.555323  1.675
12906 1   26.337797 -55.856622  1.675
12907 1   26.324784 -54.436682  1.675
12908 1   27.547982 -53.715442  1.675
12909 1   25.114599 -56.577862  1.675
12910 1   23.878388 -55.879161  1.675
12911 1   23.865375 -54.459221  1.675
12912 1   25.088573 -53.737981  1.675
12913 1   22.655190 -56.600401  1.675
12914 1   21.418979 -55.901700  1.675
12915 1   21.405966 -54.481759  1.675
12916 1   22.629164 -53.760520  1.675
12917 1   20.195781 -56.622939  1.675
12918 1   18.959570 -55.924239  1.675
12919 1   18.946557 -54.504298  1.675
12920 1   20.169755 -53.783059  1.675
12921 1   17.736372 -56.645478  1.675
12922 1   16.500161 -55.946777  1.675
12923 1   16.487148 -54.526837  1.675
12924 1   17.710346 -53.805597  1.675
12925 1   15.276963 -56.668017  1.675
12926 1   14.040752 -55.969316  1.675
12927 1   14.027739 -54.549376  1.675
12928 1   15.250938 -53.828136  1.675
12929 1   12.817554 -56.690556  1.675
12930 1   11.581343 -55.991855  1.675
12931 1   11.568331 -54.571914  1.675
12932 1   12.791529 -53.850675  1.675
12933 1   10.358145 -56.713094  1.675
12934 1    9.121934 -56.014393  1.675
12935 1    9.108922 -54.594453  1.675
12936 1   10.332120 -53.873214  1.675
12937 1    7.898736 -56.735633  1.675
12938 1    6.662526 -56.036932  1.675
12939 1    6.649513 -54.616992  1.675
12940 1    7.872711 -53.895752  1.675
12941 1    5.439328 -56.758172  1.675
12942 1    4.203117 -56.059471  1.675
12943 1    4.190104 -54.639531  1.675
12944 1    5.413302 -53.918291  1.675
12945 1    2.979919 -56.780710  1.675
12946 1    1.743708 -56.082010  1.675
12947 1    1.730695 -54.662069  1.675
12948 1    2.953893 -53.940830  1.675
12949 1    0.520510 -56.803249  1.675
12950 1   -0.715701 -56.104548  1.675
12951 1   -0.728714 -54.684608  1.675
12952 1    0.494484 -53.963368  1.675
12953 1   -1.938899 -56.825788  1.675
12954 1   -3.175110 -56.127087  1.675
12955 1   -3.188123 -54.707147  1.675
12956 1   -1.964925 -53.985907  1.675
12957 1   -4.398308 -56.848327  1.675
12958 1   -5.634519 -56.149626  1.675
12959 1   -5.647531 -54.729685  1.675
12960 1   -4.424333 -54.008446  1.675
12961 1   -6.857717 -56.870865  1.675
12962 1   -8.093928 -56.172165  1.675
12963 1   -8.106940 -54.752224  1.675
12964 1   -6.883742 -54.030985  1.675
12965 1   -9.317126 -56.893404  1.675
12966 1  -10.553336 -56.194703  1.675
12967 1  -10.566349 -54.774763  1.675
12968 1   -9.343151 -54.053523  1.675
12969 1  -11.776535 -56.915943  1.675
12970 1  -13.012745 -56.217242  1.675
12971 1  -13.025758 -54.797302  1.675
12972 1  -11.802560 -54.076062  1.675
12973 1  -14.235943 -56.938482  1.675
12974 1  -15.472154 -56.239781  1.675
12975 1  -15.485167 -54.819840  1.675
12976 1  -14.261969 -54.098601  1.675
12977 1  -16.695352 -56.961020  1.675
12978 1  -17.931563 -56.262320  1.675
12979 1  -17.944576 -54.842379  1.675
12980 1  -16.721378 -54.121140  1.675
12981 1  -19.154761 -56.983559  1.675
12982 1  -20.390972 -56.284858  1.675
12983 1  -20.403985 -54.864918  1.675
12984 1  -19.180787 -54.143678  1.675
12985 1  -21.614170 -57.006098  1.675
12986 1  -22.850381 -56.307397  1.675
12987 1  -22.863394 -54.887457  1.675
12988 1  -21.640196 -54.166217  1.675
12989 1  -24.073579 -57.028637  1.675
12990 1  -25.309790 -56.329936  1.675
12991 1  -25.322802 -54.909995  1.675
12992 1  -24.099604 -54.188756  1.675
12993 1  -26.532988 -57.051175  1.675
12994 1  -27.769199 -56.352474  1.675
12995 1  -27.782211 -54.932534  1.675
12996 1  -26.559013 -54.211295  1.675
12997 1  -28.992397 -57.073714  1.675
12998 1  -30.228607 -56.375013  1.675
12999 1  -30.241620 -54.955073  1.675
13000 1  -29.018422 -54.233833  1.675
13001 1  -31.451806 -57.096253  1.675
13002 1  -32.688016 -56.397552  1.675
13003 1  -32.701029 -54.977612  1.675
13004 1  -31.477831 -54.256372  1.675
13005 1  -33.911214 -57.118792  1.675
13006 1  -35.147425 -56.420091  1.675
13007 1  -35.160438 -55.000150  1.675
13008 1  -33.937240 -54.278911  1.675
13009 1  -36.370623 -57.141330  1.675
13010 1  -37.606834 -56.442629  1.675
13011 1  -37.619847 -55.022689  1.675
13012 1  -36.396649 -54.301450  1.675
13013 1  -38.830032 -57.163869  1.675
13014 1  -40.066243 -56.465168  1.675
13015 1  -40.079256 -55.045228  1.675
13016 1  -38.856058 -54.323988  1.675
13017 1  -41.289441 -57.186408  1.675
13018 1  -42.525652 -56.487707  1.675
13019 1  -42.538665 -55.067767  1.675
13020 1  -41.315467 -54.346527  1.675
13021 1  -43.748850 -57.208946  1.675
13022 1  -44.985061 -56.510246  1.675
13023 1  -44.998073 -55.090305  1.675
13024 1  -43.774875 -54.369066  1.675
13025 1  -46.208259 -57.231485  1.675
13026 1  -47.444470 -56.532784  1.675
13027 1  -47.457482 -55.112844  1.675
13028 1  -46.234284 -54.391604  1.675
13029 1  -48.667668 -57.254024  1.675
13030 1  -49.903878 -56.555323  1.675
13031 1  -49.916891 -55.135383  1.675
13032 1  -48.693693 -54.414143  1.675
13033 1  -51.127077 -57.276563  1.675
13034 1  -52.363287 -56.577862  1.675
13035 1  -52.376300 -55.157921  1.675
13036 1  -51.153102 -54.436682  1.675
13037 1  -53.586485 -57.299101  1.675
13038 1  -54.822696 -56.600401  1.675
13039 1  -54.835709 -55.180460  1.675
13040 1  -53.612511 -54.459221  1.675
13041 1  -56.045894 -57.321640  1.675
13042 1  -57.282105 -56.622939  1.675
13043 1  -57.295118 -55.202999  1.675
13044 1  -56.071920 -54.481759  1.675
13045 1  -58.505303 -57.344179  1.675
13046 1  -59.741514 -56.645478  1.675
13047 1  -59.754527 -55.225538  1.675
13048 1  -58.531329 -54.504298  1.675
13049 1  -60.964712 -57.366718  1.675
13050 1  -62.200923 -56.668017  1.675
13051 1  -62.213936 -55.248076  1.675
13052 1  -60.990738 -54.526837  1.675
13053 1  -63.424121 -57.389256  1.675
13054 1  -64.660332 -56.690556  1.675
13055 1  -64.673344 -55.270615  1.675
13056 1  -63.450146 -54.549376  1.675
13057 1  -65.883530 -57.411795  1.675
13058 1  -67.119741 -56.713094  1.675
13059 1  -67.132753 -55.293154  1.675
13060 1  -65.909555 -54.571914  1.675
13061 1  -68.342939 -57.434334  1.675
13062 1  -69.579149 -56.735633  1.675
13063 1  -69.592162 -55.315693  1.675
13064 1  -68.368964 -54.594453  1.675
13065 1  -70.802348 -57.456873  1.675
13066 1  -72.038558 -56.758172  1.675
13067 1  -72.051571 -55.338231  1.675
13068 1  -70.828373 -54.616992  1.675
13069 1  -73.261756 -57.479411  1.675
13070 1  -74.497967 -56.780710  1.675
13071 1  -74.510980 -55.360770  1.675
13072 1  -73.287782 -54.639531  1.675
13073 1  -75.721165 -57.501950  1.675
13074 1  -76.957376 -56.803249  1.675
13075 1  -76.970389 -55.383309  1.675
13076 1  -75.747191 -54.662069  1.675
13077 1  -78.180574 -57.524489  1.675
13078 1  -79.416785 -56.825788  1.675
13079 1  -79.429798 -55.405848  1.675
13080 1  -78.206600 -54.684608  1.675
13081 1  -80.639983 -57.547028  1.675
13082 1  -81.876194 -56.848327  1.675
13083 1  -81.889207 -55.428386  1.675
13084 1  -80.666008 -54.707147  1.675
13085 1  -83.099392 -57.569566  1.675
13086 1  -84.335603 -56.870865  1.675
13087 1  -84.348615 -55.450925  1.675
13088 1  -83.125417 -54.729685  1.675
13089 1  -85.558801 -57.592105  1.675
13090 1  -86.795012 -56.893404  1.675
13091 1  -86.808024 -55.473464  1.675
13092 1  -85.584826 -54.752224  1.675
13093 1  -88.018210 -57.614644  1.675
13094 1  -89.254420 -56.915943  1.675
13095 1  -89.267433 -55.496003  1.675
13096 1  -88.044235 -54.774763  1.675
13097 1  -90.477618 -57.637182  1.675
13098 1  -91.713829 -56.938482  1.675
13099 1  -91.726842 -55.518541  1.675
13100 1  -90.503644 -54.797302  1.675
13101 1  -92.937027 -57.659721  1.675
13102 1  -94.173238 -56.961020  1.675
13103 1  -94.186251 -55.541080  1.675
13104 1  -92.963053 -54.819840  1.675
13105 1  -95.396436 -57.682260  1.675
13106 1  -96.632647 -56.983559  1.675
13107 1  -96.645660 -55.563619  1.675
13108 1  -95.422462 -54.842379  1.675
13109 1  -97.855845 -57.704799  1.675
13110 1  -99.092056 -57.006098  1.675
13111 1  -99.105069 -55.586157  1.675
13112 1  -97.881871 -54.864918  1.675
13113 1 -100.315254 -57.727337  1.675
13114 1 -101.551465 -57.028637  1.675
13115 1 -101.564478 -55.608696  1.675
13116 1 -100.341279 -54.887457  1.675
13117 1 -102.774663 -57.749876  1.675
13118 1 -104.010874 -57.051175  1.675
13119 1 -104.023886 -55.631235  1.675
13120 1 -102.800688 -54.909995  1.675
13121 1 -105.234072 -57.772415  1.675
13122 1 -106.470283 -57.073714  1.675
13123 1 -106.483295 -55.653774  1.675
13124 1 -105.260097 -54.932534  1.675
13125 1 -107.693481 -57.794954  1.675
13126 1 -108.929691 -57.096253  1.675
13127 1 -108.942704 -55.676312  1.675
13128 1 -107.719506 -54.955073  1.675
13129 1 -110.152889 -57.817492  1.675
13130 1 -111.389100 -57.118792  1.675
13131 1 -111.402113 -55.698851  1.675
13132 1 -110.178915 -54.977612  1.675
13133 1 -112.612298 -57.840031  1.675
13134 1 -113.848509 -57.141330  1.675
13135 1 -113.861522 -55.721390  1.675
13136 1 -112.638324 -55.000150  1.675
13137 1 -115.071707 -57.862570  1.675
13138 1 -115.097733 -55.022689  1.675
13139 1  116.073689 -51.484107  1.675
13140 1  114.837478 -50.785407  1.675
13141 1  114.824465 -49.365466  1.675
13142 1  116.047663 -48.644227  1.675
13143 1  113.614280 -51.506646  1.675
13144 1  112.378069 -50.807945  1.675
13145 1  112.365056 -49.388005  1.675
13146 1  113.588254 -48.666765  1.675
13147 1  111.154871 -51.529185  1.675
13148 1  109.918660 -50.830484  1.675
13149 1  109.905647 -49.410544  1.675
13150 1  111.128845 -48.689304  1.675
13151 1  108.695462 -51.551724  1.675
13152 1  107.459251 -50.853023  1.675
13153 1  107.446238 -49.433083  1.675
13154 1  108.669437 -48.711843  1.675
13155 1  106.236053 -51.574262  1.675
13156 1  104.999842 -50.875562  1.675
13157 1  104.986830 -49.455621  1.675
13158 1  106.210028 -48.734382  1.675
13159 1  103.776644 -51.596801  1.675
13160 1  102.540433 -50.898100  1.675
13161 1  102.527421 -49.478160  1.675
13162 1  103.750619 -48.756920  1.675
13163 1  101.317235 -51.619340  1.675
13164 1  100.081025 -50.920639  1.675
13165 1  100.068012 -49.500699  1.675
13166 1  101.291210 -48.779459  1.675
13167 1   98.857827 -51.641879  1.675
13168 1   97.621616 -50.943178  1.675
13169 1   97.608603 -49.523237  1.675
13170 1   98.831801 -48.801998  1.675
13171 1   96.398418 -51.664417  1.675
13172 1   95.162207 -50.965717  1.675
13173 1   95.149194 -49.545776  1.675
13174 1   96.372392 -48.824537  1.675
13175 1   93.939009 -51.686956  1.675
13176 1   92.702798 -50.988255  1.675
13177 1   92.689785 -49.568315  1.675
13178 1   93.912983 -48.847075  1.675
13179 1   91.479600 -51.709495  1.675
13180 1   90.243389 -51.010794  1.675
13181 1   90.230376 -49.590854  1.675
13182 1   91.453574 -48.869614  1.675
13183 1   89.020191 -51.732034  1.675
13184 1   87.783980 -51.033333  1.675
13185 1   87.770967 -49.613392  1.675
13186 1   88.994166 -48.892153  1.675
13187 1   86.560782 -51.754572  1.675
13188 1   85.324571 -51.055872  1.675
13189 1   85.311559 -49.635931  1.675
13190 1   86.534757 -48.914692  1.675
13191 1   84.101373 -51.777111  1.675
13192 1   82.865162 -51.078410  1.675
13193 1   82.852150 -49.658470  1.675
13194 1   84.075348 -48.937230  1.675
13195 1   81.641964 -51.799650  1.675
13196 1   80.405754 -51.100949  1.675
13197 1   80.392741 -49.681009  1.675
13198 1   81.615939 -48.959769  1.675
13199 1   79.182556 -51.822189  1.675
13200 1   77.946345 -51.123488  1.675
13201 1   77.933332 -49.703547  1.675
13202 1   79.156530 -48.982308  1.675
13203 1   76.723147 -51.844727  1.675
13204 1   75.486936 -51.146026  1.675
13205 1   75.473923 -49.726086  1.675
13206 1   76.697121 -49.004847  1.675
13207 1   74.263738 -51.867266  1.675
13208 1   73.027527 -51.168565  1.675
13209 1   73.014514 -49.748625  1.675
13210 1   74.237712 -49.027385  1.675
13211 1   71.804329 -51.889805  1.675
13212 1   70.568118 -51.191104  1.675
13213 1   70.555105 -49.771164  1.675
13214 1   71.778303 -49.049924  1.675
13215 1   69.344920 -51.912343  1.675
13216 1   68.108709 -51.213643  1.675
13217 1   68.095696 -49.793702  1.675
13218 1   69.318895 -49.072463  1.675
13219 1   66.885511 -51.934882  1.675
13220 1   65.649300 -51.236181  1.675
13221 1   65.636288 -49.816241  1.675
13222 1   66.859486 -49.095001  1.675
13223 1   64.426102 -51.957421  1.675
13224 1   63.189891 -51.258720  1.675
13225 1   63.176879 -49.838780  1.675
13226 1   64.400077 -49.117540  1.675
13227 1   61.966693 -51.979960  1.675
13228 1   60.730483 -51.281259  1.675
13229 1   60.717470 -49.861318  1.675
13230 1   61.940668 -49.140079  1.675
13231 1   59.507285 -52.002498  1.675
13232 1   58.271074 -51.303798  1.675
13233 1   58.258061 -49.883857  1.675
13234 1   59.481259 -49.162618  1.675
13235 1   57.047876 -52.025037  1.675
13236 1   55.811665 -51.326336  1.675
13237 1   55.798652 -49.906396  1.675
13238 1   57.021850 -49.185156  1.675
13239 1   54.588467 -52.047576  1.675
13240 1   53.352256 -51.348875  1.675
13241 1   53.339243 -49.928935  1.675
13242 1   54.562441 -49.207695  1.675
13243 1   52.129058 -52.070115  1.675
13244 1   50.892847 -51.371414  1.675
13245 1   50.879834 -49.951473  1.675
13246 1   52.103032 -49.230234  1.675
13247 1   49.669649 -52.092653  1.675
13248 1   48.433438 -51.393953  1.675
13249 1   48.420425 -49.974012  1.675
13250 1   49.643624 -49.252773  1.675
13251 1   47.210240 -52.115192  1.675
13252 1   45.974029 -51.416491  1.675
13253 1   45.961017 -49.996551  1.675
13254 1   47.184215 -49.275311  1.675
13255 1   44.750831 -52.137731  1.675
13256 1   43.514620 -51.439030  1.675
13257 1   43.501608 -50.019090  1.675
13258 1   44.724806 -49.297850  1.675
13259 1   42.291422 -52.160270  1.675
13260 1   41.055212 -51.461569  1.675
13261 1   41.042199 -50.041628  1.675
13262 1   42.265397 -49.320389  1.675
13263 1   39.832014 -52.182808  1.675
13264 1   38.595803 -51.484107  1.675
13265 1   38.582790 -50.064167  1.675
13266 1   39.805988 -49.342928  1.675
13267 1   37.372605 -52.205347  1.675
13268 1   36.136394 -51.506646  1.675
13269 1   36.123381 -50.086706  1.675
13270 1   37.346579 -49.365466  1.675
13271 1   34.913196 -52.227886  1.675
13272 1   33.676985 -51.529185  1.675
13273 1   33.663972 -50.109245  1.675
13274 1   34.887170 -49.388005  1.675
13275 1   32.453787 -52.250425  1.675
13276 1   31.217576 -51.551724  1.675
13277 1   31.204563 -50.131783  1.675
13278 1   32.427761 -49.410544  1.675
13279 1   29.994378 -52.272963  1.675
13280 1   28.758167 -51.574262  1.675
13281 1   28.745155 -50.154322  1.675
13282 1   29.968353 -49.433083  1.675
13283 1   27.534969 -52.295502  1.675
13284 1   26.298758 -51.596801  1.675
13285 1   26.285746 -50.176861  1.675
13286 1   27.508944 -49.455621  1.675
13287 1   25.075560 -52.318041  1.675
13288 1   23.839350 -51.619340  1.675
13289 1   23.826337 -50.199400  1.675
13290 1   25.049535 -49.478160  1.675
13291 1   22.616151 -52.340579  1.675
13292 1   21.379941 -51.641879  1.675
13293 1   21.366928 -50.221938  1.675
13294 1   22.590126 -49.500699  1.675
13295 1   20.156743 -52.363118  1.675
13296 1   18.920532 -51.664417  1.675
13297 1   18.907519 -50.244477  1.675
13298 1   20.130717 -49.523237  1.675
13299 1   17.697334 -52.385657  1.675
13300 1   16.461123 -51.686956  1.675
13301 1   16.448110 -50.267016  1.675
13302 1   17.671308 -49.545776  1.675
13303 1   15.237925 -52.408196  1.675
13304 1   14.001714 -51.709495  1.675
13305 1   13.988701 -50.289554  1.675
13306 1   15.211899 -49.568315  1.675
13307 1   12.778516 -52.430734  1.675
13308 1   11.542305 -51.732034  1.675
13309 1   11.529292 -50.312093  1.675
13310 1   12.752490 -49.590854  1.675
13311 1   10.319107 -52.453273  1.675
13312 1    9.082896 -51.754572  1.675
13313 1    9.069884 -50.334632  1.675
13314 1   10.293082 -49.613392  1.675
13315 1    7.859698 -52.475812  1.675
13316 1    6.623487 -51.777111  1.675
13317 1    6.610475 -50.357171  1.675
13318 1    7.833673 -49.635931  1.675
13319 1    5.400289 -52.498351  1.675
13320 1    4.164079 -51.799650  1.675
13321 1    4.151066 -50.379709  1.675
13322 1    5.374264 -49.658470  1.675
13323 1    2.940880 -52.520889  1.675
13324 1    1.704670 -51.822189  1.675
13325 1    1.691657 -50.402248  1.675
13326 1    2.914855 -49.681009  1.675
13327 1    0.481472 -52.543428  1.675
13328 1   -0.754739 -51.844727  1.675
13329 1   -0.767752 -50.424787  1.675
13330 1    0.455446 -49.703547  1.675
13331 1   -1.977937 -52.565967  1.675
13332 1   -3.214148 -51.867266  1.675
13333 1   -3.227161 -50.447326  1.675
13334 1   -2.003963 -49.726086  1.675
13335 1   -4.437346 -52.588506  1.675
13336 1   -5.673557 -51.889805  1.675
13337 1   -5.686570 -50.469864  1.675
13338 1   -4.463372 -49.748625  1.675
13339 1   -6.896755 -52.611044  1.675
13340 1   -8.132966 -51.912343  1.675
13341 1   -8.145979 -50.492403  1.675
13342 1   -6.922781 -49.771164  1.675
13343 1   -9.356164 -52.633583  1.675
13344 1  -10.592375 -51.934882  1.675
13345 1  -10.605387 -50.514942  1.675
13346 1   -9.382189 -49.793702  1.675
13347 1  -11.815573 -52.656122  1.675
13348 1  -13.051784 -51.957421  1.675
13349 1  -13.064796 -50.537481  1.675
13350 1  -11.841598 -49.816241  1.675
13351 1  -14.274982 -52.678661  1.675
13352 1  -15.511192 -51.979960  1.675
13353 1  -15.524205 -50.560019  1.675
13354 1  -14.301007 -49.838780  1.675
13355 1  -16.734391 -52.701199  1.675
13356 1  -17.970601 -52.002498  1.675
13357 1  -17.983614 -50.582558  1.675
13358 1  -16.760416 -49.861318  1.675
13359 1  -19.193799 -52.723738  1.675
13360 1  -20.430010 -52.025037  1.675
13361 1  -20.443023 -50.605097  1.675
13362 1  -19.219825 -49.883857  1.675
13363 1  -21.653208 -52.746277  1.675
13364 1  -22.889419 -52.047576  1.675
13365 1  -22.902432 -50.627636  1.675
13366 1  -21.679234 -49.906396  1.675
13367 1  -24.112617 -52.768815  1.675
13368 1  -25.348828 -52.070115  1.675
13369 1  -25.361841 -50.650174  1.675
13370 1  -24.138643 -49.928935  1.675
13371 1  -26.572026 -52.791354  1.675
13372 1  -27.808237 -52.092653  1.675
13373 1  -27.821250 -50.672713  1.675
13374 1  -26.598052 -49.951473  1.675
13375 1  -29.031435 -52.813893  1.675
13376 1  -30.267646 -52.115192  1.675
13377 1  -30.280658 -50.695252  1.675
13378 1  -29.057460 -49.974012  1.675
13379 1  -31.490844 -52.836432  1.675
13380 1  -32.727055 -52.137731  1.675
13381 1  -32.740067 -50.717790  1.675
13382 1  -31.516869 -49.996551  1.675
13383 1  -33.950253 -52.858970  1.675
13384 1  -35.186463 -52.160270  1.675
13385 1  -35.199476 -50.740329  1.675
13386 1  -33.976278 -50.019090  1.675
13387 1  -36.409662 -52.881509  1.675
13388 1  -37.645872 -52.182808  1.675
13389 1  -37.658885 -50.762868  1.675
13390 1  -36.435687 -50.041628  1.675
13391 1  -38.869070 -52.904048  1.675
13392 1  -40.105281 -52.205347  1.675
13393 1  -40.118294 -50.785407  1.675
13394 1  -38.895096 -50.064167  1.675
13395 1  -41.328479 -52.926587  1.675
13396 1  -42.564690 -52.227886  1.675
13397 1  -42.577703 -50.807945  1.675
13398 1  -41.354505 -50.086706  1.675
13399 1  -43.787888 -52.949125  1.675
13400 1  -45.024099 -52.250425  1.675
13401 1  -45.037112 -50.830484  1.675
13402 1  -43.813914 -50.109245  1.675
13403 1  -46.247297 -52.971664  1.675
13404 1  -47.483508 -52.272963  1.675
13405 1  -47.496521 -50.853023  1.675
13406 1  -46.273323 -50.131783  1.675
13407 1  -48.706706 -52.994203  1.675
13408 1  -49.942917 -52.295502  1.675
13409 1  -49.955929 -50.875562  1.675
13410 1  -48.732731 -50.154322  1.675
13411 1  -51.166115 -53.016742  1.675
13412 1  -52.402326 -52.318041  1.675
13413 1  -52.415338 -50.898100  1.675
13414 1  -51.192140 -50.176861  1.675
13415 1  -53.625524 -53.039280  1.675
13416 1  -54.861734 -52.340579  1.675
13417 1  -54.874747 -50.920639  1.675
13418 1  -53.651549 -50.199400  1.675
13419 1  -56.084933 -53.061819  1.675
13420 1  -57.321143 -52.363118  1.675
13421 1  -57.334156 -50.943178  1.675
13422 1  -56.110958 -50.221938  1.675
13423 1  -58.544341 -53.084358  1.675
13424 1  -59.780552 -52.385657  1.675
13425 1  -59.793565 -50.965717  1.675
13426 1  -58.570367 -50.244477  1.675
13427 1  -61.003750 -53.106896  1.675
13428 1  -62.239961 -52.408196  1.675
13429 1  -62.252974 -50.988255  1.675
13430 1  -61.029776 -50.267016  1.675
13431 1  -63.463159 -53.129435  1.675
13432 1  -64.699370 -52.430734  1.675
13433 1  -64.712383 -51.010794  1.675
13434 1  -63.489185 -50.289554  1.675
13435 1  -65.922568 -53.151974  1.675
13436 1  -67.158779 -52.453273  1.675
13437 1  -67.171792 -51.033333  1.675
13438 1  -65.948593 -50.312093  1.675
13439 1  -68.381977 -53.174513  1.675
13440 1  -69.618188 -52.475812  1.675
13441 1  -69.631200 -51.055872  1.675
13442 1  -68.408002 -50.334632  1.675
13443 1  -70.841386 -53.197051  1.675
13444 1  -72.077597 -52.498351  1.675
13445 1  -72.090609 -51.078410  1.675
13446 1  -70.867411 -50.357171  1.675
13447 1  -73.300795 -53.219590  1.675
13448 1  -74.537005 -52.520889  1.675
13449 1  -74.550018 -51.100949  1.675
13450 1  -73.326820 -50.379709  1.675
13451 1  -75.760203 -53.242129  1.675
13452 1  -76.996414 -52.543428  1.675
13453 1  -77.009427 -51.123488  1.675
13454 1  -75.786229 -50.402248  1.675
13455 1  -78.219612 -53.264668  1.675
13456 1  -79.455823 -52.565967  1.675
13457 1  -79.468836 -51.146026  1.675
13458 1  -78.245638 -50.424787  1.675
13459 1  -80.679021 -53.287206  1.675
13460 1  -81.915232 -52.588506  1.675
13461 1  -81.928245 -51.168565  1.675
13462 1  -80.705047 -50.447326  1.675
13463 1  -83.138430 -53.309745  1.675
13464 1  -84.374641 -52.611044  1.675
13465 1  -84.387654 -51.191104  1.675
13466 1  -83.164456 -50.469864  1.675
13467 1  -85.597839 -53.332284  1.675
13468 1  -86.834050 -52.633583  1.675
13469 1  -86.847063 -51.213643  1.675
13470 1  -85.623864 -50.492403  1.675
13471 1  -88.057248 -53.354823  1.675
13472 1  -89.293459 -52.656122  1.675
13473 1  -89.306471 -51.236181  1.675
13474 1  -88.083273 -50.514942  1.675
13475 1  -90.516657 -53.377361  1.675
13476 1  -91.752868 -52.678661  1.675
13477 1  -91.765880 -51.258720  1.675
13478 1  -90.542682 -50.537481  1.675
13479 1  -92.976066 -53.399900  1.675
13480 1  -94.212276 -52.701199  1.675
13481 1  -94.225289 -51.281259  1.675
13482 1  -93.002091 -50.560019  1.675
13483 1  -95.435474 -53.422439  1.675
13484 1  -96.671685 -52.723738  1.675
13485 1  -96.684698 -51.303798  1.675
13486 1  -95.461500 -50.582558  1.675
13487 1  -97.894883 -53.444978  1.675
13488 1  -99.131094 -52.746277  1.675
13489 1  -99.144107 -51.326336  1.675
13490 1  -97.920909 -50.605097  1.675
13491 1 -100.354292 -53.467516  1.675
13492 1 -101.590503 -52.768815  1.675
13493 1 -101.603516 -51.348875  1.675
13494 1 -100.380318 -50.627636  1.675
13495 1 -102.813701 -53.490055  1.675
13496 1 -104.049912 -52.791354  1.675
13497 1 -104.062925 -51.371414  1.675
13498 1 -102.839727 -50.650174  1.675
13499 1 -105.273110 -53.512594  1.675
13500 1 -106.509321 -52.813893  1.675
13501 1 -106.522334 -51.393953  1.675
13502 1 -105.299135 -50.672713  1.675
13503 1 -107.732519 -53.535132  1.675
13504 1 -108.968730 -52.836432  1.675
13505 1 -108.981742 -51.416491  1.675
13506 1 -107.758544 -50.695252  1.675
13507 1 -110.191928 -53.557671  1.675
13508 1 -111.428139 -52.858970  1.675
13509 1 -111.441151 -51.439030  1.675
13510 1 -110.217953 -50.717790  1.675
13511 1 -112.651337 -53.580210  1.675
13512 1 -113.887547 -52.881509  1.675
13513 1 -113.900560 -51.461569  1.675
13514 1 -112.677362 -50.740329  1.675
13515 1 -115.110745 -53.602749  1.675
13516 1 -115.136771 -50.762868  1.675
13517 1  116.034650 -47.224286  1.675
13518 1  114.798440 -46.525586  1.675
13519 1  114.785427 -45.105645  1.675
13520 1  116.008625 -44.384406  1.675
13521 1  113.575242 -47.246825  1.675
13522 1  112.339031 -46.548124  1.675
13523 1  112.326018 -45.128184  1.675
13524 1  113.549216 -44.406944  1.675
13525 1  111.115833 -47.269364  1.675
13526 1  109.879622 -46.570663  1.675
13527 1  109.866609 -45.150723  1.675
13528 1  111.089807 -44.429483  1.675
13529 1  108.656424 -47.291903  1.675
13530 1  107.420213 -46.593202  1.675
13531 1  107.407200 -45.173261  1.675
13532 1  108.630398 -44.452022  1.675
13533 1  106.197015 -47.314441  1.675
13534 1  104.960804 -46.615740  1.675
13535 1  104.947791 -45.195800  1.675
13536 1  106.170989 -44.474561  1.675
13537 1  103.737606 -47.336980  1.675
13538 1  102.501395 -46.638279  1.675
13539 1  102.488382 -45.218339  1.675
13540 1  103.711581 -44.497099  1.675
13541 1  101.278197 -47.359519  1.675
13542 1  100.041986 -46.660818  1.675
13543 1  100.028974 -45.240878  1.675
13544 1  101.252172 -44.519638  1.675
13545 1   98.818788 -47.382058  1.675
13546 1   97.582577 -46.683357  1.675
13547 1   97.569565 -45.263416  1.675
13548 1   98.792763 -44.542177  1.675
13549 1   96.359379 -47.404596  1.675
13550 1   95.123169 -46.705895  1.675
13551 1   95.110156 -45.285955  1.675
13552 1   96.333354 -44.564716  1.675
13553 1   93.899971 -47.427135  1.675
13554 1   92.663760 -46.728434  1.675
13555 1   92.650747 -45.308494  1.675
13556 1   93.873945 -44.587254  1.675
13557 1   91.440562 -47.449674  1.675
13558 1   90.204351 -46.750973  1.675
13559 1   90.191338 -45.331033  1.675
13560 1   91.414536 -44.609793  1.675
13561 1   88.981153 -47.472212  1.675
13562 1   87.744942 -46.773512  1.675
13563 1   87.731929 -45.353571  1.675
13564 1   88.955127 -44.632332  1.675
13565 1   86.521744 -47.494751  1.675
13566 1   85.285533 -46.796050  1.675
13567 1   85.272520 -45.376110  1.675
13568 1   86.495718 -44.654870  1.675
13569 1   84.062335 -47.517290  1.675
13570 1   82.826124 -46.818589  1.675
13571 1   82.813111 -45.398649  1.675
13572 1   84.036310 -44.677409  1.675
13573 1   81.602926 -47.539829  1.675
13574 1   80.366715 -46.841128  1.675
13575 1   80.353703 -45.421187  1.675
13576 1   81.576901 -44.699948  1.675
13577 1   79.143517 -47.562367  1.675
13578 1   77.907306 -46.863667  1.675
13579 1   77.894294 -45.443726  1.675
13580 1   79.117492 -44.722487  1.675
13581 1   76.684108 -47.584906  1.675
13582 1   75.447898 -46.886205  1.675
13583 1   75.434885 -45.466265  1.675
13584 1   76.658083 -44.745025  1.675
13585 1   74.224700 -47.607445  1.675
13586 1   72.988489 -46.908744  1.675
13587 1   72.975476 -45.488804  1.675
13588 1   74.198674 -44.767564  1.675
13589 1   71.765291 -47.629984  1.675
13590 1   70.529080 -46.931283  1.675
13591 1   70.516067 -45.511342  1.675
13592 1   71.739265 -44.790103  1.675
13593 1   69.305882 -47.652522  1.675
13594 1   68.069671 -46.953822  1.675
13595 1   68.056658 -45.533881  1.675
13596 1   69.279856 -44.812642  1.675
13597 1   66.846473 -47.675061  1.675
13598 1   65.610262 -46.976360  1.675
13599 1   65.597249 -45.556420  1.675
13600 1   66.820447 -44.835180  1.675
13601 1   64.387064 -47.697600  1.675
13602 1   63.150853 -46.998899  1.675
13603 1   63.137840 -45.578959  1.675
13604 1   64.361039 -44.857719  1.675
13605 1   61.927655 -47.720139  1.675
13606 1   60.691444 -47.021438  1.675
13607 1   60.678432 -45.601497  1.675
13608 1   61.901630 -44.880258  1.675
13609 1   59.468246 -47.742677  1.675
13610 1   58.232035 -47.043976  1.675
13611 1   58.219023 -45.624036  1.675
13612 1   59.442221 -44.902797  1.675
13613 1   57.008837 -47.765216  1.675
13614 1   55.772627 -47.066515  1.675
13615 1   55.759614 -45.646575  1.675
13616 1   56.982812 -44.925335  1.675
13617 1   54.549429 -47.787755  1.675
13618 1   53.313218 -47.089054  1.675
13619 1   53.300205 -45.669114  1.675
13620 1   54.523403 -44.947874  1.675
13621 1   52.090020 -47.810294  1.675
13622 1   50.853809 -47.111593  1.675
13623 1   50.840796 -45.691652  1.675
13624 1   52.063994 -44.970413  1.675
13625 1   49.630611 -47.832832  1.675
13626 1   48.394400 -47.134131  1.675
13627 1   48.381387 -45.714191  1.675
13628 1   49.604585 -44.992951  1.675
13629 1   47.171202 -47.855371  1.675
13630 1   45.934991 -47.156670  1.675
13631 1   45.921978 -45.736730  1.675
13632 1   47.145176 -45.015490  1.675
13633 1   44.711793 -47.877910  1.675
13634 1   43.475582 -47.179209  1.675
13635 1   43.462570 -45.759269  1.675
13636 1   44.685768 -45.038029  1.675
13637 1   42.252384 -47.900448  1.675
13638 1   41.016173 -47.201748  1.675
13639 1   41.003161 -45.781807  1.675
13640 1   42.226359 -45.060568  1.675
13641 1   39.792975 -47.922987  1.675
13642 1   38.556765 -47.224286  1.675
13643 1   38.543752 -45.804346  1.675
13644 1   39.766950 -45.083106  1.675
13645 1   37.333566 -47.945526  1.675
13646 1   36.097356 -47.246825  1.675
13647 1   36.084343 -45.826885  1.675
13648 1   37.307541 -45.105645  1.675
13649 1   34.874158 -47.968065  1.675
13650 1   33.637947 -47.269364  1.675
13651 1   33.624934 -45.849423  1.675
13652 1   34.848132 -45.128184  1.675
13653 1   32.414749 -47.990603  1.675
13654 1   31.178538 -47.291903  1.675
13655 1   31.165525 -45.871962  1.675
13656 1   32.388723 -45.150723  1.675
13657 1   29.955340 -48.013142  1.675
13658 1   28.719129 -47.314441  1.675
13659 1   28.706116 -45.894501  1.675
13660 1   29.929314 -45.173261  1.675
13661 1   27.495931 -48.035681  1.675
13662 1   26.259720 -47.336980  1.675
13663 1   26.246707 -45.917040  1.675
13664 1   27.469905 -45.195800  1.675
13665 1   25.036522 -48.058220  1.675
13666 1   23.800311 -47.359519  1.675
13667 1   23.787299 -45.939578  1.675
13668 1   25.010497 -45.218339  1.675
13669 1   22.577113 -48.080758  1.675
13670 1   21.340902 -47.382058  1.675
13671 1   21.327890 -45.962117  1.675
13672 1   22.551088 -45.240878  1.675
13673 1   20.117704 -48.103297  1.675
13674 1   18.881494 -47.404596  1.675
13675 1   18.868481 -45.984656  1.675
13676 1   20.091679 -45.263416  1.675
13677 1   17.658295 -48.125836  1.675
13678 1   16.422085 -47.427135  1.675
13679 1   16.409072 -46.007195  1.675
13680 1   17.632270 -45.285955  1.675
13681 1   15.198887 -48.148375  1.675
13682 1   13.962676 -47.449674  1.675
13683 1   13.949663 -46.029733  1.675
13684 1   15.172861 -45.308494  1.675
13685 1   12.739478 -48.170913  1.675
13686 1   11.503267 -47.472212  1.675
13687 1   11.490254 -46.052272  1.675
13688 1   12.713452 -45.331033  1.675
13689 1   10.280069 -48.193452  1.675
13690 1    9.043858 -47.494751  1.675
13691 1    9.030845 -46.074811  1.675
13692 1   10.254043 -45.353571  1.675
13693 1    7.820660 -48.215991  1.675
13694 1    6.584449 -47.517290  1.675
13695 1    6.571436 -46.097350  1.675
13696 1    7.794634 -45.376110  1.675
13697 1    5.361251 -48.238529  1.675
13698 1    4.125040 -47.539829  1.675
13699 1    4.112028 -46.119888  1.675
13700 1    5.335226 -45.398649  1.675
13701 1    2.901842 -48.261068  1.675
13702 1    1.665631 -47.562367  1.675
13703 1    1.652619 -46.142427  1.675
13704 1    2.875817 -45.421187  1.675
13705 1    0.442433 -48.283607  1.675
13706 1   -0.793777 -47.584906  1.675
13707 1   -0.806790 -46.164966  1.675
13708 1    0.416408 -45.443726  1.675
13709 1   -2.016976 -48.306146  1.675
13710 1   -3.253186 -47.607445  1.675
13711 1   -3.266199 -46.187505  1.675
13712 1   -2.043001 -45.466265  1.675
13713 1   -4.476384 -48.328684  1.675
13714 1   -5.712595 -47.629984  1.675
13715 1   -5.725608 -46.210043  1.675
13716 1   -4.502410 -45.488804  1.675
13717 1   -6.935793 -48.351223  1.675
13718 1   -8.172004 -47.652522  1.675
13719 1   -8.185017 -46.232582  1.675
13720 1   -6.961819 -45.511342  1.675
13721 1   -9.395202 -48.373762  1.675
13722 1  -10.631413 -47.675061  1.675
13723 1  -10.644426 -46.255121  1.675
13724 1   -9.421228 -45.533881  1.675
13725 1  -11.854611 -48.396301  1.675
13726 1  -13.090822 -47.697600  1.675
13727 1  -13.103835 -46.277659  1.675
13728 1  -11.880637 -45.556420  1.675
13729 1  -14.314020 -48.418839  1.675
13730 1  -15.550231 -47.720139  1.675
13731 1  -15.563243 -46.300198  1.675
13732 1  -14.340045 -45.578959  1.675
13733 1  -16.773429 -48.441378  1.675
13734 1  -18.009640 -47.742677  1.675
13735 1  -18.022652 -46.322737  1.675
13736 1  -16.799454 -45.601497  1.675
13737 1  -19.232838 -48.463917  1.675
13738 1  -20.469048 -47.765216  1.675
13739 1  -20.482061 -46.345276  1.675
13740 1  -19.258863 -45.624036  1.675
13741 1  -21.692247 -48.486456  1.675
13742 1  -22.928457 -47.787755  1.675
13743 1  -22.941470 -46.367814  1.675
13744 1  -21.718272 -45.646575  1.675
13745 1  -24.151655 -48.508994  1.675
13746 1  -25.387866 -47.810294  1.675
13747 1  -25.400879 -46.390353  1.675
13748 1  -24.177681 -45.669114  1.675
13749 1  -26.611064 -48.531533  1.675
13750 1  -27.847275 -47.832832  1.675
13751 1  -27.860288 -46.412892  1.675
13752 1  -26.637090 -45.691652  1.675
13753 1  -29.070473 -48.554072  1.675
13754 1  -30.306684 -47.855371  1.675
13755 1  -30.319697 -46.435431  1.675
13756 1  -29.096499 -45.714191  1.675
13757 1  -31.529882 -48.576611  1.675
13758 1  -32.766093 -47.877910  1.675
13759 1  -32.779106 -46.457969  1.675
13760 1  -31.555907 -45.736730  1.675
13761 1  -33.989291 -48.599149  1.675
13762 1  -35.225502 -47.900448  1.675
13763 1  -35.238514 -46.480508  1.675
13764 1  -34.015316 -45.759269  1.675
13765 1  -36.448700 -48.621688  1.675
13766 1  -37.684911 -47.922987  1.675
13767 1  -37.697923 -46.503047  1.675
13768 1  -36.474725 -45.781807  1.675
13769 1  -38.908109 -48.644227  1.675
13770 1  -40.144319 -47.945526  1.675
13771 1  -40.157332 -46.525586  1.675
13772 1  -38.934134 -45.804346  1.675
13773 1  -41.367518 -48.666765  1.675
13774 1  -42.603728 -47.968065  1.675
13775 1  -42.616741 -46.548124  1.675
13776 1  -41.393543 -45.826885  1.675
13777 1  -43.826926 -48.689304  1.675
13778 1  -45.063137 -47.990603  1.675
13779 1  -45.076150 -46.570663  1.675
13780 1  -43.852952 -45.849423  1.675
13781 1  -46.286335 -48.711843  1.675
13782 1  -47.522546 -48.013142  1.675
13783 1  -47.535559 -46.593202  1.675
13784 1  -46.312361 -45.871962  1.675
13785 1  -48.745744 -48.734382  1.675
13786 1  -49.981955 -48.035681  1.675
13787 1  -49.994968 -46.615740  1.675
13788 1  -48.771770 -45.894501  1.675
13789 1  -51.205153 -48.756920  1.675
13790 1  -52.441364 -48.058220  1.675
13791 1  -52.454377 -46.638279  1.675
13792 1  -51.231178 -45.917040  1.675
13793 1  -53.664562 -48.779459  1.675
13794 1  -54.900773 -48.080758  1.675
13795 1  -54.913785 -46.660818  1.675
13796 1  -53.690587 -45.939578  1.675
13797 1  -56.123971 -48.801998  1.675
13798 1  -57.360182 -48.103297  1.675
13799 1  -57.373194 -46.683357  1.675
13800 1  -56.149996 -45.962117  1.675
13801 1  -58.583380 -48.824537  1.675
13802 1  -59.819590 -48.125836  1.675
13803 1  -59.832603 -46.705895  1.675
13804 1  -58.609405 -45.984656  1.675
13805 1  -61.042788 -48.847075  1.675
13806 1  -62.278999 -48.148375  1.675
13807 1  -62.292012 -46.728434  1.675
13808 1  -61.068814 -46.007195  1.675
13809 1  -63.502197 -48.869614  1.675
13810 1  -64.738408 -48.170913  1.675
13811 1  -64.751421 -46.750973  1.675
13812 1  -63.528223 -46.029733  1.675
13813 1  -65.961606 -48.892153  1.675
13814 1  -67.197817 -48.193452  1.675
13815 1  -67.210830 -46.773512  1.675
13816 1  -65.987632 -46.052272  1.675
13817 1  -68.421015 -48.914692  1.675
13818 1  -69.657226 -48.215991  1.675
13819 1  -69.670239 -46.796050  1.675
13820 1  -68.447041 -46.074811  1.675
13821 1  -70.880424 -48.937230  1.675
13822 1  -72.116635 -48.238529  1.675
13823 1  -72.129648 -46.818589  1.675
13824 1  -70.906449 -46.097350  1.675
13825 1  -73.339833 -48.959769  1.675
13826 1  -74.576044 -48.261068  1.675
13827 1  -74.589056 -46.841128  1.675
13828 1  -73.365858 -46.119888  1.675
13829 1  -75.799242 -48.982308  1.675
13830 1  -77.035453 -48.283607  1.675
13831 1  -77.048465 -46.863667  1.675
13832 1  -75.825267 -46.142427  1.675
13833 1  -78.258651 -49.004847  1.675
13834 1  -79.494861 -48.306146  1.675
13835 1  -79.507874 -46.886205  1.675
13836 1  -78.284676 -46.164966  1.675
13837 1  -80.718059 -49.027385  1.675
13838 1  -81.954270 -48.328684  1.675
13839 1  -81.967283 -46.908744  1.675
13840 1  -80.744085 -46.187505  1.675
13841 1  -83.177468 -49.049924  1.675
13842 1  -84.413679 -48.351223  1.675
13843 1  -84.426692 -46.931283  1.675
13844 1  -83.203494 -46.210043  1.675
13845 1  -85.636877 -49.072463  1.675
13846 1  -86.873088 -48.373762  1.675
13847 1  -86.886101 -46.953822  1.675
13848 1  -85.662903 -46.232582  1.675
13849 1  -88.096286 -49.095001  1.675
13850 1  -89.332497 -48.396301  1.675
13851 1  -89.345510 -46.976360  1.675
13852 1  -88.122312 -46.255121  1.675
13853 1  -90.555695 -49.117540  1.675
13854 1  -91.791906 -48.418839  1.675
13855 1  -91.804919 -46.998899  1.675
13856 1  -90.581720 -46.277659  1.675
13857 1  -93.015104 -49.140079  1.675
13858 1  -94.251315 -48.441378  1.675
13859 1  -94.264327 -47.021438  1.675
13860 1  -93.041129 -46.300198  1.675
13861 1  -95.474513 -49.162618  1.675
13862 1  -96.710724 -48.463917  1.675
13863 1  -96.723736 -47.043976  1.675
13864 1  -95.500538 -46.322737  1.675
13865 1  -97.933922 -49.185156  1.675
13866 1  -99.170132 -48.486456  1.675
13867 1  -99.183145 -47.066515  1.675
13868 1  -97.959947 -46.345276  1.675
13869 1 -100.393330 -49.207695  1.675
13870 1 -101.629541 -48.508994  1.675
13871 1 -101.642554 -47.089054  1.675
13872 1 -100.419356 -46.367814  1.675
13873 1 -102.852739 -49.230234  1.675
13874 1 -104.088950 -48.531533  1.675
13875 1 -104.101963 -47.111593  1.675
13876 1 -102.878765 -46.390353  1.675
13877 1 -105.312148 -49.252773  1.675
13878 1 -106.548359 -48.554072  1.675
13879 1 -106.561372 -47.134131  1.675
13880 1 -105.338174 -46.412892  1.675
13881 1 -107.771557 -49.275311  1.675
13882 1 -109.007768 -48.576611  1.675
13883 1 -109.020781 -47.156670  1.675
13884 1 -107.797583 -46.435431  1.675
13885 1 -110.230966 -49.297850  1.675
13886 1 -111.467177 -48.599149  1.675
13887 1 -111.480190 -47.179209  1.675
13888 1 -110.256991 -46.457969  1.675
13889 1 -112.690375 -49.320389  1.675
13890 1 -113.926586 -48.621688  1.675
13891 1 -113.939598 -47.201748  1.675
13892 1 -112.716400 -46.480508  1.675
13893 1 -115.149784 -49.342928  1.675
13894 1 -115.175809 -46.503047  1.675
13895 1  115.995612 -42.964465  1.675
13896 1  114.759401 -42.265764  1.675
13897 1  114.746389 -40.845824  1.675
13898 1  115.969587 -40.124584  1.675
13899 1  113.536203 -42.987004  1.675
13900 1  112.299992 -42.288303  1.675
13901 1  112.286980 -40.868363  1.675
13902 1  113.510178 -40.147123  1.675
13903 1  111.076794 -43.009543  1.675
13904 1  109.840584 -42.310842  1.675
13905 1  109.827571 -40.890902  1.675
13906 1  111.050769 -40.169662  1.675
13907 1  108.617386 -43.032081  1.675
13908 1  107.381175 -42.333381  1.675
13909 1  107.368162 -40.913440  1.675
13910 1  108.591360 -40.192201  1.675
13911 1  106.157977 -43.054620  1.675
13912 1  104.921766 -42.355919  1.675
13913 1  104.908753 -40.935979  1.675
13914 1  106.131951 -40.214739  1.675
13915 1  103.698568 -43.077159  1.675
13916 1  102.462357 -42.378458  1.675
13917 1  102.449344 -40.958518  1.675
13918 1  103.672542 -40.237278  1.675
13919 1  101.239159 -43.099698  1.675
13920 1  100.002948 -42.400997  1.675
13921 1   99.989935 -40.981056  1.675
13922 1  101.213133 -40.259817  1.675
13923 1   98.779750 -43.122236  1.675
13924 1   97.543539 -42.423536  1.675
13925 1   97.530526 -41.003595  1.675
13926 1   98.753725 -40.282356  1.675
13927 1   96.320341 -43.144775  1.675
13928 1   95.084130 -42.446074  1.675
13929 1   95.071118 -41.026134  1.675
13930 1   96.294316 -40.304894  1.675
13931 1   93.860932 -43.167314  1.675
13932 1   92.624721 -42.468613  1.675
13933 1   92.611709 -41.048673  1.675
13934 1   93.834907 -40.327433  1.675
13935 1   91.401523 -43.189853  1.675
13936 1   90.165313 -42.491152  1.675
13937 1   90.152300 -41.071211  1.675
13938 1   91.375498 -40.349972  1.675
13939 1   88.942115 -43.212391  1.675
13940 1   87.705904 -42.513691  1.675
13941 1   87.692891 -41.093750  1.675
13942 1   88.916089 -40.372511  1.675
13943 1   86.482706 -43.234930  1.675
13944 1   85.246495 -42.536229  1.675
13945 1   85.233482 -41.116289  1.675
13946 1   86.456680 -40.395049  1.675
13947 1   84.023297 -43.257469  1.675
13948 1   82.787086 -42.558768  1.675
13949 1   82.774073 -41.138828  1.675
13950 1   83.997271 -40.417588  1.675
13951 1   81.563888 -43.280008  1.675
13952 1   80.327677 -42.581307  1.675
13953 1   80.314664 -41.161366  1.675
13954 1   81.537862 -40.440127  1.675
13955 1   79.104479 -43.302546  1.675
13956 1   77.868268 -42.603845  1.675
13957 1   77.855255 -41.183905  1.675
13958 1   79.078454 -40.462666  1.675
13959 1   76.645070 -43.325085  1.675
13960 1   75.408859 -42.626384  1.675
13961 1   75.395847 -41.206444  1.675
13962 1   76.619045 -40.485204  1.675
13963 1   74.185661 -43.347624  1.675
13964 1   72.949450 -42.648923  1.675
13965 1   72.936438 -41.228983  1.675
13966 1   74.159636 -40.507743  1.675
13967 1   71.726252 -43.370162  1.675
13968 1   70.490042 -42.671462  1.675
13969 1   70.477029 -41.251521  1.675
13970 1   71.700227 -40.530282  1.675
13971 1   69.266844 -43.392701  1.675
13972 1   68.030633 -42.694000  1.675
13973 1   68.017620 -41.274060  1.675
13974 1   69.240818 -40.552820  1.675
13975 1   66.807435 -43.415240  1.675
13976 1   65.571224 -42.716539  1.675
13977 1   65.558211 -41.296599  1.675
13978 1   66.781409 -40.575359  1.675
13979 1   64.348026 -43.437779  1.675
13980 1   63.111815 -42.739078  1.675
13981 1   63.098802 -41.319138  1.675
13982 1   64.322000 -40.597898  1.675
13983 1   61.888617 -43.460317  1.675
13984 1   60.652406 -42.761617  1.675
13985 1   60.639393 -41.341676  1.675
13986 1   61.862591 -40.620437  1.675
13987 1   59.429208 -43.482856  1.675
13988 1   58.192997 -42.784155  1.675
13989 1   58.179985 -41.364215  1.675
13990 1   59.403183 -40.642975  1.675
13991 1   56.969799 -43.505395  1.675
13992 1   55.733588 -42.806694  1.675
13993 1   55.720576 -41.386754  1.675
13994 1   56.943774 -40.665514  1.675
13995 1   54.510390 -43.527934  1.675
13996 1   53.274180 -42.829233  1.675
13997 1   53.261167 -41.409292  1.675
13998 1   54.484365 -40.688053  1.675
13999 1   52.050981 -43.550472  1.675
14000 1   50.814771 -42.851772  1.675
14001 1   50.801758 -41.431831  1.675
14002 1   52.024956 -40.710592  1.675
14003 1   49.591573 -43.573011  1.675
14004 1   48.355362 -42.874310  1.675
14005 1   48.342349 -41.454370  1.675
14006 1   49.565547 -40.733130  1.675
14007 1   47.132164 -43.595550  1.675
14008 1   45.895953 -42.896849  1.675
14009 1   45.882940 -41.476909  1.675
14010 1   47.106138 -40.755669  1.675
14011 1   44.672755 -43.618089  1.675
14012 1   43.436544 -42.919388  1.675
14013 1   43.423531 -41.499447  1.675
14014 1   44.646729 -40.778208  1.675
14015 1   42.213346 -43.640627  1.675
14016 1   40.977135 -42.941927  1.675
14017 1   40.964122 -41.521986  1.675
14018 1   42.187320 -40.800747  1.675
14019 1   39.753937 -43.663166  1.675
14020 1   38.517726 -42.964465  1.675
14021 1   38.504714 -41.544525  1.675
14022 1   39.727912 -40.823285  1.675
14023 1   37.294528 -43.685705  1.675
14024 1   36.058317 -42.987004  1.675
14025 1   36.045305 -41.567064  1.675
14026 1   37.268503 -40.845824  1.675
14027 1   34.835119 -43.708244  1.675
14028 1   33.598909 -43.009543  1.675
14029 1   33.585896 -41.589602  1.675
14030 1   34.809094 -40.868363  1.675
14031 1   32.375710 -43.730782  1.675
14032 1   31.139500 -43.032081  1.675
14033 1   31.126487 -41.612141  1.675
14034 1   32.349685 -40.890902  1.675
14035 1   29.916302 -43.753321  1.675
14036 1   28.680091 -43.054620  1.675
14037 1   28.667078 -41.634680  1.675
14038 1   29.890276 -40.913440  1.675
14039 1   27.456893 -43.775860  1.675
14040 1   26.220682 -43.077159  1.675
14041 1   26.207669 -41.657219  1.675
14042 1   27.430867 -40.935979  1.675
14043 1   24.997484 -43.798398  1.675
14044 1   23.761273 -43.099698  1.675
14045 1   23.748260 -41.679757  1.675
14046 1   24.971458 -40.958518  1.675
14047 1   22.538075 -43.820937  1.675
14048 1   21.301864 -43.122236  1.675
14049 1   21.288851 -41.702296  1.675
14050 1   22.512049 -40.981056  1.675
14051 1   20.078666 -43.843476  1.675
14052 1   18.842455 -43.144775  1.675
14053 1   18.829443 -41.724835  1.675
14054 1   20.052641 -41.003595  1.675
14055 1   17.619257 -43.866015  1.675
14056 1   16.383046 -43.167314  1.675
14057 1   16.370034 -41.747373  1.675
14058 1   17.593232 -41.026134  1.675
14059 1   15.159848 -43.888553  1.675
14060 1   13.923638 -43.189853  1.675
14061 1   13.910625 -41.769912  1.675
14062 1   15.133823 -41.048673  1.675
14063 1   12.700439 -43.911092  1.675
14064 1   11.464229 -43.212391  1.675
14065 1   11.451216 -41.792451  1.675
14066 1   12.674414 -41.071211  1.675
14067 1   10.241031 -43.933631  1.675
14068 1    9.004820 -43.234930  1.675
14069 1    8.991807 -41.814990  1.675
14070 1   10.215005 -41.093750  1.675
14071 1    7.781622 -43.956170  1.675
14072 1    6.545411 -43.257469  1.675
14073 1    6.532398 -41.837528  1.675
14074 1    7.755596 -41.116289  1.675
14075 1    5.322213 -43.978708  1.675
14076 1    4.086002 -43.280008  1.675
14077 1    4.072989 -41.860067  1.675
14078 1    5.296187 -41.138828  1.675
14079 1    2.862804 -44.001247  1.675
14080 1    1.626593 -43.302546  1.675
14081 1    1.613580 -41.882606  1.675
14082 1    2.836778 -41.161366  1.675
14083 1    0.403395 -44.023786  1.675
14084 1   -0.832816 -43.325085  1.675
14085 1   -0.845828 -41.905145  1.675
14086 1    0.377370 -41.183905  1.675
14087 1   -2.056014 -44.046325  1.675
14088 1   -3.292225 -43.347624  1.675
14089 1   -3.305237 -41.927683  1.675
14090 1   -2.082039 -41.206444  1.675
14091 1   -4.515423 -44.068863  1.675
14092 1   -5.751633 -43.370162  1.675
14093 1   -5.764646 -41.950222  1.675
14094 1   -4.541448 -41.228983  1.675
14095 1   -6.974832 -44.091402  1.675
14096 1   -8.211042 -43.392701  1.675
14097 1   -8.224055 -41.972761  1.675
14098 1   -7.000857 -41.251521  1.675
14099 1   -9.434240 -44.113941  1.675
14100 1  -10.670451 -43.415240  1.675
14101 1  -10.683464 -41.995300  1.675
14102 1   -9.460266 -41.274060  1.675
14103 1  -11.893649 -44.136480  1.675
14104 1  -13.129860 -43.437779  1.675
14105 1  -13.142873 -42.017838  1.675
14106 1  -11.919675 -41.296599  1.675
14107 1  -14.353058 -44.159018  1.675
14108 1  -15.589269 -43.460317  1.675
14109 1  -15.602282 -42.040377  1.675
14110 1  -14.379084 -41.319138  1.675
14111 1  -16.812467 -44.181557  1.675
14112 1  -18.048678 -43.482856  1.675
14113 1  -18.061691 -42.062916  1.675
14114 1  -16.838492 -41.341676  1.675
14115 1  -19.271876 -44.204096  1.675
14116 1  -20.508087 -43.505395  1.675
14117 1  -20.521099 -42.085455  1.675
14118 1  -19.297901 -41.364215  1.675
14119 1  -21.731285 -44.226634  1.675
14120 1  -22.967496 -43.527934  1.675
14121 1  -22.980508 -42.107993  1.675
14122 1  -21.757310 -41.386754  1.675
14123 1  -24.190694 -44.249173  1.675
14124 1  -25.426904 -43.550472  1.675
14125 1  -25.439917 -42.130532  1.675
14126 1  -24.216719 -41.409292  1.675
14127 1  -26.650102 -44.271712  1.675
14128 1  -27.886313 -43.573011  1.675
14129 1  -27.899326 -42.153071  1.675
14130 1  -26.676128 -41.431831  1.675
14131 1  -29.109511 -44.294251  1.675
14132 1  -30.345722 -43.595550  1.675
14133 1  -30.358735 -42.175609  1.675
14134 1  -29.135537 -41.454370  1.675
14135 1  -31.568920 -44.316789  1.675
14136 1  -32.805131 -43.618089  1.675
14137 1  -32.818144 -42.198148  1.675
14138 1  -31.594946 -41.476909  1.675
14139 1  -34.028329 -44.339328  1.675
14140 1  -35.264540 -43.640627  1.675
14141 1  -35.277553 -42.220687  1.675
14142 1  -34.054355 -41.499447  1.675
14143 1  -36.487738 -44.361867  1.675
14144 1  -37.723949 -43.663166  1.675
14145 1  -37.736962 -42.243226  1.675
14146 1  -36.513763 -41.521986  1.675
14147 1  -38.947147 -44.384406  1.675
14148 1  -40.183358 -43.685705  1.675
14149 1  -40.196370 -42.265764  1.675
14150 1  -38.973172 -41.544525  1.675
14151 1  -41.406556 -44.406944  1.675
14152 1  -42.642767 -43.708244  1.675
14153 1  -42.655779 -42.288303  1.675
14154 1  -41.432581 -41.567064  1.675
14155 1  -43.865965 -44.429483  1.675
14156 1  -45.102175 -43.730782  1.675
14157 1  -45.115188 -42.310842  1.675
14158 1  -43.891990 -41.589602  1.675
14159 1  -46.325373 -44.452022  1.675
14160 1  -47.561584 -43.753321  1.675
14161 1  -47.574597 -42.333381  1.675
14162 1  -46.351399 -41.612141  1.675
14163 1  -48.784782 -44.474561  1.675
14164 1  -50.020993 -43.775860  1.675
14165 1  -50.034006 -42.355919  1.675
14166 1  -48.810808 -41.634680  1.675
14167 1  -51.244191 -44.497099  1.675
14168 1  -52.480402 -43.798398  1.675
14169 1  -52.493415 -42.378458  1.675
14170 1  -51.270217 -41.657219  1.675
14171 1  -53.703600 -44.519638  1.675
14172 1  -54.939811 -43.820937  1.675
14173 1  -54.952824 -42.400997  1.675
14174 1  -53.729626 -41.679757  1.675
14175 1  -56.163009 -44.542177  1.675
14176 1  -57.399220 -43.843476  1.675
14177 1  -57.412233 -42.423536  1.675
14178 1  -56.189034 -41.702296  1.675
14179 1  -58.622418 -44.564716  1.675
14180 1  -59.858629 -43.866015  1.675
14181 1  -59.871641 -42.446074  1.675
14182 1  -58.648443 -41.724835  1.675
14183 1  -61.081827 -44.587254  1.675
14184 1  -62.318038 -43.888553  1.675
14185 1  -62.331050 -42.468613  1.675
14186 1  -61.107852 -41.747373  1.675
14187 1  -63.541236 -44.609793  1.675
14188 1  -64.777446 -43.911092  1.675
14189 1  -64.790459 -42.491152  1.675
14190 1  -63.567261 -41.769912  1.675
14191 1  -66.000644 -44.632332  1.675
14192 1  -67.236855 -43.933631  1.675
14193 1  -67.249868 -42.513691  1.675
14194 1  -66.026670 -41.792451  1.675
14195 1  -68.460053 -44.654870  1.675
14196 1  -69.696264 -43.956170  1.675
14197 1  -69.709277 -42.536229  1.675
14198 1  -68.486079 -41.814990  1.675
14199 1  -70.919462 -44.677409  1.675
14200 1  -72.155673 -43.978708  1.675
14201 1  -72.168686 -42.558768  1.675
14202 1  -70.945488 -41.837528  1.675
14203 1  -73.378871 -44.699948  1.675
14204 1  -74.615082 -44.001247  1.675
14205 1  -74.628095 -42.581307  1.675
14206 1  -73.404897 -41.860067  1.675
14207 1  -75.838280 -44.722487  1.675
14208 1  -77.074491 -44.023786  1.675
14209 1  -77.087504 -42.603845  1.675
14210 1  -75.864305 -41.882606  1.675
14211 1  -78.297689 -44.745025  1.675
14212 1  -79.533900 -44.046325  1.675
14213 1  -79.546912 -42.626384  1.675
14214 1  -78.323714 -41.905145  1.675
14215 1  -80.757098 -44.767564  1.675
14216 1  -81.993309 -44.068863  1.675
14217 1  -82.006321 -42.648923  1.675
14218 1  -80.783123 -41.927683  1.675
14219 1  -83.216507 -44.790103  1.675
14220 1  -84.452717 -44.091402  1.675
14221 1  -84.465730 -42.671462  1.675
14222 1  -83.242532 -41.950222  1.675
14223 1  -85.675915 -44.812642  1.675
14224 1  -86.912126 -44.113941  1.675
14225 1  -86.925139 -42.694000  1.675
14226 1  -85.701941 -41.972761  1.675
14227 1  -88.135324 -44.835180  1.675
14228 1  -89.371535 -44.136480  1.675
14229 1  -89.384548 -42.716539  1.675
14230 1  -88.161350 -41.995300  1.675
14231 1  -90.594733 -44.857719  1.675
14232 1  -91.830944 -44.159018  1.675
14233 1  -91.843957 -42.739078  1.675
14234 1  -90.620759 -42.017838  1.675
14235 1  -93.054142 -44.880258  1.675
14236 1  -94.290353 -44.181557  1.675
14237 1  -94.303366 -42.761617  1.675
14238 1  -93.080168 -42.040377  1.675
14239 1  -95.513551 -44.902797  1.675
14240 1  -96.749762 -44.204096  1.675
14241 1  -96.762775 -42.784155  1.675
14242 1  -95.539576 -42.062916  1.675
14243 1  -97.972960 -44.925335  1.675
14244 1  -99.209171 -44.226634  1.675
14245 1  -99.222183 -42.806694  1.675
14246 1  -97.998985 -42.085455  1.675
14247 1 -100.432369 -44.947874  1.675
14248 1 -101.668580 -44.249173  1.675
14249 1 -101.681592 -42.829233  1.675
14250 1 -100.458394 -42.107993  1.675
14251 1 -102.891778 -44.970413  1.675
14252 1 -104.127988 -44.271712  1.675
14253 1 -104.141001 -42.851772  1.675
14254 1 -102.917803 -42.130532  1.675
14255 1 -105.351186 -44.992951  1.675
14256 1 -106.587397 -44.294251  1.675
14257 1 -106.600410 -42.874310  1.675
14258 1 -105.377212 -42.153071  1.675
14259 1 -107.810595 -45.015490  1.675
14260 1 -109.046806 -44.316789  1.675
14261 1 -109.059819 -42.896849  1.675
14262 1 -107.836621 -42.175609  1.675
14263 1 -110.270004 -45.038029  1.675
14264 1 -111.506215 -44.339328  1.675
14265 1 -111.519228 -42.919388  1.675
14266 1 -110.296030 -42.198148  1.675
14267 1 -112.729413 -45.060568  1.675
14268 1 -113.965624 -44.361867  1.675
14269 1 -113.978637 -42.941927  1.675
14270 1 -112.755439 -42.220687  1.675
14271 1 -115.188822 -45.083106  1.675
14272 1 -115.214847 -42.243226  1.675
14273 1  115.956574 -38.704644  1.675
14274 1  114.720363 -38.005943  1.675
14275 1  114.707350 -36.586003  1.675
14276 1  115.930548 -35.864763  1.675
14277 1  113.497165 -38.727183  1.675
14278 1  112.260954 -38.028482  1.675
14279 1  112.247941 -36.608542  1.675
14280 1  113.471140 -35.887302  1.675
14281 1  111.037756 -38.749722  1.675
14282 1  109.801545 -38.051021  1.675
14283 1  109.788533 -36.631080  1.675
14284 1  111.011731 -35.909841  1.675
14285 1  108.578347 -38.772260  1.675
14286 1  107.342136 -38.073560  1.675
14287 1  107.329124 -36.653619  1.675
14288 1  108.552322 -35.932380  1.675
14289 1  106.118938 -38.794799  1.675
14290 1  104.882728 -38.096098  1.675
14291 1  104.869715 -36.676158  1.675
14292 1  106.092913 -35.954918  1.675
14293 1  103.659530 -38.817338  1.675
14294 1  102.423319 -38.118637  1.675
14295 1  102.410306 -36.698697  1.675
14296 1  103.633504 -35.977457  1.675
14297 1  101.200121 -38.839877  1.675
14298 1   99.963910 -38.141176  1.675
14299 1   99.950897 -36.721235  1.675
14300 1  101.174095 -35.999996  1.675
14301 1   98.740712 -38.862415  1.675
14302 1   97.504501 -38.163714  1.675
14303 1   97.491488 -36.743774  1.675
14304 1   98.714686 -36.022535  1.675
14305 1   96.281303 -38.884954  1.675
14306 1   95.045092 -38.186253  1.675
14307 1   95.032079 -36.766313  1.675
14308 1   96.255277 -36.045073  1.675
14309 1   93.821894 -38.907493  1.675
14310 1   92.585683 -38.208792  1.675
14311 1   92.572670 -36.788852  1.675
14312 1   93.795869 -36.067612  1.675
14313 1   91.362485 -38.930031  1.675
14314 1   90.126274 -38.231331  1.675
14315 1   90.113262 -36.811390  1.675
14316 1   91.336460 -36.090151  1.675
14317 1   88.903076 -38.952570  1.675
14318 1   87.666865 -38.253869  1.675
14319 1   87.653853 -36.833929  1.675
14320 1   88.877051 -36.112689  1.675
14321 1   86.443667 -38.975109  1.675
14322 1   85.207457 -38.276408  1.675
14323 1   85.194444 -36.856468  1.675
14324 1   86.417642 -36.135228  1.675
14325 1   83.984259 -38.997648  1.675
14326 1   82.748048 -38.298947  1.675
14327 1   82.735035 -36.879006  1.675
14328 1   83.958233 -36.157767  1.675
14329 1   81.524850 -39.020186  1.675
14330 1   80.288639 -38.321486  1.675
14331 1   80.275626 -36.901545  1.675
14332 1   81.498824 -36.180306  1.675
14333 1   79.065441 -39.042725  1.675
14334 1   77.829230 -38.344024  1.675
14335 1   77.816217 -36.924084  1.675
14336 1   79.039415 -36.202844  1.675
14337 1   76.606032 -39.065264  1.675
14338 1   75.369821 -38.366563  1.675
14339 1   75.356808 -36.946623  1.675
14340 1   76.580006 -36.225383  1.675
14341 1   74.146623 -39.087803  1.675
14342 1   72.910412 -38.389102  1.675
14343 1   72.897400 -36.969161  1.675
14344 1   74.120598 -36.247922  1.675
14345 1   71.687214 -39.110341  1.675
14346 1   70.451003 -38.411641  1.675
14347 1   70.437991 -36.991700  1.675
14348 1   71.661189 -36.270461  1.675
14349 1   69.227805 -39.132880  1.675
14350 1   67.991595 -38.434179  1.675
14351 1   67.978582 -37.014239  1.675
14352 1   69.201780 -36.292999  1.675
14353 1   66.768396 -39.155419  1.675
14354 1   65.532186 -38.456718  1.675
14355 1   65.519173 -37.036778  1.675
14356 1   66.742371 -36.315538  1.675
14357 1   64.308988 -39.177958  1.675
14358 1   63.072777 -38.479257  1.675
14359 1   63.059764 -37.059316  1.675
14360 1   64.282962 -36.338077  1.675
14361 1   61.849579 -39.200496  1.675
14362 1   60.613368 -38.501795  1.675
14363 1   60.600355 -37.081855  1.675
14364 1   61.823553 -36.360616  1.675
14365 1   59.390170 -39.223035  1.675
14366 1   58.153959 -38.524334  1.675
14367 1   58.140946 -37.104394  1.675
14368 1   59.364144 -36.383154  1.675
14369 1   56.930761 -39.245574  1.675
14370 1   55.694550 -38.546873  1.675
14371 1   55.681537 -37.126933  1.675
14372 1   56.904735 -36.405693  1.675
14373 1   54.471352 -39.268113  1.675
14374 1   53.235141 -38.569412  1.675
14375 1   53.222129 -37.149471  1.675
14376 1   54.445327 -36.428232  1.675
14377 1   52.011943 -39.290651  1.675
14378 1   50.775732 -38.591950  1.675
14379 1   50.762720 -37.172010  1.675
14380 1   51.985918 -36.450771  1.675
14381 1   49.552534 -39.313190  1.675
14382 1   48.316324 -38.614489  1.675
14383 1   48.303311 -37.194549  1.675
14384 1   49.526509 -36.473309  1.675
14385 1   47.093125 -39.335729  1.675
14386 1   45.856915 -38.637028  1.675
14387 1   45.843902 -37.217088  1.675
14388 1   47.067100 -36.495848  1.675
14389 1   44.633717 -39.358267  1.675
14390 1   43.397506 -38.659567  1.675
14391 1   43.384493 -37.239626  1.675
14392 1   44.607691 -36.518387  1.675
14393 1   42.174308 -39.380806  1.675
14394 1   40.938097 -38.682105  1.675
14395 1   40.925084 -37.262165  1.675
14396 1   42.148282 -36.540925  1.675
14397 1   39.714899 -39.403345  1.675
14398 1   38.478688 -38.704644  1.675
14399 1   38.465675 -37.284704  1.675
14400 1   39.688873 -36.563464  1.675
14401 1   37.255490 -39.425884  1.675
14402 1   36.019279 -38.727183  1.675
14403 1   36.006266 -37.307242  1.675
14404 1   37.229464 -36.586003  1.675
14405 1   34.796081 -39.448422  1.675
14406 1   33.559870 -38.749722  1.675
14407 1   33.546858 -37.329781  1.675
14408 1   34.770056 -36.608542  1.675
14409 1   32.336672 -39.470961  1.675
14410 1   31.100461 -38.772260  1.675
14411 1   31.087449 -37.352320  1.675
14412 1   32.310647 -36.631080  1.675
14413 1   29.877263 -39.493500  1.675
14414 1   28.641053 -38.794799  1.675
14415 1   28.628040 -37.374859  1.675
14416 1   29.851238 -36.653619  1.675
14417 1   27.417854 -39.516039  1.675
14418 1   26.181644 -38.817338  1.675
14419 1   26.168631 -37.397397  1.675
14420 1   27.391829 -36.676158  1.675
14421 1   24.958446 -39.538577  1.675
14422 1   23.722235 -38.839877  1.675
14423 1   23.709222 -37.419936  1.675
14424 1   24.932420 -36.698697  1.675
14425 1   22.499037 -39.561116  1.675
14426 1   21.262826 -38.862415  1.675
14427 1   21.249813 -37.442475  1.675
14428 1   22.473011 -36.721235  1.675
14429 1   20.039628 -39.583655  1.675
14430 1   18.803417 -38.884954  1.675
14431 1   18.790404 -37.465014  1.675
14432 1   20.013602 -36.743774  1.675
14433 1   17.580219 -39.606194  1.675
14434 1   16.344008 -38.907493  1.675
14435 1   16.330995 -37.487552  1.675
14436 1   17.554193 -36.766313  1.675
14437 1   15.120810 -39.628732  1.675
14438 1   13.884599 -38.930031  1.675
14439 1   13.871587 -37.510091  1.675
14440 1   15.094785 -36.788852  1.675
14441 1   12.661401 -39.651271  1.675
14442 1   11.425190 -38.952570  1.675
14443 1   11.412178 -37.532630  1.675
14444 1   12.635376 -36.811390  1.675
14445 1   10.201992 -39.673810  1.675
14446 1    8.965782 -38.975109  1.675
14447 1    8.952769 -37.555169  1.675
14448 1   10.175967 -36.833929  1.675
14449 1    7.742583 -39.696349  1.675
14450 1    6.506373 -38.997648  1.675
14451 1    6.493360 -37.577707  1.675
14452 1    7.716558 -36.856468  1.675
14453 1    5.283175 -39.718887  1.675
14454 1    4.046964 -39.020186  1.675
14455 1    4.033951 -37.600246  1.675
14456 1    5.257149 -36.879006  1.675
14457 1    2.823766 -39.741426  1.675
14458 1    1.587555 -39.042725  1.675
14459 1    1.574542 -37.622785  1.675
14460 1    2.797740 -36.901545  1.675
14461 1    0.364357 -39.763965  1.675
14462 1   -0.871854 -39.065264  1.675
14463 1   -0.884867 -37.645324  1.675
14464 1    0.338331 -36.924084  1.675
14465 1   -2.095052 -39.786503  1.675
14466 1   -3.331263 -39.087803  1.675
14467 1   -3.344276 -37.667862  1.675
14468 1   -2.121077 -36.946623  1.675
14469 1   -4.554461 -39.809042  1.675
14470 1   -5.790672 -39.110341  1.675
14471 1   -5.803684 -37.690401  1.675
14472 1   -4.580486 -36.969161  1.675
14473 1   -7.013870 -39.831581  1.675
14474 1   -8.250081 -39.132880  1.675
14475 1   -8.263093 -37.712940  1.675
14476 1   -7.039895 -36.991700  1.675
14477 1   -9.473279 -39.854120  1.675
14478 1  -10.709489 -39.155419  1.675
14479 1  -10.722502 -37.735478  1.675
14480 1   -9.499304 -37.014239  1.675
14481 1  -11.932687 -39.876658  1.675
14482 1  -13.168898 -39.177958  1.675
14483 1  -13.181911 -37.758017  1.675
14484 1  -11.958713 -37.036778  1.675
14485 1  -14.392096 -39.899197  1.675
14486 1  -15.628307 -39.200496  1.675
14487 1  -15.641320 -37.780556  1.675
14488 1  -14.418122 -37.059316  1.675
14489 1  -16.851505 -39.921736  1.675
14490 1  -18.087716 -39.223035  1.675
14491 1  -18.100729 -37.803095  1.675
14492 1  -16.877531 -37.081855  1.675
14493 1  -19.310914 -39.944275  1.675
14494 1  -20.547125 -39.245574  1.675
14495 1  -20.560138 -37.825633  1.675
14496 1  -19.336940 -37.104394  1.675
14497 1  -21.770323 -39.966813  1.675
14498 1  -23.006534 -39.268113  1.675
14499 1  -23.019547 -37.848172  1.675
14500 1  -21.796348 -37.126933  1.675
14501 1  -24.229732 -39.989352  1.675
14502 1  -25.465943 -39.290651  1.675
14503 1  -25.478955 -37.870711  1.675
14504 1  -24.255757 -37.149471  1.675
14505 1  -26.689141 -40.011891  1.675
14506 1  -27.925352 -39.313190  1.675
14507 1  -27.938364 -37.893250  1.675
14508 1  -26.715166 -37.172010  1.675
14509 1  -29.148550 -40.034430  1.675
14510 1  -30.384760 -39.335729  1.675
14511 1  -30.397773 -37.915788  1.675
14512 1  -29.174575 -37.194549  1.675
14513 1  -31.607958 -40.056968  1.675
14514 1  -32.844169 -39.358267  1.675
14515 1  -32.857182 -37.938327  1.675
14516 1  -31.633984 -37.217088  1.675
14517 1  -34.067367 -40.079507  1.675
14518 1  -35.303578 -39.380806  1.675
14519 1  -35.316591 -37.960866  1.675
14520 1  -34.093393 -37.239626  1.675
14521 1  -36.526776 -40.102046  1.675
14522 1  -37.762987 -39.403345  1.675
14523 1  -37.776000 -37.983405  1.675
14524 1  -36.552802 -37.262165  1.675
14525 1  -38.986185 -40.124584  1.675
14526 1  -40.222396 -39.425884  1.675
14527 1  -40.235409 -38.005943  1.675
14528 1  -39.012211 -37.284704  1.675
14529 1  -41.445594 -40.147123  1.675
14530 1  -42.681805 -39.448422  1.675
14531 1  -42.694818 -38.028482  1.675
14532 1  -41.471619 -37.307242  1.675
14533 1  -43.905003 -40.169662  1.675
14534 1  -45.141214 -39.470961  1.675
14535 1  -45.154226 -38.051021  1.675
14536 1  -43.931028 -37.329781  1.675
14537 1  -46.364412 -40.192201  1.675
14538 1  -47.600623 -39.493500  1.675
14539 1  -47.613635 -38.073560  1.675
14540 1  -46.390437 -37.352320  1.675
14541 1  -48.823821 -40.214739  1.675
14542 1  -50.060031 -39.516039  1.675
14543 1  -50.073044 -38.096098  1.675
14544 1  -48.849846 -37.374859  1.675
14545 1  -51.283229 -40.237278  1.675
14546 1  -52.519440 -39.538577  1.675
14547 1  -52.532453 -38.118637  1.675
14548 1  -51.309255 -37.397397  1.675
14549 1  -53.742638 -40.259817  1.675
14550 1  -54.978849 -39.561116  1.675
14551 1  -54.991862 -38.141176  1.675
14552 1  -53.768664 -37.419936  1.675
14553 1  -56.202047 -40.282356  1.675
14554 1  -57.438258 -39.583655  1.675
14555 1  -57.451271 -38.163714  1.675
14556 1  -56.228073 -37.442475  1.675
14557 1  -58.661456 -40.304894  1.675
14558 1  -59.897667 -39.606194  1.675
14559 1  -59.910680 -38.186253  1.675
14560 1  -58.687482 -37.465014  1.675
14561 1  -61.120865 -40.327433  1.675
14562 1  -62.357076 -39.628732  1.675
14563 1  -62.370089 -38.208792  1.675
14564 1  -61.146890 -37.487552  1.675
14565 1  -63.580274 -40.349972  1.675
14566 1  -64.816485 -39.651271  1.675
14567 1  -64.829497 -38.231331  1.675
14568 1  -63.606299 -37.510091  1.675
14569 1  -66.039683 -40.372511  1.675
14570 1  -67.275894 -39.673810  1.675
14571 1  -67.288906 -38.253869  1.675
14572 1  -66.065708 -37.532630  1.675
14573 1  -68.499092 -40.395049  1.675
14574 1  -69.735302 -39.696349  1.675
14575 1  -69.748315 -38.276408  1.675
14576 1  -68.525117 -37.555169  1.675
14577 1  -70.958500 -40.417588  1.675
14578 1  -72.194711 -39.718887  1.675
14579 1  -72.207724 -38.298947  1.675
14580 1  -70.984526 -37.577707  1.675
14581 1  -73.417909 -40.440127  1.675
14582 1  -74.654120 -39.741426  1.675
14583 1  -74.667133 -38.321486  1.675
14584 1  -73.443935 -37.600246  1.675
14585 1  -75.877318 -40.462666  1.675
14586 1  -77.113529 -39.763965  1.675
14587 1  -77.126542 -38.344024  1.675
14588 1  -75.903344 -37.622785  1.675
14589 1  -78.336727 -40.485204  1.675
14590 1  -79.572938 -39.786503  1.675
14591 1  -79.585951 -38.366563  1.675
14592 1  -78.362753 -37.645324  1.675
14593 1  -80.796136 -40.507743  1.675
14594 1  -82.032347 -39.809042  1.675
14595 1  -82.045359 -38.389102  1.675
14596 1  -80.822161 -37.667862  1.675
14597 1  -83.255545 -40.530282  1.675
14598 1  -84.491756 -39.831581  1.675
14599 1  -84.504768 -38.411641  1.675
14600 1  -83.281570 -37.690401  1.675
14601 1  -85.714954 -40.552820  1.675
14602 1  -86.951164 -39.854120  1.675
14603 1  -86.964177 -38.434179  1.675
14604 1  -85.740979 -37.712940  1.675
14605 1  -88.174363 -40.575359  1.675
14606 1  -89.410573 -39.876658  1.675
14607 1  -89.423586 -38.456718  1.675
14608 1  -88.200388 -37.735478  1.675
14609 1  -90.633771 -40.597898  1.675
14610 1  -91.869982 -39.899197  1.675
14611 1  -91.882995 -38.479257  1.675
14612 1  -90.659797 -37.758017  1.675
14613 1  -93.093180 -40.620437  1.675
14614 1  -94.329391 -39.921736  1.675
14615 1  -94.342404 -38.501795  1.675
14616 1  -93.119206 -37.780556  1.675
14617 1  -95.552589 -40.642975  1.675
14618 1  -96.788800 -39.944275  1.675
14619 1  -96.801813 -38.524334  1.675
14620 1  -95.578615 -37.803095  1.675
14621 1  -98.011998 -40.665514  1.675
14622 1  -99.248209 -39.966813  1.675
14623 1  -99.261222 -38.546873  1.675
14624 1  -98.038024 -37.825633  1.675
14625 1 -100.471407 -40.688053  1.675
14626 1 -101.707618 -39.989352  1.675
14627 1 -101.720630 -38.569412  1.675
14628 1 -100.497432 -37.848172  1.675
14629 1 -102.930816 -40.710592  1.675
14630 1 -104.167027 -40.011891  1.675
14631 1 -104.180039 -38.591950  1.675
14632 1 -102.956841 -37.870711  1.675
14633 1 -105.390225 -40.733130  1.675
14634 1 -106.626435 -40.034430  1.675
14635 1 -106.639448 -38.614489  1.675
14636 1 -105.416250 -37.893250  1.675
14637 1 -107.849634 -40.755669  1.675
14638 1 -109.085844 -40.056968  1.675
14639 1 -109.098857 -38.637028  1.675
14640 1 -107.875659 -37.915788  1.675
14641 1 -110.309042 -40.778208  1.675
14642 1 -111.545253 -40.079507  1.675
14643 1 -111.558266 -38.659567  1.675
14644 1 -110.335068 -37.938327  1.675
14645 1 -112.768451 -40.800747  1.675
14646 1 -114.004662 -40.102046  1.675
14647 1 -114.017675 -38.682105  1.675
14648 1 -112.794477 -37.960866  1.675
14649 1 -115.227860 -40.823285  1.675
14650 1 -115.253886 -37.983405  1.675
14651 1  115.917536 -34.444823  1.675
14652 1  114.681325 -33.746122  1.675
14653 1  114.668312 -32.326182  1.675
14654 1  115.891510 -31.604942  1.675
14655 1  113.458127 -34.467362  1.675
14656 1  112.221916 -33.768661  1.675
14657 1  112.208903 -32.348721  1.675
14658 1  113.432101 -31.627481  1.675
14659 1  110.998718 -34.489900  1.675
14660 1  109.762507 -33.791200  1.675
14661 1  109.749494 -32.371259  1.675
14662 1  110.972692 -31.650020  1.675
14663 1  108.539309 -34.512439  1.675
14664 1  107.303098 -33.813738  1.675
14665 1  107.290085 -32.393798  1.675
14666 1  108.513284 -31.672558  1.675
14667 1  106.079900 -34.534978  1.675
14668 1  104.843689 -33.836277  1.675
14669 1  104.830677 -32.416337  1.675
14670 1  106.053875 -31.695097  1.675
14671 1  103.620491 -34.557517  1.675
14672 1  102.384280 -33.858816  1.675
14673 1  102.371268 -32.438875  1.675
14674 1  103.594466 -31.717636  1.675
14675 1  101.161082 -34.580055  1.675
14676 1   99.924872 -33.881355  1.675
14677 1   99.911859 -32.461414  1.675
14678 1  101.135057 -31.740175  1.675
14679 1   98.701674 -34.602594  1.675
14680 1   97.465463 -33.903893  1.675
14681 1   97.452450 -32.483953  1.675
14682 1   98.675648 -31.762713  1.675
14683 1   96.242265 -34.625133  1.675
14684 1   95.006054 -33.926432  1.675
14685 1   94.993041 -32.506492  1.675
14686 1   96.216239 -31.785252  1.675
14687 1   93.782856 -34.647672  1.675
14688 1   92.546645 -33.948971  1.675
14689 1   92.533632 -32.529030  1.675
14690 1   93.756830 -31.807791  1.675
14691 1   91.323447 -34.670210  1.675
14692 1   90.087236 -33.971510  1.675
14693 1   90.074223 -32.551569  1.675
14694 1   91.297421 -31.830330  1.675
14695 1   88.864038 -34.692749  1.675
14696 1   87.627827 -33.994048  1.675
14697 1   87.614815 -32.574108  1.675
14698 1   88.838013 -31.852868  1.675
14699 1   86.404629 -34.715288  1.675
14700 1   85.168418 -34.016587  1.675
14701 1   85.155406 -32.596647  1.675
14702 1   86.378604 -31.875407  1.675
14703 1   83.945220 -34.737827  1.675
14704 1   82.709010 -34.039126  1.675
14705 1   82.695997 -32.619185  1.675
14706 1   83.919195 -31.897946  1.675
14707 1   81.485811 -34.760365  1.675
14708 1   80.249601 -34.061664  1.675
14709 1   80.236588 -32.641724  1.675
14710 1   81.459786 -31.920485  1.675
14711 1   79.026403 -34.782904  1.675
14712 1   77.790192 -34.084203  1.675
14713 1   77.777179 -32.664263  1.675
14714 1   79.000377 -31.943023  1.675
14715 1   76.566994 -34.805443  1.675
14716 1   75.330783 -34.106742  1.675
14717 1   75.317770 -32.686802  1.675
14718 1   76.540968 -31.965562  1.675
14719 1   74.107585 -34.827982  1.675
14720 1   72.871374 -34.129281  1.675
14721 1   72.858361 -32.709340  1.675
14722 1   74.081559 -31.988101  1.675
14723 1   71.648176 -34.850520  1.675
14724 1   70.411965 -34.151819  1.675
14725 1   70.398952 -32.731879  1.675
14726 1   71.622150 -32.010639  1.675
14727 1   69.188767 -34.873059  1.675
14728 1   67.952556 -34.174358  1.675
14729 1   67.939544 -32.754418  1.675
14730 1   69.162742 -32.033178  1.675
14731 1   66.729358 -34.895598  1.675
14732 1   65.493147 -34.196897  1.675
14733 1   65.480135 -32.776957  1.675
14734 1   66.703333 -32.055717  1.675
14735 1   64.269949 -34.918136  1.675
14736 1   63.033739 -34.219436  1.675
14737 1   63.020726 -32.799495  1.675
14738 1   64.243924 -32.078256  1.675
14739 1   61.810540 -34.940675  1.675
14740 1   60.574330 -34.241974  1.675
14741 1   60.561317 -32.822034  1.675
14742 1   61.784515 -32.100794  1.675
14743 1   59.351132 -34.963214  1.675
14744 1   58.114921 -34.264513  1.675
14745 1   58.101908 -32.844573  1.675
14746 1   59.325106 -32.123333  1.675
14747 1   56.891723 -34.985753  1.675
14748 1   55.655512 -34.287052  1.675
14749 1   55.642499 -32.867111  1.675
14750 1   56.865697 -32.145872  1.675
14751 1   54.432314 -35.008291  1.675
14752 1   53.196103 -34.309591  1.675
14753 1   53.183090 -32.889650  1.675
14754 1   54.406288 -32.168411  1.675
14755 1   51.972905 -35.030830  1.675
14756 1   50.736694 -34.332129  1.675
14757 1   50.723681 -32.912189  1.675
14758 1   51.946879 -32.190949  1.675
14759 1   49.513496 -35.053369  1.675
14760 1   48.277285 -34.354668  1.675
14761 1   48.264273 -32.934728  1.675
14762 1   49.487471 -32.213488  1.675
14763 1   47.054087 -35.075908  1.675
14764 1   45.817876 -34.377207  1.675
14765 1   45.804864 -32.957266  1.675
14766 1   47.028062 -32.236027  1.675
14767 1   44.594678 -35.098446  1.675
14768 1   43.358468 -34.399746  1.675
14769 1   43.345455 -32.979805  1.675
14770 1   44.568653 -32.258566  1.675
14771 1   42.135269 -35.120985  1.675
14772 1   40.899059 -34.422284  1.675
14773 1   40.886046 -33.002344  1.675
14774 1   42.109244 -32.281104  1.675
14775 1   39.675861 -35.143524  1.675
14776 1   38.439650 -34.444823  1.675
14777 1   38.426637 -33.024883  1.675
14778 1   39.649835 -32.303643  1.675
14779 1   37.216452 -35.166063  1.675
14780 1   35.980241 -34.467362  1.675
14781 1   35.967228 -33.047421  1.675
14782 1   37.190426 -32.326182  1.675
14783 1   34.757043 -35.188601  1.675
14784 1   33.520832 -34.489900  1.675
14785 1   33.507819 -33.069960  1.675
14786 1   34.731017 -32.348721  1.675
14787 1   32.297634 -35.211140  1.675
14788 1   31.061423 -34.512439  1.675
14789 1   31.048410 -33.092499  1.675
14790 1   32.271608 -32.371259  1.675
14791 1   29.838225 -35.233679  1.675
14792 1   28.602014 -34.534978  1.675
14793 1   28.589002 -33.115038  1.675
14794 1   29.812200 -32.393798  1.675
14795 1   27.378816 -35.256217  1.675
14796 1   26.142605 -34.557517  1.675
14797 1   26.129593 -33.137576  1.675
14798 1   27.352791 -32.416337  1.675
14799 1   24.919407 -35.278756  1.675
14800 1   23.683197 -34.580055  1.675
14801 1   23.670184 -33.160115  1.675
14802 1   24.893382 -32.438875  1.675
14803 1   22.459998 -35.301295  1.675
14804 1   21.223788 -34.602594  1.675
14805 1   21.210775 -33.182654  1.675
14806 1   22.433973 -32.461414  1.675
14807 1   20.000590 -35.323834  1.675
14808 1   18.764379 -34.625133  1.675
14809 1   18.751366 -33.205193  1.675
14810 1   19.974564 -32.483953  1.675
14811 1   17.541181 -35.346372  1.675
14812 1   16.304970 -34.647672  1.675
14813 1   16.291957 -33.227731  1.675
14814 1   17.515155 -32.506492  1.675
14815 1   15.081772 -35.368911  1.675
14816 1   13.845561 -34.670210  1.675
14817 1   13.832548 -33.250270  1.675
14818 1   15.055746 -32.529030  1.675
14819 1   12.622363 -35.391450  1.675
14820 1   11.386152 -34.692749  1.675
14821 1   11.373139 -33.272809  1.675
14822 1   12.596338 -32.551569  1.675
14823 1   10.162954 -35.413989  1.675
14824 1    8.926743 -34.715288  1.675
14825 1    8.913731 -33.295347  1.675
14826 1   10.136929 -32.574108  1.675
14827 1    7.703545 -35.436527  1.675
14828 1    6.467334 -34.737827  1.675
14829 1    6.454322 -33.317886  1.675
14830 1    7.677520 -32.596647  1.675
14831 1    5.244136 -35.459066  1.675
14832 1    4.007926 -34.760365  1.675
14833 1    3.994913 -33.340425  1.675
14834 1    5.218111 -32.619185  1.675
14835 1    2.784728 -35.481605  1.675
14836 1    1.548517 -34.782904  1.675
14837 1    1.535504 -33.362964  1.675
14838 1    2.758702 -32.641724  1.675
14839 1    0.325319 -35.504144  1.675
14840 1   -0.910892 -34.805443  1.675
14841 1   -0.923905 -33.385502  1.675
14842 1    0.299293 -32.664263  1.675
14843 1   -2.134090 -35.526682  1.675
14844 1   -3.370301 -34.827982  1.675
14845 1   -3.383314 -33.408041  1.675
14846 1   -2.160116 -32.686802  1.675
14847 1   -4.593499 -35.549221  1.675
14848 1   -5.829710 -34.850520  1.675
14849 1   -5.842723 -33.430580  1.675
14850 1   -4.619525 -32.709340  1.675
14851 1   -7.052908 -35.571760  1.675
14852 1   -8.289119 -34.873059  1.675
14853 1   -8.302132 -33.453119  1.675
14854 1   -7.078933 -32.731879  1.675
14855 1   -9.512317 -35.594299  1.675
14856 1  -10.748528 -34.895598  1.675
14857 1  -10.761540 -33.475657  1.675
14858 1   -9.538342 -32.754418  1.675
14859 1  -11.971726 -35.616837  1.675
14860 1  -13.207937 -34.918136  1.675
14861 1  -13.220949 -33.498196  1.675
14862 1  -11.997751 -32.776957  1.675
14863 1  -14.431135 -35.639376  1.675
14864 1  -15.667345 -34.940675  1.675
14865 1  -15.680358 -33.520735  1.675
14866 1  -14.457160 -32.799495  1.675
14867 1  -16.890543 -35.661915  1.675
14868 1  -18.126754 -34.963214  1.675
14869 1  -18.139767 -33.543274  1.675
14870 1  -16.916569 -32.822034  1.675
14871 1  -19.349952 -35.684453  1.675
14872 1  -20.586163 -34.985753  1.675
14873 1  -20.599176 -33.565812  1.675
14874 1  -19.375978 -32.844573  1.675
14875 1  -21.809361 -35.706992  1.675
14876 1  -23.045572 -35.008291  1.675
14877 1  -23.058585 -33.588351  1.675
14878 1  -21.835387 -32.867111  1.675
14879 1  -24.268770 -35.729531  1.675
14880 1  -25.504981 -35.030830  1.675
14881 1  -25.517994 -33.610890  1.675
14882 1  -24.294796 -32.889650  1.675
14883 1  -26.728179 -35.752070  1.675
14884 1  -27.964390 -35.053369  1.675
14885 1  -27.977403 -33.633428  1.675
14886 1  -26.754204 -32.912189  1.675
14887 1  -29.187588 -35.774608  1.675
14888 1  -30.423799 -35.075908  1.675
14889 1  -30.436811 -33.655967  1.675
14890 1  -29.213613 -32.934728  1.675
14891 1  -31.646997 -35.797147  1.675
14892 1  -32.883208 -35.098446  1.675
14893 1  -32.896220 -33.678506  1.675
14894 1  -31.673022 -32.957266  1.675
14895 1  -34.106406 -35.819686  1.675
14896 1  -35.342616 -35.120985  1.675
14897 1  -35.355629 -33.701045  1.675
14898 1  -34.132431 -32.979805  1.675
14899 1  -36.565814 -35.842225  1.675
14900 1  -37.802025 -35.143524  1.675
14901 1  -37.815038 -33.723583  1.675
14902 1  -36.591840 -33.002344  1.675
14903 1  -39.025223 -35.864763  1.675
14904 1  -40.261434 -35.166063  1.675
14905 1  -40.274447 -33.746122  1.675
14906 1  -39.051249 -33.024883  1.675
14907 1  -41.484632 -35.887302  1.675
14908 1  -42.720843 -35.188601  1.675
14909 1  -42.733856 -33.768661  1.675
14910 1  -41.510658 -33.047421  1.675
14911 1  -43.944041 -35.909841  1.675
14912 1  -45.180252 -35.211140  1.675
14913 1  -45.193265 -33.791200  1.675
14914 1  -43.970067 -33.069960  1.675
14915 1  -46.403450 -35.932380  1.675
14916 1  -47.639661 -35.233679  1.675
14917 1  -47.652674 -33.813738  1.675
14918 1  -46.429475 -33.092499  1.675
14919 1  -48.862859 -35.954918  1.675
14920 1  -50.099070 -35.256217  1.675
14921 1  -50.112082 -33.836277  1.675
14922 1  -48.888884 -33.115038  1.675
14923 1  -51.322268 -35.977457  1.675
14924 1  -52.558479 -35.278756  1.675
14925 1  -52.571491 -33.858816  1.675
14926 1  -51.348293 -33.137576  1.675
14927 1  -53.781677 -35.999996  1.675
14928 1  -55.017887 -35.301295  1.675
14929 1  -55.030900 -33.881355  1.675
14930 1  -53.807702 -33.160115  1.675
14931 1  -56.241085 -36.022535  1.675
14932 1  -57.477296 -35.323834  1.675
14933 1  -57.490309 -33.903893  1.675
14934 1  -56.267111 -33.182654  1.675
14935 1  -58.700494 -36.045073  1.675
14936 1  -59.936705 -35.346372  1.675
14937 1  -59.949718 -33.926432  1.675
14938 1  -58.726520 -33.205193  1.675
14939 1  -61.159903 -36.067612  1.675
14940 1  -62.396114 -35.368911  1.675
14941 1  -62.409127 -33.948971  1.675
14942 1  -61.185929 -33.227731  1.675
14943 1  -63.619312 -36.090151  1.675
14944 1  -64.855523 -35.391450  1.675
14945 1  -64.868536 -33.971510  1.675
14946 1  -63.645338 -33.250270  1.675
14947 1  -66.078721 -36.112689  1.675
14948 1  -67.314932 -35.413989  1.675
14949 1  -67.327944 -33.994048  1.675
14950 1  -66.104746 -33.272809  1.675
14951 1  -68.538130 -36.135228  1.675
14952 1  -69.774341 -35.436527  1.675
14953 1  -69.787353 -34.016587  1.675
14954 1  -68.564155 -33.295347  1.675
14955 1  -70.997539 -36.157767  1.675
14956 1  -72.233749 -35.459066  1.675
14957 1  -72.246762 -34.039126  1.675
14958 1  -71.023564 -33.317886  1.675
14959 1  -73.456948 -36.180306  1.675
14960 1  -74.693158 -35.481605  1.675
14961 1  -74.706171 -34.061664  1.675
14962 1  -73.482973 -33.340425  1.675
14963 1  -75.916356 -36.202844  1.675
14964 1  -77.152567 -35.504144  1.675
14965 1  -77.165580 -34.084203  1.675
14966 1  -75.942382 -33.362964  1.675
14967 1  -78.375765 -36.225383  1.675
14968 1  -79.611976 -35.526682  1.675
14969 1  -79.624989 -34.106742  1.675
14970 1  -78.401791 -33.385502  1.675
14971 1  -80.835174 -36.247922  1.675
14972 1  -82.071385 -35.549221  1.675
14973 1  -82.084398 -34.129281  1.675
14974 1  -80.861200 -33.408041  1.675
14975 1  -83.294583 -36.270461  1.675
14976 1  -84.530794 -35.571760  1.675
14977 1  -84.543807 -34.151819  1.675
14978 1  -83.320609 -33.430580  1.675
14979 1  -85.753992 -36.292999  1.675
14980 1  -86.990203 -35.594299  1.675
14981 1  -87.003215 -34.174358  1.675
14982 1  -85.780017 -33.453119  1.675
14983 1  -88.213401 -36.315538  1.675
14984 1  -89.449612 -35.616837  1.675
14985 1  -89.462624 -34.196897  1.675
14986 1  -88.239426 -33.475657  1.675
14987 1  -90.672810 -36.338077  1.675
14988 1  -91.909020 -35.639376  1.675
14989 1  -91.922033 -34.219436  1.675
14990 1  -90.698835 -33.498196  1.675
14991 1  -93.132219 -36.360616  1.675
14992 1  -94.368429 -35.661915  1.675
14993 1  -94.381442 -34.241974  1.675
14994 1  -93.158244 -33.520735  1.675
14995 1  -95.591627 -36.383154  1.675
14996 1  -96.827838 -35.684453  1.675
14997 1  -96.840851 -34.264513  1.675
14998 1  -95.617653 -33.543274  1.675
14999 1  -98.051036 -36.405693  1.675
15000 1  -99.287247 -35.706992  1.675
15001 1  -99.300260 -34.287052  1.675
15002 1  -98.077062 -33.565812  1.675
15003 1 -100.510445 -36.428232  1.675
15004 1 -101.746656 -35.729531  1.675
15005 1 -101.759669 -34.309591  1.675
15006 1 -100.536471 -33.588351  1.675
15007 1 -102.969854 -36.450771  1.675
15008 1 -104.206065 -35.752070  1.675
15009 1 -104.219078 -34.332129  1.675
15010 1 -102.995880 -33.610890  1.675
15011 1 -105.429263 -36.473309  1.675
15012 1 -106.665474 -35.774608  1.675
15013 1 -106.678486 -34.354668  1.675
15014 1 -105.455288 -33.633428  1.675
15015 1 -107.888672 -36.495848  1.675
15016 1 -109.124883 -35.797147  1.675
15017 1 -109.137895 -34.377207  1.675
15018 1 -107.914697 -33.655967  1.675
15019 1 -110.348081 -36.518387  1.675
15020 1 -111.584291 -35.819686  1.675
15021 1 -111.597304 -34.399746  1.675
15022 1 -110.374106 -33.678506  1.675
15023 1 -112.807490 -36.540925  1.675
15024 1 -114.043700 -35.842225  1.675
15025 1 -114.056713 -34.422284  1.675
15026 1 -112.833515 -33.701045  1.675
15027 1 -115.266898 -36.563464  1.675
15028 1 -115.292924 -33.723583  1.675
15029 1  115.878497 -30.185002  1.675
15030 1  114.642287 -29.486301  1.675
15031 1  114.629274 -28.066361  1.675
15032 1  115.852472 -27.345121  1.675
15033 1  113.419089 -30.207541  1.675
15034 1  112.182878 -29.508840  1.675
15035 1  112.169865 -28.088899  1.675
15036 1  113.393063 -27.367660  1.675
15037 1  110.959680 -30.230079  1.675
15038 1  109.723469 -29.531379  1.675
15039 1  109.710456 -28.111438  1.675
15040 1  110.933654 -27.390199  1.675
15041 1  108.500271 -30.252618  1.675
15042 1  107.264060 -29.553917  1.675
15043 1  107.251047 -28.133977  1.675
15044 1  108.474245 -27.412737  1.675
15045 1  106.040862 -30.275157  1.675
15046 1  104.804651 -29.576456  1.675
15047 1  104.791638 -28.156516  1.675
15048 1  106.014836 -27.435276  1.675
15049 1  103.581453 -30.297696  1.675
15050 1  102.345242 -29.598995  1.675
15051 1  102.332230 -28.179054  1.675
15052 1  103.555428 -27.457815  1.675
15053 1  101.122044 -30.320234  1.675
15054 1   99.885833 -29.621533  1.675
15055 1   99.872821 -28.201593  1.675
15056 1  101.096019 -27.480354  1.675
15057 1   98.662635 -30.342773  1.675
15058 1   97.426425 -29.644072  1.675
15059 1   97.413412 -28.224132  1.675
15060 1   98.636610 -27.502892  1.675
15061 1   96.203226 -30.365312  1.675
15062 1   94.967016 -29.666611  1.675
15063 1   94.954003 -28.246671  1.675
15064 1   96.177201 -27.525431  1.675
15065 1   93.743818 -30.387850  1.675
15066 1   92.507607 -29.689150  1.675
15067 1   92.494594 -28.269209  1.675
15068 1   93.717792 -27.547970  1.675
15069 1   91.284409 -30.410389  1.675
15070 1   90.048198 -29.711688  1.675
15071 1   90.035185 -28.291748  1.675
15072 1   91.258383 -27.570508  1.675
15073 1   88.825000 -30.432928  1.675
15074 1   87.588789 -29.734227  1.675
15075 1   87.575776 -28.314287  1.675
15076 1   88.798974 -27.593047  1.675
15077 1   86.365591 -30.455467  1.675
15078 1   85.129380 -29.756766  1.675
15079 1   85.116367 -28.336826  1.675
15080 1   86.339565 -27.615586  1.675
15081 1   83.906182 -30.478005  1.675
15082 1   82.669971 -29.779305  1.675
15083 1   82.656959 -28.359364  1.675
15084 1   83.880157 -27.638125  1.675
15085 1   81.446773 -30.500544  1.675
15086 1   80.210562 -29.801843  1.675
15087 1   80.197550 -28.381903  1.675
15088 1   81.420748 -27.660663  1.675
15089 1   78.987364 -30.523083  1.675
15090 1   77.751154 -29.824382  1.675
15091 1   77.738141 -28.404442  1.675
15092 1   78.961339 -27.683202  1.675
15093 1   76.527955 -30.545622  1.675
15094 1   75.291745 -29.846921  1.675
15095 1   75.278732 -28.426980  1.675
15096 1   76.501930 -27.705741  1.675
15097 1   74.068547 -30.568160  1.675
15098 1   72.832336 -29.869460  1.675
15099 1   72.819323 -28.449519  1.675
15100 1   74.042521 -27.728280  1.675
15101 1   71.609138 -30.590699  1.675
15102 1   70.372927 -29.891998  1.675
15103 1   70.359914 -28.472058  1.675
15104 1   71.583112 -27.750818  1.675
15105 1   69.149729 -30.613238  1.675
15106 1   67.913518 -29.914537  1.675
15107 1   67.900505 -28.494597  1.675
15108 1   69.123703 -27.773357  1.675
15109 1   66.690320 -30.635777  1.675
15110 1   65.454109 -29.937076  1.675
15111 1   65.441096 -28.517135  1.675
15112 1   66.664294 -27.795896  1.675
15113 1   64.230911 -30.658315  1.675
15114 1   62.994700 -29.959615  1.675
15115 1   62.981688 -28.539674  1.675
15116 1   64.204886 -27.818435  1.675
15117 1   61.771502 -30.680854  1.675
15118 1   60.535291 -29.982153  1.675
15119 1   60.522279 -28.562213  1.675
15120 1   61.745477 -27.840973  1.675
15121 1   59.312093 -30.703393  1.675
15122 1   58.075883 -30.004692  1.675
15123 1   58.062870 -28.584752  1.675
15124 1   59.286068 -27.863512  1.675
15125 1   56.852684 -30.725932  1.675
15126 1   55.616474 -30.027231  1.675
15127 1   55.603461 -28.607290  1.675
15128 1   56.826659 -27.886051  1.675
15129 1   54.393276 -30.748470  1.675
15130 1   53.157065 -30.049769  1.675
15131 1   53.144052 -28.629829  1.675
15132 1   54.367250 -27.908590  1.675
15133 1   51.933867 -30.771009  1.675
15134 1   50.697656 -30.072308  1.675
15135 1   50.684643 -28.652368  1.675
15136 1   51.907841 -27.931128  1.675
15137 1   49.474458 -30.793548  1.675
15138 1   48.238247 -30.094847  1.675
15139 1   48.225234 -28.674907  1.675
15140 1   49.448432 -27.953667  1.675
15141 1   47.015049 -30.816086  1.675
15142 1   45.778838 -30.117386  1.675
15143 1   45.765825 -28.697445  1.675
15144 1   46.989023 -27.976206  1.675
15145 1   44.555640 -30.838625  1.675
15146 1   43.319429 -30.139924  1.675
15147 1   43.306417 -28.719984  1.675
15148 1   44.529615 -27.998744  1.675
15149 1   42.096231 -30.861164  1.675
15150 1   40.860020 -30.162463  1.675
15151 1   40.847008 -28.742523  1.675
15152 1   42.070206 -28.021283  1.675
15153 1   39.636822 -30.883703  1.675
15154 1   38.400612 -30.185002  1.675
15155 1   38.387599 -28.765061  1.675
15156 1   39.610797 -28.043822  1.675
15157 1   37.177413 -30.906241  1.675
15158 1   35.941203 -30.207541  1.675
15159 1   35.928190 -28.787600  1.675
15160 1   37.151388 -28.066361  1.675
15161 1   34.718005 -30.928780  1.675
15162 1   33.481794 -30.230079  1.675
15163 1   33.468781 -28.810139  1.675
15164 1   34.691979 -28.088899  1.675
15165 1   32.258596 -30.951319  1.675
15166 1   31.022385 -30.252618  1.675
15167 1   31.009372 -28.832678  1.675
15168 1   32.232570 -28.111438  1.675
15169 1   29.799187 -30.973858  1.675
15170 1   28.562976 -30.275157  1.675
15171 1   28.549963 -28.855216  1.675
15172 1   29.773161 -28.133977  1.675
15173 1   27.339778 -30.996396  1.675
15174 1   26.103567 -30.297696  1.675
15175 1   26.090554 -28.877755  1.675
15176 1   27.313753 -28.156516  1.675
15177 1   24.880369 -31.018935  1.675
15178 1   23.644158 -30.320234  1.675
15179 1   23.631146 -28.900294  1.675
15180 1   24.854344 -28.179054  1.675
15181 1   22.420960 -31.041474  1.675
15182 1   21.184749 -30.342773  1.675
15183 1   21.171737 -28.922833  1.675
15184 1   22.394935 -28.201593  1.675
15185 1   19.961551 -31.064013  1.675
15186 1   18.725341 -30.365312  1.675
15187 1   18.712328 -28.945371  1.675
15188 1   19.935526 -28.224132  1.675
15189 1   17.502143 -31.086551  1.675
15190 1   16.265932 -30.387850  1.675
15191 1   16.252919 -28.967910  1.675
15192 1   17.476117 -28.246671  1.675
15193 1   15.042734 -31.109090  1.675
15194 1   13.806523 -30.410389  1.675
15195 1   13.793510 -28.990449  1.675
15196 1   15.016708 -28.269209  1.675
15197 1   12.583325 -31.131629  1.675
15198 1   11.347114 -30.432928  1.675
15199 1   11.334101 -29.012988  1.675
15200 1   12.557299 -28.291748  1.675
15201 1   10.123916 -31.154168  1.675
15202 1    8.887705 -30.455467  1.675
15203 1    8.874692 -29.035526  1.675
15204 1   10.097890 -28.314287  1.675
15205 1    7.664507 -31.176706  1.675
15206 1    6.428296 -30.478005  1.675
15207 1    6.415283 -29.058065  1.675
15208 1    7.638482 -28.336826  1.675
15209 1    5.205098 -31.199245  1.675
15210 1    3.968887 -30.500544  1.675
15211 1    3.955875 -29.080604  1.675
15212 1    5.179073 -28.359364  1.675
15213 1    2.745689 -31.221784  1.675
15214 1    1.509478 -30.523083  1.675
15215 1    1.496466 -29.103143  1.675
15216 1    2.719664 -28.381903  1.675
15217 1    0.286280 -31.244322  1.675
15218 1   -0.949930 -30.545622  1.675
15219 1   -0.962943 -29.125681  1.675
15220 1    0.260255 -28.404442  1.675
15221 1   -2.173128 -31.266861  1.675
15222 1   -3.409339 -30.568160  1.675
15223 1   -3.422352 -29.148220  1.675
15224 1   -2.199154 -28.426980  1.675
15225 1   -4.632537 -31.289400  1.675
15226 1   -5.868748 -30.590699  1.675
15227 1   -5.881761 -29.170759  1.675
15228 1   -4.658563 -28.449519  1.675
15229 1   -7.091946 -31.311939  1.675
15230 1   -8.328157 -30.613238  1.675
15231 1   -8.341170 -29.193297  1.675
15232 1   -7.117972 -28.472058  1.675
15233 1   -9.551355 -31.334477  1.675
15234 1  -10.787566 -30.635777  1.675
15235 1  -10.800579 -29.215836  1.675
15236 1   -9.577381 -28.494597  1.675
15237 1  -12.010764 -31.357016  1.675
15238 1  -13.246975 -30.658315  1.675
15239 1  -13.259988 -29.238375  1.675
15240 1  -12.036789 -28.517135  1.675
15241 1  -14.470173 -31.379555  1.675
15242 1  -15.706384 -30.680854  1.675
15243 1  -15.719396 -29.260914  1.675
15244 1  -14.496198 -28.539674  1.675
15245 1  -16.929582 -31.402094  1.675
15246 1  -18.165793 -30.703393  1.675
15247 1  -18.178805 -29.283452  1.675
15248 1  -16.955607 -28.562213  1.675
15249 1  -19.388991 -31.424632  1.675
15250 1  -20.625201 -30.725932  1.675
15251 1  -20.638214 -29.305991  1.675
15252 1  -19.415016 -28.584752  1.675
15253 1  -21.848399 -31.447171  1.675
15254 1  -23.084610 -30.748470  1.675
15255 1  -23.097623 -29.328530  1.675
15256 1  -21.874425 -28.607290  1.675
15257 1  -24.307808 -31.469710  1.675
15258 1  -25.544019 -30.771009  1.675
15259 1  -25.557032 -29.351069  1.675
15260 1  -24.333834 -28.629829  1.675
15261 1  -26.767217 -31.492249  1.675
15262 1  -28.003428 -30.793548  1.675
15263 1  -28.016441 -29.373607  1.675
15264 1  -26.793243 -28.652368  1.675
15265 1  -29.226626 -31.514787  1.675
15266 1  -30.462837 -30.816086  1.675
15267 1  -30.475850 -29.396146  1.675
15268 1  -29.252652 -28.674907  1.675
15269 1  -31.686035 -31.537326  1.675
15270 1  -32.922246 -30.838625  1.675
15271 1  -32.935259 -29.418685  1.675
15272 1  -31.712060 -28.697445  1.675
15273 1  -34.145444 -31.559865  1.675
15274 1  -35.381655 -30.861164  1.675
15275 1  -35.394667 -29.441224  1.675
15276 1  -34.171469 -28.719984  1.675
15277 1  -36.604853 -31.582404  1.675
15278 1  -37.841064 -30.883703  1.675
15279 1  -37.854076 -29.463762  1.675
15280 1  -36.630878 -28.742523  1.675
15281 1  -39.064262 -31.604942  1.675
15282 1  -40.300472 -30.906241  1.675
15283 1  -40.313485 -29.486301  1.675
15284 1  -39.090287 -28.765061  1.675
15285 1  -41.523670 -31.627481  1.675
15286 1  -42.759881 -30.928780  1.675
15287 1  -42.772894 -29.508840  1.675
15288 1  -41.549696 -28.787600  1.675
15289 1  -43.983079 -31.650020  1.675
15290 1  -45.219290 -30.951319  1.675
15291 1  -45.232303 -29.531379  1.675
15292 1  -44.009105 -28.810139  1.675
15293 1  -46.442488 -31.672558  1.675
15294 1  -47.678699 -30.973858  1.675
15295 1  -47.691712 -29.553917  1.675
15296 1  -46.468514 -28.832678  1.675
15297 1  -48.901897 -31.695097  1.675
15298 1  -50.138108 -30.996396  1.675
15299 1  -50.151121 -29.576456  1.675
15300 1  -48.927923 -28.855216  1.675
15301 1  -51.361306 -31.717636  1.675
15302 1  -52.597517 -31.018935  1.675
15303 1  -52.610529 -29.598995  1.675
15304 1  -51.387331 -28.877755  1.675
15305 1  -53.820715 -31.740175  1.675
15306 1  -55.056926 -31.041474  1.675
15307 1  -55.069938 -29.621533  1.675
15308 1  -53.846740 -28.900294  1.675
15309 1  -56.280124 -31.762713  1.675
15310 1  -57.516334 -31.064013  1.675
15311 1  -57.529347 -29.644072  1.675
15312 1  -56.306149 -28.922833  1.675
15313 1  -58.739533 -31.785252  1.675
15314 1  -59.975743 -31.086551  1.675
15315 1  -59.988756 -29.666611  1.675
15316 1  -58.765558 -28.945371  1.675
15317 1  -61.198941 -31.807791  1.675
15318 1  -62.435152 -31.109090  1.675
15319 1  -62.448165 -29.689150  1.675
15320 1  -61.224967 -28.967910  1.675
15321 1  -63.658350 -31.830330  1.675
15322 1  -64.894561 -31.131629  1.675
15323 1  -64.907574 -29.711688  1.675
15324 1  -63.684376 -28.990449  1.675
15325 1  -66.117759 -31.852868  1.675
15326 1  -67.353970 -31.154168  1.675
15327 1  -67.366983 -29.734227  1.675
15328 1  -66.143785 -29.012988  1.675
15329 1  -68.577168 -31.875407  1.675
15330 1  -69.813379 -31.176706  1.675
15331 1  -69.826392 -29.756766  1.675
15332 1  -68.603194 -29.035526  1.675
15333 1  -71.036577 -31.897946  1.675
15334 1  -72.272788 -31.199245  1.675
15335 1  -72.285800 -29.779305  1.675
15336 1  -71.062602 -29.058065  1.675
15337 1  -73.495986 -31.920485  1.675
15338 1  -74.732197 -31.221784  1.675
15339 1  -74.745209 -29.801843  1.675
15340 1  -73.522011 -29.080604  1.675
15341 1  -75.955395 -31.943023  1.675
15342 1  -77.191605 -31.244322  1.675
15343 1  -77.204618 -29.824382  1.675
15344 1  -75.981420 -29.103143  1.675
15345 1  -78.414804 -31.965562  1.675
15346 1  -79.651014 -31.266861  1.675
15347 1  -79.664027 -29.846921  1.675
15348 1  -78.440829 -29.125681  1.675
15349 1  -80.874212 -31.988101  1.675
15350 1  -82.110423 -31.289400  1.675
15351 1  -82.123436 -29.869460  1.675
15352 1  -80.900238 -29.148220  1.675
15353 1  -83.333621 -32.010639  1.675
15354 1  -84.569832 -31.311939  1.675
15355 1  -84.582845 -29.891998  1.675
15356 1  -83.359647 -29.170759  1.675
15357 1  -85.793030 -32.033178  1.675
15358 1  -87.029241 -31.334477  1.675
15359 1  -87.042254 -29.914537  1.675
15360 1  -85.819056 -29.193297  1.675
15361 1  -88.252439 -32.055717  1.675
15362 1  -89.488650 -31.357016  1.675
15363 1  -89.501663 -29.937076  1.675
15364 1  -88.278465 -29.215836  1.675
15365 1  -90.711848 -32.078256  1.675
15366 1  -91.948059 -31.379555  1.675
15367 1  -91.961071 -29.959615  1.675
15368 1  -90.737873 -29.238375  1.675
15369 1  -93.171257 -32.100794  1.675
15370 1  -94.407468 -31.402094  1.675
15371 1  -94.420480 -29.982153  1.675
15372 1  -93.197282 -29.260914  1.675
15373 1  -95.630666 -32.123333  1.675
15374 1  -96.866876 -31.424632  1.675
15375 1  -96.879889 -30.004692  1.675
15376 1  -95.656691 -29.283452  1.675
15377 1  -98.090075 -32.145872  1.675
15378 1  -99.326285 -31.447171  1.675
15379 1  -99.339298 -30.027231  1.675
15380 1  -98.116100 -29.305991  1.675
15381 1 -100.549483 -32.168411  1.675
15382 1 -101.785694 -31.469710  1.675
15383 1 -101.798707 -30.049769  1.675
15384 1 -100.575509 -29.328530  1.675
15385 1 -103.008892 -32.190949  1.675
15386 1 -104.245103 -31.492249  1.675
15387 1 -104.258116 -30.072308  1.675
15388 1 -103.034918 -29.351069  1.675
15389 1 -105.468301 -32.213488  1.675
15390 1 -106.704512 -31.514787  1.675
15391 1 -106.717525 -30.094847  1.675
15392 1 -105.494327 -29.373607  1.675
15393 1 -107.927710 -32.236027  1.675
15394 1 -109.163921 -31.537326  1.675
15395 1 -109.176934 -30.117386  1.675
15396 1 -107.953736 -29.396146  1.675
15397 1 -110.387119 -32.258566  1.675
15398 1 -111.623330 -31.559865  1.675
15399 1 -111.636342 -30.139924  1.675
15400 1 -110.413144 -29.418685  1.675
15401 1 -112.846528 -32.281104  1.675
15402 1 -114.082739 -31.582404  1.675
15403 1 -114.095751 -30.162463  1.675
15404 1 -112.872553 -29.441224  1.675
15405 1 -115.305937 -32.303643  1.675
15406 1 -115.331962 -29.463762  1.675
15407 1  115.839459 -25.925181  1.675
15408 1  114.603248 -25.226480  1.675
15409 1  114.590236 -23.806540  1.675
15410 1  115.813434 -23.085300  1.675
15411 1  113.380050 -25.947719  1.675
15412 1  112.143840 -25.249019  1.675
15413 1  112.130827 -23.829078  1.675
15414 1  113.354025 -23.107839  1.675
15415 1  110.920641 -25.970258  1.675
15416 1  109.684431 -25.271557  1.675
15417 1  109.671418 -23.851617  1.675
15418 1  110.894616 -23.130377  1.675
15419 1  108.461233 -25.992797  1.675
15420 1  107.225022 -25.294096  1.675
15421 1  107.212009 -23.874156  1.675
15422 1  108.435207 -23.152916  1.675
15423 1  106.001824 -26.015336  1.675
15424 1  104.765613 -25.316635  1.675
15425 1  104.752600 -23.896694  1.675
15426 1  105.975798 -23.175455  1.675
15427 1  103.542415 -26.037874  1.675
15428 1  102.306204 -25.339174  1.675
15429 1  102.293191 -23.919233  1.675
15430 1  103.516389 -23.197994  1.675
15431 1  101.083006 -26.060413  1.675
15432 1   99.846795 -25.361712  1.675
15433 1   99.833782 -23.941772  1.675
15434 1  101.056980 -23.220532  1.675
15435 1   98.623597 -26.082952  1.675
15436 1   97.387386 -25.384251  1.675
15437 1   97.374374 -23.964311  1.675
15438 1   98.597572 -23.243071  1.675
15439 1   96.164188 -26.105491  1.675
15440 1   94.927977 -25.406790  1.675
15441 1   94.914965 -23.986849  1.675
15442 1   96.138163 -23.265610  1.675
15443 1   93.704779 -26.128029  1.675
15444 1   92.468569 -25.429329  1.675
15445 1   92.455556 -24.009388  1.675
15446 1   93.678754 -23.288149  1.675
15447 1   91.245370 -26.150568  1.675
15448 1   90.009160 -25.451867  1.675
15449 1   89.996147 -24.031927  1.675
15450 1   91.219345 -23.310687  1.675
15451 1   88.785962 -26.173107  1.675
15452 1   87.549751 -25.474406  1.675
15453 1   87.536738 -24.054466  1.675
15454 1   88.759936 -23.333226  1.675
15455 1   86.326553 -26.195646  1.675
15456 1   85.090342 -25.496945  1.675
15457 1   85.077329 -24.077004  1.675
15458 1   86.300527 -23.355765  1.675
15459 1   83.867144 -26.218184  1.675
15460 1   82.630933 -25.519483  1.675
15461 1   82.617920 -24.099543  1.675
15462 1   83.841118 -23.378304  1.675
15463 1   81.407735 -26.240723  1.675
15464 1   80.171524 -25.542022  1.675
15465 1   80.158511 -24.122082  1.675
15466 1   81.381709 -23.400842  1.675
15467 1   78.948326 -26.263262  1.675
15468 1   77.712115 -25.564561  1.675
15469 1   77.699103 -24.144621  1.675
15470 1   78.922301 -23.423381  1.675
15471 1   76.488917 -26.285801  1.675
15472 1   75.252706 -25.587100  1.675
15473 1   75.239694 -24.167159  1.675
15474 1   76.462892 -23.445920  1.675
15475 1   74.029508 -26.308339  1.675
15476 1   72.793298 -25.609638  1.675
15477 1   72.780285 -24.189698  1.675
15478 1   74.003483 -23.468459  1.675
15479 1   71.570099 -26.330878  1.675
15480 1   70.333889 -25.632177  1.675
15481 1   70.320876 -24.212237  1.675
15482 1   71.544074 -23.490997  1.675
15483 1   69.110691 -26.353417  1.675
15484 1   67.874480 -25.654716  1.675
15485 1   67.861467 -24.234776  1.675
15486 1   69.084665 -23.513536  1.675
15487 1   66.651282 -26.375955  1.675
15488 1   65.415071 -25.677255  1.675
15489 1   65.402058 -24.257314  1.675
15490 1   66.625256 -23.536075  1.675
15491 1   64.191873 -26.398494  1.675
15492 1   62.955662 -25.699793  1.675
15493 1   62.942649 -24.279853  1.675
15494 1   64.165847 -23.558613  1.675
15495 1   61.732464 -26.421033  1.675
15496 1   60.496253 -25.722332  1.675
15497 1   60.483240 -24.302392  1.675
15498 1   61.706439 -23.581152  1.675
15499 1   59.273055 -26.443572  1.675
15500 1   58.036844 -25.744871  1.675
15501 1   58.023832 -24.324930  1.675
15502 1   59.247030 -23.603691  1.675
15503 1   56.813646 -26.466110  1.675
15504 1   55.577435 -25.767410  1.675
15505 1   55.564423 -24.347469  1.675
15506 1   56.787621 -23.626230  1.675
15507 1   54.354237 -26.488649  1.675
15508 1   53.118027 -25.789948  1.675
15509 1   53.105014 -24.370008  1.675
15510 1   54.328212 -23.648768  1.675
15511 1   51.894828 -26.511188  1.675
15512 1   50.658618 -25.812487  1.675
15513 1   50.645605 -24.392547  1.675
15514 1   51.868803 -23.671307  1.675
15515 1   49.435420 -26.533727  1.675
15516 1   48.199209 -25.835026  1.675
15517 1   48.186196 -24.415085  1.675
15518 1   49.409394 -23.693846  1.675
15519 1   46.976011 -26.556265  1.675
15520 1   45.739800 -25.857565  1.675
15521 1   45.726787 -24.437624  1.675
15522 1   46.949985 -23.716385  1.675
15523 1   44.516602 -26.578804  1.675
15524 1   43.280391 -25.880103  1.675
15525 1   43.267378 -24.460163  1.675
15526 1   44.490576 -23.738923  1.675
15527 1   42.057193 -26.601343  1.675
15528 1   40.820982 -25.902642  1.675
15529 1   40.807969 -24.482702  1.675
15530 1   42.031168 -23.761462  1.675
15531 1   39.597784 -26.623882  1.675
15532 1   38.361573 -25.925181  1.675
15533 1   38.348561 -24.505240  1.675
15534 1   39.571759 -23.784001  1.675
15535 1   37.138375 -26.646420  1.675
15536 1   35.902164 -25.947719  1.675
15537 1   35.889152 -24.527779  1.675
15538 1   37.112350 -23.806540  1.675
15539 1   34.678966 -26.668959  1.675
15540 1   33.442756 -25.970258  1.675
15541 1   33.429743 -24.550318  1.675
15542 1   34.652941 -23.829078  1.675
15543 1   32.219558 -26.691498  1.675
15544 1   30.983347 -25.992797  1.675
15545 1   30.970334 -24.572857  1.675
15546 1   32.193532 -23.851617  1.675
15547 1   29.760149 -26.714037  1.675
15548 1   28.523938 -26.015336  1.675
15549 1   28.510925 -24.595395  1.675
15550 1   29.734123 -23.874156  1.675
15551 1   27.300740 -26.736575  1.675
15552 1   26.064529 -26.037874  1.675
15553 1   26.051516 -24.617934  1.675
15554 1   27.274714 -23.896694  1.675
15555 1   24.841331 -26.759114  1.675
15556 1   23.605120 -26.060413  1.675
15557 1   23.592107 -24.640473  1.675
15558 1   24.815305 -23.919233  1.675
15559 1   22.381922 -26.781653  1.675
15560 1   21.145711 -26.082952  1.675
15561 1   21.132698 -24.663012  1.675
15562 1   22.355897 -23.941772  1.675
15563 1   19.922513 -26.804191  1.675
15564 1   18.686302 -26.105491  1.675
15565 1   18.673290 -24.685550  1.675
15566 1   19.896488 -23.964311  1.675
15567 1   17.463104 -26.826730  1.675
15568 1   16.226893 -26.128029  1.675
15569 1   16.213881 -24.708089  1.675
15570 1   17.437079 -23.986849  1.675
15571 1   15.003695 -26.849269  1.675
15572 1   13.767485 -26.150568  1.675
15573 1   13.754472 -24.730628  1.675
15574 1   14.977670 -24.009388  1.675
15575 1   12.544287 -26.871808  1.675
15576 1   11.308076 -26.173107  1.675
15577 1   11.295063 -24.753166  1.675
15578 1   12.518261 -24.031927  1.675
15579 1   10.084878 -26.894346  1.675
15580 1    8.848667 -26.195646  1.675
15581 1    8.835654 -24.775705  1.675
15582 1   10.058852 -24.054466  1.675
15583 1    7.625469 -26.916885  1.675
15584 1    6.389258 -26.218184  1.675
15585 1    6.376245 -24.798244  1.675
15586 1    7.599443 -24.077004  1.675
15587 1    5.166060 -26.939424  1.675
15588 1    3.929849 -26.240723  1.675
15589 1    3.916836 -24.820783  1.675
15590 1    5.140034 -24.099543  1.675
15591 1    2.706651 -26.961963  1.675
15592 1    1.470440 -26.263262  1.675
15593 1    1.457427 -24.843321  1.675
15594 1    2.680626 -24.122082  1.675
15595 1    0.247242 -26.984501  1.675
15596 1   -0.988969 -26.285801  1.675
15597 1   -1.001981 -24.865860  1.675
15598 1    0.221217 -24.144621  1.675
15599 1   -2.212167 -27.007040  1.675
15600 1   -3.448378 -26.308339  1.675
15601 1   -3.461390 -24.888399  1.675
15602 1   -2.238192 -24.167159  1.675
15603 1   -4.671576 -27.029579  1.675
15604 1   -5.907786 -26.330878  1.675
15605 1   -5.920799 -24.910938  1.675
15606 1   -4.697601 -24.189698  1.675
15607 1   -7.130984 -27.052118  1.675
15608 1   -8.367195 -26.353417  1.675
15609 1   -8.380208 -24.933476  1.675
15610 1   -7.157010 -24.212237  1.675
15611 1   -9.590393 -27.074656  1.675
15612 1  -10.826604 -26.375955  1.675
15613 1  -10.839617 -24.956015  1.675
15614 1   -9.616419 -24.234776  1.675
15615 1  -12.049802 -27.097195  1.675
15616 1  -13.286013 -26.398494  1.675
15617 1  -13.299026 -24.978554  1.675
15618 1  -12.075828 -24.257314  1.675
15619 1  -14.509211 -27.119734  1.675
15620 1  -15.745422 -26.421033  1.675
15621 1  -15.758435 -25.001093  1.675
15622 1  -14.535237 -24.279853  1.675
15623 1  -16.968620 -27.142272  1.675
15624 1  -18.204831 -26.443572  1.675
15625 1  -18.217844 -25.023631  1.675
15626 1  -16.994645 -24.302392  1.675
15627 1  -19.428029 -27.164811  1.675
15628 1  -20.664240 -26.466110  1.675
15629 1  -20.677252 -25.046170  1.675
15630 1  -19.454054 -24.324930  1.675
15631 1  -21.887438 -27.187350  1.675
15632 1  -23.123649 -26.488649  1.675
15633 1  -23.136661 -25.068709  1.675
15634 1  -21.913463 -24.347469  1.675
15635 1  -24.346847 -27.209889  1.675
15636 1  -25.583057 -26.511188  1.675
15637 1  -25.596070 -25.091248  1.675
15638 1  -24.372872 -24.370008  1.675
15639 1  -26.806255 -27.232427  1.675
15640 1  -28.042466 -26.533727  1.675
15641 1  -28.055479 -25.113786  1.675
15642 1  -26.832281 -24.392547  1.675
15643 1  -29.265664 -27.254966  1.675
15644 1  -30.501875 -26.556265  1.675
15645 1  -30.514888 -25.136325  1.675
15646 1  -29.291690 -24.415085  1.675
15647 1  -31.725073 -27.277505  1.675
15648 1  -32.961284 -26.578804  1.675
15649 1  -32.974297 -25.158864  1.675
15650 1  -31.751099 -24.437624  1.675
15651 1  -34.184482 -27.300044  1.675
15652 1  -35.420693 -26.601343  1.675
15653 1  -35.433706 -25.181402  1.675
15654 1  -34.210508 -24.460163  1.675
15655 1  -36.643891 -27.322582  1.675
15656 1  -37.880102 -26.623882  1.675
15657 1  -37.893114 -25.203941  1.675
15658 1  -36.669916 -24.482702  1.675
15659 1  -39.103300 -27.345121  1.675
15660 1  -40.339511 -26.646420  1.675
15661 1  -40.352523 -25.226480  1.675
15662 1  -39.129325 -24.505240  1.675
15663 1  -41.562709 -27.367660  1.675
15664 1  -42.798919 -26.668959  1.675
15665 1  -42.811932 -25.249019  1.675
15666 1  -41.588734 -24.527779  1.675
15667 1  -44.022118 -27.390199  1.675
15668 1  -45.258328 -26.691498  1.675
15669 1  -45.271341 -25.271557  1.675
15670 1  -44.048143 -24.550318  1.675
15671 1  -46.481526 -27.412737  1.675
15672 1  -47.717737 -26.714037  1.675
15673 1  -47.730750 -25.294096  1.675
15674 1  -46.507552 -24.572857  1.675
15675 1  -48.940935 -27.435276  1.675
15676 1  -50.177146 -26.736575  1.675
15677 1  -50.190159 -25.316635  1.675
15678 1  -48.966961 -24.595395  1.675
15679 1  -51.400344 -27.457815  1.675
15680 1  -52.636555 -26.759114  1.675
15681 1  -52.649568 -25.339174  1.675
15682 1  -51.426370 -24.617934  1.675
15683 1  -53.859753 -27.480354  1.675
15684 1  -55.095964 -26.781653  1.675
15685 1  -55.108977 -25.361712  1.675
15686 1  -53.885779 -24.640473  1.675
15687 1  -56.319162 -27.502892  1.675
15688 1  -57.555373 -26.804191  1.675
15689 1  -57.568385 -25.384251  1.675
15690 1  -56.345187 -24.663012  1.675
15691 1  -58.778571 -27.525431  1.675
15692 1  -60.014782 -26.826730  1.675
15693 1  -60.027794 -25.406790  1.675
15694 1  -58.804596 -24.685550  1.675
15695 1  -61.237980 -27.547970  1.675
15696 1  -62.474190 -26.849269  1.675
15697 1  -62.487203 -25.429329  1.675
15698 1  -61.264005 -24.708089  1.675
15699 1  -63.697389 -27.570508  1.675
15700 1  -64.933599 -26.871808  1.675
15701 1  -64.946612 -25.451867  1.675
15702 1  -63.723414 -24.730628  1.675
15703 1  -66.156797 -27.593047  1.675
15704 1  -67.393008 -26.894346  1.675
15705 1  -67.406021 -25.474406  1.675
15706 1  -66.182823 -24.753166  1.675
15707 1  -68.616206 -27.615586  1.675
15708 1  -69.852417 -26.916885  1.675
15709 1  -69.865430 -25.496945  1.675
15710 1  -68.642232 -24.775705  1.675
15711 1  -71.075615 -27.638125  1.675
15712 1  -72.311826 -26.939424  1.675
15713 1  -72.324839 -25.519483  1.675
15714 1  -71.101641 -24.798244  1.675
15715 1  -73.535024 -27.660663  1.675
15716 1  -74.771235 -26.961963  1.675
15717 1  -74.784248 -25.542022  1.675
15718 1  -73.561050 -24.820783  1.675
15719 1  -75.994433 -27.683202  1.675
15720 1  -77.230644 -26.984501  1.675
15721 1  -77.243656 -25.564561  1.675
15722 1  -76.020458 -24.843321  1.675
15723 1  -78.453842 -27.705741  1.675
15724 1  -79.690053 -27.007040  1.675
15725 1  -79.703065 -25.587100  1.675
15726 1  -78.479867 -24.865860  1.675
15727 1  -80.913251 -27.728280  1.675
15728 1  -82.149461 -27.029579  1.675
15729 1  -82.162474 -25.609638  1.675
15730 1  -80.939276 -24.888399  1.675
15731 1  -83.372660 -27.750818  1.675
15732 1  -84.608870 -27.052118  1.675
15733 1  -84.621883 -25.632177  1.675
15734 1  -83.398685 -24.910938  1.675
15735 1  -85.832068 -27.773357  1.675
15736 1  -87.068279 -27.074656  1.675
15737 1  -87.081292 -25.654716  1.675
15738 1  -85.858094 -24.933476  1.675
15739 1  -88.291477 -27.795896  1.675
15740 1  -89.527688 -27.097195  1.675
15741 1  -89.540701 -25.677255  1.675
15742 1  -88.317503 -24.956015  1.675
15743 1  -90.750886 -27.818435  1.675
15744 1  -91.987097 -27.119734  1.675
15745 1  -92.000110 -25.699793  1.675
15746 1  -90.776912 -24.978554  1.675
15747 1  -93.210295 -27.840973  1.675
15748 1  -94.446506 -27.142272  1.675
15749 1  -94.459519 -25.722332  1.675
15750 1  -93.236321 -25.001093  1.675
15751 1  -95.669704 -27.863512  1.675
15752 1  -96.905915 -27.164811  1.675
15753 1  -96.918927 -25.744871  1.675
15754 1  -95.695729 -25.023631  1.675
15755 1  -98.129113 -27.886051  1.675
15756 1  -99.365324 -27.187350  1.675
15757 1  -99.378336 -25.767410  1.675
15758 1  -98.155138 -25.046170  1.675
15759 1 -100.588522 -27.908590  1.675
15760 1 -101.824732 -27.209889  1.675
15761 1 -101.837745 -25.789948  1.675
15762 1 -100.614547 -25.068709  1.675
15763 1 -103.047931 -27.931128  1.675
15764 1 -104.284141 -27.232427  1.675
15765 1 -104.297154 -25.812487  1.675
15766 1 -103.073956 -25.091248  1.675
15767 1 -105.507339 -27.953667  1.675
15768 1 -106.743550 -27.254966  1.675
15769 1 -106.756563 -25.835026  1.675
15770 1 -105.533365 -25.113786  1.675
15771 1 -107.966748 -27.976206  1.675
15772 1 -109.202959 -27.277505  1.675
15773 1 -109.215972 -25.857565  1.675
15774 1 -107.992774 -25.136325  1.675
15775 1 -110.426157 -27.998744  1.675
15776 1 -111.662368 -27.300044  1.675
15777 1 -111.675381 -25.880103  1.675
15778 1 -110.452183 -25.158864  1.675
15779 1 -112.885566 -28.021283  1.675
15780 1 -114.121777 -27.322582  1.675
15781 1 -114.134790 -25.902642  1.675
15782 1 -112.911591 -25.181402  1.675
15783 1 -115.344975 -28.043822  1.675
15784 1 -115.371000 -25.203941  1.675
15785 1  115.800421 -21.665360  1.675
15786 1  114.564210 -20.966659  1.675
15787 1  114.551197 -19.546718  1.675
15788 1  115.774395 -18.825479  1.675
15789 1  113.341012 -21.687898  1.675
15790 1  112.104801 -20.989198  1.675
15791 1  112.091789 -19.569257  1.675
15792 1  113.314987 -18.848018  1.675
15793 1  110.881603 -21.710437  1.675
15794 1  109.645392 -21.011736  1.675
15795 1  109.632380 -19.591796  1.675
15796 1  110.855578 -18.870556  1.675
15797 1  108.422194 -21.732976  1.675
15798 1  107.185984 -21.034275  1.675
15799 1  107.172971 -19.614335  1.675
15800 1  108.396169 -18.893095  1.675
15801 1  105.962785 -21.755515  1.675
15802 1  104.726575 -21.056814  1.675
15803 1  104.713562 -19.636873  1.675
15804 1  105.936760 -18.915634  1.675
15805 1  103.503377 -21.778053  1.675
15806 1  102.267166 -21.079352  1.675
15807 1  102.254153 -19.659412  1.675
15808 1  103.477351 -18.938173  1.675
15809 1  101.043968 -21.800592  1.675
15810 1   99.807757 -21.101891  1.675
15811 1   99.794744 -19.681951  1.675
15812 1  101.017942 -18.960711  1.675
15813 1   98.584559 -21.823131  1.675
15814 1   97.348348 -21.124430  1.675
15815 1   97.335335 -19.704490  1.675
15816 1   98.558533 -18.983250  1.675
15817 1   96.125150 -21.845670  1.675
15818 1   94.888939 -21.146969  1.675
15819 1   94.875926 -19.727028  1.675
15820 1   96.099124 -19.005789  1.675
15821 1   93.665741 -21.868208  1.675
15822 1   92.429530 -21.169507  1.675
15823 1   92.416518 -19.749567  1.675
15824 1   93.639716 -19.028327  1.675
15825 1   91.206332 -21.890747  1.675
15826 1   89.970121 -21.192046  1.675
15827 1   89.957109 -19.772106  1.675
15828 1   91.180307 -19.050866  1.675
15829 1   88.746923 -21.913286  1.675
15830 1   87.510713 -21.214585  1.675
15831 1   87.497700 -19.794645  1.675
15832 1   88.720898 -19.073405  1.675
15833 1   86.287514 -21.935824  1.675
15834 1   85.051304 -21.237124  1.675
15835 1   85.038291 -19.817183  1.675
15836 1   86.261489 -19.095944  1.675
15837 1   83.828106 -21.958363  1.675
15838 1   82.591895 -21.259662  1.675
15839 1   82.578882 -19.839722  1.675
15840 1   83.802080 -19.118482  1.675
15841 1   81.368697 -21.980902  1.675
15842 1   80.132486 -21.282201  1.675
15843 1   80.119473 -19.862261  1.675
15844 1   81.342671 -19.141021  1.675
15845 1   78.909288 -22.003441  1.675
15846 1   77.673077 -21.304740  1.675
15847 1   77.660064 -19.884799  1.675
15848 1   78.883262 -19.163560  1.675
15849 1   76.449879 -22.025979  1.675
15850 1   75.213668 -21.327279  1.675
15851 1   75.200655 -19.907338  1.675
15852 1   76.423854 -19.186099  1.675
15853 1   73.990470 -22.048518  1.675
15854 1   72.754259 -21.349817  1.675
15855 1   72.741247 -19.929877  1.675
15856 1   73.964445 -19.208637  1.675
15857 1   71.531061 -22.071057  1.675
15858 1   70.294850 -21.372356  1.675
15859 1   70.281838 -19.952416  1.675
15860 1   71.505036 -19.231176  1.675
15861 1   69.071652 -22.093596  1.675
15862 1   67.835442 -21.394895  1.675
15863 1   67.822429 -19.974954  1.675
15864 1   69.045627 -19.253715  1.675
15865 1   66.612244 -22.116134  1.675
15866 1   65.376033 -21.417434  1.675
15867 1   65.363020 -19.997493  1.675
15868 1   66.586218 -19.276254  1.675
15869 1   64.152835 -22.138673  1.675
15870 1   62.916624 -21.439972  1.675
15871 1   62.903611 -20.020032  1.675
15872 1   64.126809 -19.298792  1.675
15873 1   61.693426 -22.161212  1.675
15874 1   60.457215 -21.462511  1.675
15875 1   60.444202 -20.042571  1.675
15876 1   61.667400 -19.321331  1.675
15877 1   59.234017 -22.183751  1.675
15878 1   57.997806 -21.485050  1.675
15879 1   57.984793 -20.065109  1.675
15880 1   59.207991 -19.343870  1.675
15881 1   56.774608 -22.206289  1.675
15882 1   55.538397 -21.507588  1.675
15883 1   55.525384 -20.087648  1.675
15884 1   56.748583 -19.366409  1.675
15885 1   54.315199 -22.228828  1.675
15886 1   53.078988 -21.530127  1.675
15887 1   53.065976 -20.110187  1.675
15888 1   54.289174 -19.388947  1.675
15889 1   51.855790 -22.251367  1.675
15890 1   50.619579 -21.552666  1.675
15891 1   50.606567 -20.132726  1.675
15892 1   51.829765 -19.411486  1.675
15893 1   49.396381 -22.273905  1.675
15894 1   48.160171 -21.575205  1.675
15895 1   48.147158 -20.155264  1.675
15896 1   49.370356 -19.434025  1.675
15897 1   46.936973 -22.296444  1.675
15898 1   45.700762 -21.597743  1.675
15899 1   45.687749 -20.177803  1.675
15900 1   46.910947 -19.456563  1.675
15901 1   44.477564 -22.318983  1.675
15902 1   43.241353 -21.620282  1.675
15903 1   43.228340 -20.200342  1.675
15904 1   44.451538 -19.479102  1.675
15905 1   42.018155 -22.341522  1.675
15906 1   40.781944 -21.642821  1.675
15907 1   40.768931 -20.222881  1.675
15908 1   41.992129 -19.501641  1.675
15909 1   39.558746 -22.364060  1.675
15910 1   38.322535 -21.665360  1.675
15911 1   38.309522 -20.245419  1.675
15912 1   39.532720 -19.524180  1.675
15913 1   37.099337 -22.386599  1.675
15914 1   35.863126 -21.687898  1.675
15915 1   35.850113 -20.267958  1.675
15916 1   37.073312 -19.546718  1.675
15917 1   34.639928 -22.409138  1.675
15918 1   33.403717 -21.710437  1.675
15919 1   33.390705 -20.290497  1.675
15920 1   34.613903 -19.569257  1.675
15921 1   32.180519 -22.431677  1.675
15922 1   30.944308 -21.732976  1.675
15923 1   30.931296 -20.313035  1.675
15924 1   32.154494 -19.591796  1.675
15925 1   29.721110 -22.454215  1.675
15926 1   28.484900 -21.755515  1.675
15927 1   28.471887 -20.335574  1.675
15928 1   29.695085 -19.614335  1.675
15929 1   27.261702 -22.476754  1.675
15930 1   26.025491 -21.778053  1.675
15931 1   26.012478 -20.358113  1.675
15932 1   27.235676 -19.636873  1.675
15933 1   24.802293 -22.499293  1.675
15934 1   23.566082 -21.800592  1.675
15935 1   23.553069 -20.380652  1.675
15936 1   24.776267 -19.659412  1.675
15937 1   22.342884 -22.521832  1.675
15938 1   21.106673 -21.823131  1.675
15939 1   21.093660 -20.403190  1.675
15940 1   22.316858 -19.681951  1.675
15941 1   19.883475 -22.544370  1.675
15942 1   18.647264 -21.845670  1.675
15943 1   18.634251 -20.425729  1.675
15944 1   19.857449 -19.704490  1.675
15945 1   17.424066 -22.566909  1.675
15946 1   16.187855 -21.868208  1.675
15947 1   16.174842 -20.448268  1.675
15948 1   17.398041 -19.727028  1.675
15949 1   14.964657 -22.589448  1.675
15950 1   13.728446 -21.890747  1.675
15951 1   13.715434 -20.470807  1.675
15952 1   14.938632 -19.749567  1.675
15953 1   12.505248 -22.611987  1.675
15954 1   11.269037 -21.913286  1.675
15955 1   11.256025 -20.493345  1.675
15956 1   12.479223 -19.772106  1.675
15957 1   10.045839 -22.634525  1.675
15958 1    8.809629 -21.935824  1.675
15959 1    8.796616 -20.515884  1.675
15960 1   10.019814 -19.794645  1.675
15961 1    7.586431 -22.657064  1.675
15962 1    6.350220 -21.958363  1.675
15963 1    6.337207 -20.538423  1.675
15964 1    7.560405 -19.817183  1.675
15965 1    5.127022 -22.679603  1.675
15966 1    3.890811 -21.980902  1.675
15967 1    3.877798 -20.560962  1.675
15968 1    5.100996 -19.839722  1.675
15969 1    2.667613 -22.702141  1.675
15970 1    1.431402 -22.003441  1.675
15971 1    1.418389 -20.583500  1.675
15972 1    2.641587 -19.862261  1.675
15973 1    0.208204 -22.724680  1.675
15974 1   -1.028007 -22.025979  1.675
15975 1   -1.041020 -20.606039  1.675
15976 1    0.182178 -19.884799  1.675
15977 1   -2.251205 -22.747219  1.675
15978 1   -3.487416 -22.048518  1.675
15979 1   -3.500429 -20.628578  1.675
15980 1   -2.277230 -19.907338  1.675
15981 1   -4.710614 -22.769758  1.675
15982 1   -5.946825 -22.071057  1.675
15983 1   -5.959837 -20.651116  1.675
15984 1   -4.736639 -19.929877  1.675
15985 1   -7.170023 -22.792296  1.675
15986 1   -8.406234 -22.093596  1.675
15987 1   -8.419246 -20.673655  1.675
15988 1   -7.196048 -19.952416  1.675
15989 1   -9.629432 -22.814835  1.675
15990 1  -10.865642 -22.116134  1.675
15991 1  -10.878655 -20.696194  1.675
15992 1   -9.655457 -19.974954  1.675
15993 1  -12.088840 -22.837374  1.675
15994 1  -13.325051 -22.138673  1.675
15995 1  -13.338064 -20.718733  1.675
15996 1  -12.114866 -19.997493  1.675
15997 1  -14.548249 -22.859913  1.675
15998 1  -15.784460 -22.161212  1.675
15999 1  -15.797473 -20.741271  1.675
16000 1  -14.574275 -20.020032  1.675
16001 1  -17.007658 -22.882451  1.675
16002 1  -18.243869 -22.183751  1.675
16003 1  -18.256882 -20.763810  1.675
16004 1  -17.033684 -20.042571  1.675
16005 1  -19.467067 -22.904990  1.675
16006 1  -20.703278 -22.206289  1.675
16007 1  -20.716291 -20.786349  1.675
16008 1  -19.493093 -20.065109  1.675
16009 1  -21.926476 -22.927529  1.675
16010 1  -23.162687 -22.228828  1.675
16011 1  -23.175699 -20.808888  1.675
16012 1  -21.952501 -20.087648  1.675
16013 1  -24.385885 -22.950068  1.675
16014 1  -25.622096 -22.251367  1.675
16015 1  -25.635108 -20.831426  1.675
16016 1  -24.411910 -20.110187  1.675
16017 1  -26.845294 -22.972606  1.675
16018 1  -28.081504 -22.273905  1.675
16019 1  -28.094517 -20.853965  1.675
16020 1  -26.871319 -20.132726  1.675
16021 1  -29.304703 -22.995145  1.675
16022 1  -30.540913 -22.296444  1.675
16023 1  -30.553926 -20.876504  1.675
16024 1  -29.330728 -20.155264  1.675
16025 1  -31.764111 -23.017684  1.675
16026 1  -33.000322 -22.318983  1.675
16027 1  -33.013335 -20.899043  1.675
16028 1  -31.790137 -20.177803  1.675
16029 1  -34.223520 -23.040223  1.675
16030 1  -35.459731 -22.341522  1.675
16031 1  -35.472744 -20.921581  1.675
16032 1  -34.249546 -20.200342  1.675
16033 1  -36.682929 -23.062761  1.675
16034 1  -37.919140 -22.364060  1.675
16035 1  -37.932153 -20.944120  1.675
16036 1  -36.708955 -20.222881  1.675
16037 1  -39.142338 -23.085300  1.675
16038 1  -40.378549 -22.386599  1.675
16039 1  -40.391562 -20.966659  1.675
16040 1  -39.168364 -20.245419  1.675
16041 1  -41.601747 -23.107839  1.675
16042 1  -42.837958 -22.409138  1.675
16043 1  -42.850970 -20.989198  1.675
16044 1  -41.627772 -20.267958  1.675
16045 1  -44.061156 -23.130377  1.675
16046 1  -45.297367 -22.431677  1.675
16047 1  -45.310379 -21.011736  1.675
16048 1  -44.087181 -20.290497  1.675
16049 1  -46.520565 -23.152916  1.675
16050 1  -47.756775 -22.454215  1.675
16051 1  -47.769788 -21.034275  1.675
16052 1  -46.546590 -20.313035  1.675
16053 1  -48.979974 -23.175455  1.675
16054 1  -50.216184 -22.476754  1.675
16055 1  -50.229197 -21.056814  1.675
16056 1  -49.005999 -20.335574  1.675
16057 1  -51.439382 -23.197994  1.675
16058 1  -52.675593 -22.499293  1.675
16059 1  -52.688606 -21.079352  1.675
16060 1  -51.465408 -20.358113  1.675
16061 1  -53.898791 -23.220532  1.675
16062 1  -55.135002 -22.521832  1.675
16063 1  -55.148015 -21.101891  1.675
16064 1  -53.924817 -20.380652  1.675
16065 1  -56.358200 -23.243071  1.675
16066 1  -57.594411 -22.544370  1.675
16067 1  -57.607424 -21.124430  1.675
16068 1  -56.384226 -20.403190  1.675
16069 1  -58.817609 -23.265610  1.675
16070 1  -60.053820 -22.566909  1.675
16071 1  -60.066833 -21.146969  1.675
16072 1  -58.843635 -20.425729  1.675
16073 1  -61.277018 -23.288149  1.675
16074 1  -62.513229 -22.589448  1.675
16075 1  -62.526241 -21.169507  1.675
16076 1  -61.303043 -20.448268  1.675
16077 1  -63.736427 -23.310687  1.675
16078 1  -64.972638 -22.611987  1.675
16079 1  -64.985650 -21.192046  1.675
16080 1  -63.762452 -20.470807  1.675
16081 1  -66.195836 -23.333226  1.675
16082 1  -67.432046 -22.634525  1.675
16083 1  -67.445059 -21.214585  1.675
16084 1  -66.221861 -20.493345  1.675
16085 1  -68.655245 -23.355765  1.675
16086 1  -69.891455 -22.657064  1.675
16087 1  -69.904468 -21.237124  1.675
16088 1  -68.681270 -20.515884  1.675
16089 1  -71.114653 -23.378304  1.675
16090 1  -72.350864 -22.679603  1.675
16091 1  -72.363877 -21.259662  1.675
16092 1  -71.140679 -20.538423  1.675
16093 1  -73.574062 -23.400842  1.675
16094 1  -74.810273 -22.702141  1.675
16095 1  -74.823286 -21.282201  1.675
16096 1  -73.600088 -20.560962  1.675
16097 1  -76.033471 -23.423381  1.675
16098 1  -77.269682 -22.724680  1.675
16099 1  -77.282695 -21.304740  1.675
16100 1  -76.059497 -20.583500  1.675
16101 1  -78.492880 -23.445920  1.675
16102 1  -79.729091 -22.747219  1.675
16103 1  -79.742104 -21.327279  1.675
16104 1  -78.518906 -20.606039  1.675
16105 1  -80.952289 -23.468459  1.675
16106 1  -82.188500 -22.769758  1.675
16107 1  -82.201512 -21.349817  1.675
16108 1  -80.978314 -20.628578  1.675
16109 1  -83.411698 -23.490997  1.675
16110 1  -84.647909 -22.792296  1.675
16111 1  -84.660921 -21.372356  1.675
16112 1  -83.437723 -20.651116  1.675
16113 1  -85.871107 -23.513536  1.675
16114 1  -87.107317 -22.814835  1.675
16115 1  -87.120330 -21.394895  1.675
16116 1  -85.897132 -20.673655  1.675
16117 1  -88.330516 -23.536075  1.675
16118 1  -89.566726 -22.837374  1.675
16119 1  -89.579739 -21.417434  1.675
16120 1  -88.356541 -20.696194  1.675
16121 1  -90.789924 -23.558613  1.675
16122 1  -92.026135 -22.859913  1.675
16123 1  -92.039148 -21.439972  1.675
16124 1  -90.815950 -20.718733  1.675
16125 1  -93.249333 -23.581152  1.675
16126 1  -94.485544 -22.882451  1.675
16127 1  -94.498557 -21.462511  1.675
16128 1  -93.275359 -20.741271  1.675
16129 1  -95.708742 -23.603691  1.675
16130 1  -96.944953 -22.904990  1.675
16131 1  -96.957966 -21.485050  1.675
16132 1  -95.734768 -20.763810  1.675
16133 1  -98.168151 -23.626230  1.675
16134 1  -99.404362 -22.927529  1.675
16135 1  -99.417375 -21.507588  1.675
16136 1  -98.194176 -20.786349  1.675
16137 1 -100.627560 -23.648768  1.675
16138 1 -101.863771 -22.950068  1.675
16139 1 -101.876783 -21.530127  1.675
16140 1 -100.653585 -20.808888  1.675
16141 1 -103.086969 -23.671307  1.675
16142 1 -104.323180 -22.972606  1.675
16143 1 -104.336192 -21.552666  1.675
16144 1 -103.112994 -20.831426  1.675
16145 1 -105.546378 -23.693846  1.675
16146 1 -106.782588 -22.995145  1.675
16147 1 -106.795601 -21.575205  1.675
16148 1 -105.572403 -20.853965  1.675
16149 1 -108.005786 -23.716385  1.675
16150 1 -109.241997 -23.017684  1.675
16151 1 -109.255010 -21.597743  1.675
16152 1 -108.031812 -20.876504  1.675
16153 1 -110.465195 -23.738923  1.675
16154 1 -111.701406 -23.040223  1.675
16155 1 -111.714419 -21.620282  1.675
16156 1 -110.491221 -20.899043  1.675
16157 1 -112.924604 -23.761462  1.675
16158 1 -114.160815 -23.062761  1.675
16159 1 -114.173828 -21.642821  1.675
16160 1 -112.950630 -20.921581  1.675
16161 1 -115.384013 -23.784001  1.675
16162 1 -115.410039 -20.944120  1.675
16163 1  115.761383 -17.405538  1.675
16164 1  114.525172 -16.706838  1.675
16165 1  114.512159 -15.286897  1.675
16166 1  115.735357 -14.565658  1.675
16167 1  113.301974 -17.428077  1.675
16168 1  112.065763 -16.729376  1.675
16169 1  112.052750 -15.309436  1.675
16170 1  113.275948 -14.588196  1.675
16171 1  110.842565 -17.450616  1.675
16172 1  109.606354 -16.751915  1.675
16173 1  109.593341 -15.331975  1.675
16174 1  110.816539 -14.610735  1.675
16175 1  108.383156 -17.473155  1.675
16176 1  107.146945 -16.774454  1.675
16177 1  107.133933 -15.354514  1.675
16178 1  108.357131 -14.633274  1.675
16179 1  105.923747 -17.495693  1.675
16180 1  104.687536 -16.796993  1.675
16181 1  104.674524 -15.377052  1.675
16182 1  105.897722 -14.655813  1.675
16183 1  103.464338 -17.518232  1.675
16184 1  102.228128 -16.819531  1.675
16185 1  102.215115 -15.399591  1.675
16186 1  103.438313 -14.678351  1.675
16187 1  101.004929 -17.540771  1.675
16188 1   99.768719 -16.842070  1.675
16189 1   99.755706 -15.422130  1.675
16190 1  100.978904 -14.700890  1.675
16191 1   98.545521 -17.563310  1.675
16192 1   97.309310 -16.864609  1.675
16193 1   97.296297 -15.444668  1.675
16194 1   98.519495 -14.723429  1.675
16195 1   96.086112 -17.585848  1.675
16196 1   94.849901 -16.887148  1.675
16197 1   94.836888 -15.467207  1.675
16198 1   96.060086 -14.745968  1.675
16199 1   93.626703 -17.608387  1.675
16200 1   92.390492 -16.909686  1.675
16201 1   92.377479 -15.489746  1.675
16202 1   93.600677 -14.768506  1.675
16203 1   91.167294 -17.630926  1.675
16204 1   89.931083 -16.932225  1.675
16205 1   89.918070 -15.512285  1.675
16206 1   91.141269 -14.791045  1.675
16207 1   88.707885 -17.653465  1.675
16208 1   87.471674 -16.954764  1.675
16209 1   87.458662 -15.534823  1.675
16210 1   88.681860 -14.813584  1.675
16211 1   86.248476 -17.676003  1.675
16212 1   85.012265 -16.977303  1.675
16213 1   84.999253 -15.557362  1.675
16214 1   86.222451 -14.836123  1.675
16215 1   83.789067 -17.698542  1.675
16216 1   82.552857 -16.999841  1.675
16217 1   82.539844 -15.579901  1.675
16218 1   83.763042 -14.858661  1.675
16219 1   81.329659 -17.721081  1.675
16220 1   80.093448 -17.022380  1.675
16221 1   80.080435 -15.602440  1.675
16222 1   81.303633 -14.881200  1.675
16223 1   78.870250 -17.743620  1.675
16224 1   77.634039 -17.044919  1.675
16225 1   77.621026 -15.624978  1.675
16226 1   78.844224 -14.903739  1.675
16227 1   76.410841 -17.766158  1.675
16228 1   75.174630 -17.067457  1.675
16229 1   75.161617 -15.647517  1.675
16230 1   76.384815 -14.926278  1.675
16231 1   73.951432 -17.788697  1.675
16232 1   72.715221 -17.089996  1.675
16233 1   72.702208 -15.670056  1.675
16234 1   73.925406 -14.948816  1.675
16235 1   71.492023 -17.811236  1.675
16236 1   70.255812 -17.112535  1.675
16237 1   70.242799 -15.692595  1.675
16238 1   71.465998 -14.971355  1.675
16239 1   69.032614 -17.833774  1.675
16240 1   67.796403 -17.135074  1.675
16241 1   67.783391 -15.715133  1.675
16242 1   69.006589 -14.993894  1.675
16243 1   66.573205 -17.856313  1.675
16244 1   65.336994 -17.157612  1.675
16245 1   65.323982 -15.737672  1.675
16246 1   66.547180 -15.016432  1.675
16247 1   64.113796 -17.878852  1.675
16248 1   62.877586 -17.180151  1.675
16249 1   62.864573 -15.760211  1.675
16250 1   64.087771 -15.038971  1.675
16251 1   61.654388 -17.901391  1.675
16252 1   60.418177 -17.202690  1.675
16253 1   60.405164 -15.782749  1.675
16254 1   61.628362 -15.061510  1.675
16255 1   59.194979 -17.923929  1.675
16256 1   57.958768 -17.225229  1.675
16257 1   57.945755 -15.805288  1.675
16258 1   59.168953 -15.084049  1.675
16259 1   56.735570 -17.946468  1.675
16260 1   55.499359 -17.247767  1.675
16261 1   55.486346 -15.827827  1.675
16262 1   56.709544 -15.106587  1.675
16263 1   54.276161 -17.969007  1.675
16264 1   53.039950 -17.270306  1.675
16265 1   53.026937 -15.850366  1.675
16266 1   54.250135 -15.129126  1.675
16267 1   51.816752 -17.991546  1.675
16268 1   50.580541 -17.292845  1.675
16269 1   50.567528 -15.872904  1.675
16270 1   51.790727 -15.151665  1.675
16271 1   49.357343 -18.014084  1.675
16272 1   48.121132 -17.315384  1.675
16273 1   48.108120 -15.895443  1.675
16274 1   49.331318 -15.174204  1.675
16275 1   46.897934 -18.036623  1.675
16276 1   45.661723 -17.337922  1.675
16277 1   45.648711 -15.917982  1.675
16278 1   46.871909 -15.196742  1.675
16279 1   44.438525 -18.059162  1.675
16280 1   43.202315 -17.360461  1.675
16281 1   43.189302 -15.940521  1.675
16282 1   44.412500 -15.219281  1.675
16283 1   41.979117 -18.081701  1.675
16284 1   40.742906 -17.383000  1.675
16285 1   40.729893 -15.963059  1.675
16286 1   41.953091 -15.241820  1.675
16287 1   39.519708 -18.104239  1.675
16288 1   38.283497 -17.405538  1.675
16289 1   38.270484 -15.985598  1.675
16290 1   39.493682 -15.264359  1.675
16291 1   37.060299 -18.126778  1.675
16292 1   35.824088 -17.428077  1.675
16293 1   35.811075 -16.008137  1.675
16294 1   37.034273 -15.286897  1.675
16295 1   34.600890 -18.149317  1.675
16296 1   33.364679 -17.450616  1.675
16297 1   33.351666 -16.030676  1.675
16298 1   34.574864 -15.309436  1.675
16299 1   32.141481 -18.171856  1.675
16300 1   30.905270 -17.473155  1.675
16301 1   30.892257 -16.053214  1.675
16302 1   32.115456 -15.331975  1.675
16303 1   29.682072 -18.194394  1.675
16304 1   28.445861 -17.495693  1.675
16305 1   28.432849 -16.075753  1.675
16306 1   29.656047 -15.354514  1.675
16307 1   27.222663 -18.216933  1.675
16308 1   25.986452 -17.518232  1.675
16309 1   25.973440 -16.098292  1.675
16310 1   27.196638 -15.377052  1.675
16311 1   24.763254 -18.239472  1.675
16312 1   23.527044 -17.540771  1.675
16313 1   23.514031 -16.120831  1.675
16314 1   24.737229 -15.399591  1.675
16315 1   22.303846 -18.262010  1.675
16316 1   21.067635 -17.563310  1.675
16317 1   21.054622 -16.143369  1.675
16318 1   22.277820 -15.422130  1.675
16319 1   19.844437 -18.284549  1.675
16320 1   18.608226 -17.585848  1.675
16321 1   18.595213 -16.165908  1.675
16322 1   19.818411 -15.444668  1.675
16323 1   17.385028 -18.307088  1.675
16324 1   16.148817 -17.608387  1.675
16325 1   16.135804 -16.188447  1.675
16326 1   17.359002 -15.467207  1.675
16327 1   14.925619 -18.329627  1.675
16328 1   13.689408 -17.630926  1.675
16329 1   13.676395 -16.210985  1.675
16330 1   14.899593 -15.489746  1.675
16331 1   12.466210 -18.352165  1.675
16332 1   11.229999 -17.653465  1.675
16333 1   11.216987 -16.233524  1.675
16334 1   12.440185 -15.512285  1.675
16335 1   10.006801 -18.374704  1.675
16336 1    8.770590 -17.676003  1.675
16337 1    8.757578 -16.256063  1.675
16338 1    9.980776 -15.534823  1.675
16339 1    7.547392 -18.397243  1.675
16340 1    6.311181 -17.698542  1.675
16341 1    6.298169 -16.278602  1.675
16342 1    7.521367 -15.557362  1.675
16343 1    5.087983 -18.419782  1.675
16344 1    3.851773 -17.721081  1.675
16345 1    3.838760 -16.301140  1.675
16346 1    5.061958 -15.579901  1.675
16347 1    2.628575 -18.442320  1.675
16348 1    1.392364 -17.743620  1.675
16349 1    1.379351 -16.323679  1.675
16350 1    2.602549 -15.602440  1.675
16351 1    0.169166 -18.464859  1.675
16352 1   -1.067045 -17.766158  1.675
16353 1   -1.080058 -16.346218  1.675
16354 1    0.143140 -15.624978  1.675
16355 1   -2.290243 -18.487398  1.675
16356 1   -3.526454 -17.788697  1.675
16357 1   -3.539467 -16.368757  1.675
16358 1   -2.316269 -15.647517  1.675
16359 1   -4.749652 -18.509937  1.675
16360 1   -5.985863 -17.811236  1.675
16361 1   -5.998876 -16.391295  1.675
16362 1   -4.775678 -15.670056  1.675
16363 1   -7.209061 -18.532475  1.675
16364 1   -8.445272 -17.833774  1.675
16365 1   -8.458284 -16.413834  1.675
16366 1   -7.235086 -15.692595  1.675
16367 1   -9.668470 -18.555014  1.675
16368 1  -10.904681 -17.856313  1.675
16369 1  -10.917693 -16.436373  1.675
16370 1   -9.694495 -15.715133  1.675
16371 1  -12.127879 -18.577553  1.675
16372 1  -13.364089 -17.878852  1.675
16373 1  -13.377102 -16.458912  1.675
16374 1  -12.153904 -15.737672  1.675
16375 1  -14.587288 -18.600092  1.675
16376 1  -15.823498 -17.901391  1.675
16377 1  -15.836511 -16.481450  1.675
16378 1  -14.613313 -15.760211  1.675
16379 1  -17.046696 -18.622630  1.675
16380 1  -18.282907 -17.923929  1.675
16381 1  -18.295920 -16.503989  1.675
16382 1  -17.072722 -15.782749  1.675
16383 1  -19.506105 -18.645169  1.675
16384 1  -20.742316 -17.946468  1.675
16385 1  -20.755329 -16.526528  1.675
16386 1  -19.532131 -15.805288  1.675
16387 1  -21.965514 -18.667708  1.675
16388 1  -23.201725 -17.969007  1.675
16389 1  -23.214738 -16.549067  1.675
16390 1  -21.991540 -15.827827  1.675
16391 1  -24.424923 -18.690246  1.675
16392 1  -25.661134 -17.991546  1.675
16393 1  -25.674147 -16.571605  1.675
16394 1  -24.450949 -15.850366  1.675
16395 1  -26.884332 -18.712785  1.675
16396 1  -28.120543 -18.014084  1.675
16397 1  -28.133555 -16.594144  1.675
16398 1  -26.910357 -15.872904  1.675
16399 1  -29.343741 -18.735324  1.675
16400 1  -30.579952 -18.036623  1.675
16401 1  -30.592964 -16.616683  1.675
16402 1  -29.369766 -15.895443  1.675
16403 1  -31.803150 -18.757863  1.675
16404 1  -33.039360 -18.059162  1.675
16405 1  -33.052373 -16.639221  1.675
16406 1  -31.829175 -15.917982  1.675
16407 1  -34.262559 -18.780401  1.675
16408 1  -35.498769 -18.081701  1.675
16409 1  -35.511782 -16.661760  1.675
16410 1  -34.288584 -15.940521  1.675
16411 1  -36.721967 -18.802940  1.675
16412 1  -37.958178 -18.104239  1.675
16413 1  -37.971191 -16.684299  1.675
16414 1  -36.747993 -15.963059  1.675
16415 1  -39.181376 -18.825479  1.675
16416 1  -40.417587 -18.126778  1.675
16417 1  -40.430600 -16.706838  1.675
16418 1  -39.207402 -15.985598  1.675
16419 1  -41.640785 -18.848018  1.675
16420 1  -42.876996 -18.149317  1.675
16421 1  -42.890009 -16.729376  1.675
16422 1  -41.666811 -16.008137  1.675
16423 1  -44.100194 -18.870556  1.675
16424 1  -45.336405 -18.171856  1.675
16425 1  -45.349418 -16.751915  1.675
16426 1  -44.126220 -16.030676  1.675
16427 1  -46.559603 -18.893095  1.675
16428 1  -47.795814 -18.194394  1.675
16429 1  -47.808826 -16.774454  1.675
16430 1  -46.585628 -16.053214  1.675
16431 1  -49.019012 -18.915634  1.675
16432 1  -50.255223 -18.216933  1.675
16433 1  -50.268235 -16.796993  1.675
16434 1  -49.045037 -16.075753  1.675
16435 1  -51.478421 -18.938173  1.675
16436 1  -52.714631 -18.239472  1.675
16437 1  -52.727644 -16.819531  1.675
16438 1  -51.504446 -16.098292  1.675
16439 1  -53.937830 -18.960711  1.675
16440 1  -55.174040 -18.262010  1.675
16441 1  -55.187053 -16.842070  1.675
16442 1  -53.963855 -16.120831  1.675
16443 1  -56.397238 -18.983250  1.675
16444 1  -57.633449 -18.284549  1.675
16445 1  -57.646462 -16.864609  1.675
16446 1  -56.423264 -16.143369  1.675
16447 1  -58.856647 -19.005789  1.675
16448 1  -60.092858 -18.307088  1.675
16449 1  -60.105871 -16.887148  1.675
16450 1  -58.882673 -16.165908  1.675
16451 1  -61.316056 -19.028327  1.675
16452 1  -62.552267 -18.329627  1.675
16453 1  -62.565280 -16.909686  1.675
16454 1  -61.342082 -16.188447  1.675
16455 1  -63.775465 -19.050866  1.675
16456 1  -65.011676 -18.352165  1.675
16457 1  -65.024689 -16.932225  1.675
16458 1  -63.801491 -16.210985  1.675
16459 1  -66.234874 -19.073405  1.675
16460 1  -67.471085 -18.374704  1.675
16461 1  -67.484097 -16.954764  1.675
16462 1  -66.260899 -16.233524  1.675
16463 1  -68.694283 -19.095944  1.675
16464 1  -69.930494 -18.397243  1.675
16465 1  -69.943506 -16.977303  1.675
16466 1  -68.720308 -16.256063  1.675
16467 1  -71.153692 -19.118482  1.675
16468 1  -72.389902 -18.419782  1.675
16469 1  -72.402915 -16.999841  1.675
16470 1  -71.179717 -16.278602  1.675
16471 1  -73.613101 -19.141021  1.675
16472 1  -74.849311 -18.442320  1.675
16473 1  -74.862324 -17.022380  1.675
16474 1  -73.639126 -16.301140  1.675
16475 1  -76.072509 -19.163560  1.675
16476 1  -77.308720 -18.464859  1.675
16477 1  -77.321733 -17.044919  1.675
16478 1  -76.098535 -16.323679  1.675
16479 1  -78.531918 -19.186099  1.675
16480 1  -79.768129 -18.487398  1.675
16481 1  -79.781142 -17.067457  1.675
16482 1  -78.557944 -16.346218  1.675
16483 1  -80.991327 -19.208637  1.675
16484 1  -82.227538 -18.509937  1.675
16485 1  -82.240551 -17.089996  1.675
16486 1  -81.017353 -16.368757  1.675
16487 1  -83.450736 -19.231176  1.675
16488 1  -84.686947 -18.532475  1.675
16489 1  -84.699960 -17.112535  1.675
16490 1  -83.476761 -16.391295  1.675
16491 1  -85.910145 -19.253715  1.675
16492 1  -87.146356 -18.555014  1.675
16493 1  -87.159368 -17.135074  1.675
16494 1  -85.936170 -16.413834  1.675
16495 1  -88.369554 -19.276254  1.675
16496 1  -89.605765 -18.577553  1.675
16497 1  -89.618777 -17.157612  1.675
16498 1  -88.395579 -16.436373  1.675
16499 1  -90.828963 -19.298792  1.675
16500 1  -92.065173 -18.600092  1.675
16501 1  -92.078186 -17.180151  1.675
16502 1  -90.854988 -16.458912  1.675
16503 1  -93.288371 -19.321331  1.675
16504 1  -94.524582 -18.622630  1.675
16505 1  -94.537595 -17.202690  1.675
16506 1  -93.314397 -16.481450  1.675
16507 1  -95.747780 -19.343870  1.675
16508 1  -96.983991 -18.645169  1.675
16509 1  -96.997004 -17.225229  1.675
16510 1  -95.773806 -16.503989  1.675
16511 1  -98.207189 -19.366409  1.675
16512 1  -99.443400 -18.667708  1.675
16513 1  -99.456413 -17.247767  1.675
16514 1  -98.233215 -16.526528  1.675
16515 1 -100.666598 -19.388947  1.675
16516 1 -101.902809 -18.690246  1.675
16517 1 -101.915822 -17.270306  1.675
16518 1 -100.692624 -16.549067  1.675
16519 1 -103.126007 -19.411486  1.675
16520 1 -104.362218 -18.712785  1.675
16521 1 -104.375231 -17.292845  1.675
16522 1 -103.152032 -16.571605  1.675
16523 1 -105.585416 -19.434025  1.675
16524 1 -106.821627 -18.735324  1.675
16525 1 -106.834639 -17.315384  1.675
16526 1 -105.611441 -16.594144  1.675
16527 1 -108.044825 -19.456563  1.675
16528 1 -109.281036 -18.757863  1.675
16529 1 -109.294048 -17.337922  1.675
16530 1 -108.070850 -16.616683  1.675
16531 1 -110.504234 -19.479102  1.675
16532 1 -111.740444 -18.780401  1.675
16533 1 -111.753457 -17.360461  1.675
16534 1 -110.530259 -16.639221  1.675
16535 1 -112.963642 -19.501641  1.675
16536 1 -114.199853 -18.802940  1.675
16537 1 -114.212866 -17.383000  1.675
16538 1 -112.989668 -16.661760  1.675
16539 1 -115.423051 -19.524180  1.675
16540 1 -115.449077 -16.684299  1.675
16541 1  115.722344 -13.145717  1.675
16542 1  114.486134 -12.447017  1.675
16543 1  114.473121 -11.027076  1.675
16544 1  115.696319 -10.305837  1.675
16545 1  113.262936 -13.168256  1.675
16546 1  112.026725 -12.469555  1.675
16547 1  112.013712 -11.049615  1.675
16548 1  113.236910 -10.328375  1.675
16549 1  110.803527 -13.190795  1.675
16550 1  109.567316 -12.492094  1.675
16551 1  109.554303 -11.072154  1.675
16552 1  110.777501 -10.350914  1.675
16553 1  108.344118 -13.213334  1.675
16554 1  107.107907 -12.514633  1.675
16555 1  107.094894 -11.094692  1.675
16556 1  108.318092 -10.373453  1.675
16557 1  105.884709 -13.235872  1.675
16558 1  104.648498 -12.537171  1.675
16559 1  104.635485 -11.117231  1.675
16560 1  105.858684 -10.395992  1.675
16561 1  103.425300 -13.258411  1.675
16562 1  102.189089 -12.559710  1.675
16563 1  102.176077 -11.139770  1.675
16564 1  103.399275 -10.418530  1.675
16565 1  100.965891 -13.280950  1.675
16566 1   99.729680 -12.582249  1.675
16567 1   99.716668 -11.162309  1.675
16568 1  100.939866 -10.441069  1.675
16569 1   98.506482 -13.303489  1.675
16570 1   97.270272 -12.604788  1.675
16571 1   97.257259 -11.184847  1.675
16572 1   98.480457 -10.463608  1.675
16573 1   96.047074 -13.326027  1.675
16574 1   94.810863 -12.627326  1.675
16575 1   94.797850 -11.207386  1.675
16576 1   96.021048 -10.486147  1.675
16577 1   93.587665 -13.348566  1.675
16578 1   92.351454 -12.649865  1.675
16579 1   92.338441 -11.229925  1.675
16580 1   93.561639 -10.508685  1.675
16581 1   91.128256 -13.371105  1.675
16582 1   89.892045 -12.672404  1.675
16583 1   89.879032 -11.252464  1.675
16584 1   91.102230 -10.531224  1.675
16585 1   88.668847 -13.393643  1.675
16586 1   87.432636 -12.694943  1.675
16587 1   87.419623 -11.275002  1.675
16588 1   88.642821 -10.553763  1.675
16589 1   86.209438 -13.416182  1.675
16590 1   84.973227 -12.717481  1.675
16591 1   84.960214 -11.297541  1.675
16592 1   86.183413 -10.576301  1.675
16593 1   83.750029 -13.438721  1.675
16594 1   82.513818 -12.740020  1.675
16595 1   82.500806 -11.320080  1.675
16596 1   83.724004 -10.598840  1.675
16597 1   81.290620 -13.461260  1.675
16598 1   80.054409 -12.762559  1.675
16599 1   80.041397 -11.342618  1.675
16600 1   81.264595 -10.621379  1.675
16601 1   78.831211 -13.483798  1.675
16602 1   77.595001 -12.785098  1.675
16603 1   77.581988 -11.365157  1.675
16604 1   78.805186 -10.643918  1.675
16605 1   76.371803 -13.506337  1.675
16606 1   75.135592 -12.807636  1.675
16607 1   75.122579 -11.387696  1.675
16608 1   76.345777 -10.666456  1.675
16609 1   73.912394 -13.528876  1.675
16610 1   72.676183 -12.830175  1.675
16611 1   72.663170 -11.410235  1.675
16612 1   73.886368 -10.688995  1.675
16613 1   71.452985 -13.551415  1.675
16614 1   70.216774 -12.852714  1.675
16615 1   70.203761 -11.432773  1.675
16616 1   71.426959 -10.711534  1.675
16617 1   68.993576 -13.573953  1.675
16618 1   67.757365 -12.875253  1.675
16619 1   67.744352 -11.455312  1.675
16620 1   68.967550 -10.734073  1.675
16621 1   66.534167 -13.596492  1.675
16622 1   65.297956 -12.897791  1.675
16623 1   65.284943 -11.477851  1.675
16624 1   66.508142 -10.756611  1.675
16625 1   64.074758 -13.619031  1.675
16626 1   62.838547 -12.920330  1.675
16627 1   62.825535 -11.500390  1.675
16628 1   64.048733 -10.779150  1.675
16629 1   61.615349 -13.641570  1.675
16630 1   60.379138 -12.942869  1.675
16631 1   60.366126 -11.522928  1.675
16632 1   61.589324 -10.801689  1.675
16633 1   59.155940 -13.664108  1.675
16634 1   57.919730 -12.965407  1.675
16635 1   57.906717 -11.545467  1.675
16636 1   59.129915 -10.824228  1.675
16637 1   56.696532 -13.686647  1.675
16638 1   55.460321 -12.987946  1.675
16639 1   55.447308 -11.568006  1.675
16640 1   56.670506 -10.846766  1.675
16641 1   54.237123 -13.709186  1.675
16642 1   53.000912 -13.010485  1.675
16643 1   52.987899 -11.590545  1.675
16644 1   54.211097 -10.869305  1.675
16645 1   51.777714 -13.731725  1.675
16646 1   50.541503 -13.033024  1.675
16647 1   50.528490 -11.613083  1.675
16648 1   51.751688 -10.891844  1.675
16649 1   49.318305 -13.754263  1.675
16650 1   48.082094 -13.055562  1.675
16651 1   48.069081 -11.635622  1.675
16652 1   49.292279 -10.914382  1.675
16653 1   46.858896 -13.776802  1.675
16654 1   45.622685 -13.078101  1.675
16655 1   45.609672 -11.658161  1.675
16656 1   46.832871 -10.936921  1.675
16657 1   44.399487 -13.799341  1.675
16658 1   43.163276 -13.100640  1.675
16659 1   43.150264 -11.680700  1.675
16660 1   44.373462 -10.959460  1.675
16661 1   41.940078 -13.821879  1.675
16662 1   40.703867 -13.123179  1.675
16663 1   40.690855 -11.703238  1.675
16664 1   41.914053 -10.981999  1.675
16665 1   39.480669 -13.844418  1.675
16666 1   38.244459 -13.145717  1.675
16667 1   38.231446 -11.725777  1.675
16668 1   39.454644 -11.004537  1.675
16669 1   37.021261 -13.866957  1.675
16670 1   35.785050 -13.168256  1.675
16671 1   35.772037 -11.748316  1.675
16672 1   36.995235 -11.027076  1.675
16673 1   34.561852 -13.889496  1.675
16674 1   33.325641 -13.190795  1.675
16675 1   33.312628 -11.770854  1.675
16676 1   34.535826 -11.049615  1.675
16677 1   32.102443 -13.912034  1.675
16678 1   30.866232 -13.213334  1.675
16679 1   30.853219 -11.793393  1.675
16680 1   32.076417 -11.072154  1.675
16681 1   29.643034 -13.934573  1.675
16682 1   28.406823 -13.235872  1.675
16683 1   28.393810 -11.815932  1.675
16684 1   29.617008 -11.094692  1.675
16685 1   27.183625 -13.957112  1.675
16686 1   25.947414 -13.258411  1.675
16687 1   25.934402 -11.838471  1.675
16688 1   27.157600 -11.117231  1.675
16689 1   24.724216 -13.979651  1.675
16690 1   23.488005 -13.280950  1.675
16691 1   23.474993 -11.861009  1.675
16692 1   24.698191 -11.139770  1.675
16693 1   22.264807 -14.002189  1.675
16694 1   21.028597 -13.303489  1.675
16695 1   21.015584 -11.883548  1.675
16696 1   22.238782 -11.162309  1.675
16697 1   19.805398 -14.024728  1.675
16698 1   18.569188 -13.326027  1.675
16699 1   18.556175 -11.906087  1.675
16700 1   19.779373 -11.184847  1.675
16701 1   17.345990 -14.047267  1.675
16702 1   16.109779 -13.348566  1.675
16703 1   16.096766 -11.928626  1.675
16704 1   17.319964 -11.207386  1.675
16705 1   14.886581 -14.069806  1.675
16706 1   13.650370 -13.371105  1.675
16707 1   13.637357 -11.951164  1.675
16708 1   14.860555 -11.229925  1.675
16709 1   12.427172 -14.092344  1.675
16710 1   11.190961 -13.393643  1.675
16711 1   11.177948 -11.973703  1.675
16712 1   12.401146 -11.252464  1.675
16713 1    9.967763 -14.114883  1.675
16714 1    8.731552 -13.416182  1.675
16715 1    8.718539 -11.996242  1.675
16716 1    9.941737 -11.275002  1.675
16717 1    7.508354 -14.137422  1.675
16718 1    6.272143 -13.438721  1.675
16719 1    6.259131 -12.018781  1.675
16720 1    7.482329 -11.297541  1.675
16721 1    5.048945 -14.159960  1.675
16722 1    3.812734 -13.461260  1.675
16723 1    3.799722 -12.041319  1.675
16724 1    5.022920 -11.320080  1.675
16725 1    2.589536 -14.182499  1.675
16726 1    1.353326 -13.483798  1.675
16727 1    1.340313 -12.063858  1.675
16728 1    2.563511 -11.342618  1.675
16729 1    0.130127 -14.205038  1.675
16730 1   -1.106083 -13.506337  1.675
16731 1   -1.119096 -12.086397  1.675
16732 1    0.104102 -11.365157  1.675
16733 1   -2.329281 -14.227577  1.675
16734 1   -3.565492 -13.528876  1.675
16735 1   -3.578505 -12.108936  1.675
16736 1   -2.355307 -11.387696  1.675
16737 1   -4.788690 -14.250115  1.675
16738 1   -6.024901 -13.551415  1.675
16739 1   -6.037914 -12.131474  1.675
16740 1   -4.814716 -11.410235  1.675
16741 1   -7.248099 -14.272654  1.675
16742 1   -8.484310 -13.573953  1.675
16743 1   -8.497323 -12.154013  1.675
16744 1   -7.274125 -11.432773  1.675
16745 1   -9.707508 -14.295193  1.675
16746 1  -10.943719 -13.596492  1.675
16747 1  -10.956732 -12.176552  1.675
16748 1   -9.733534 -11.455312  1.675
16749 1  -12.166917 -14.317732  1.675
16750 1  -13.403128 -13.619031  1.675
16751 1  -13.416140 -12.199090  1.675
16752 1  -12.192942 -11.477851  1.675
16753 1  -14.626326 -14.340270  1.675
16754 1  -15.862537 -13.641570  1.675
16755 1  -15.875549 -12.221629  1.675
16756 1  -14.652351 -11.500390  1.675
16757 1  -17.085735 -14.362809  1.675
16758 1  -18.321945 -13.664108  1.675
16759 1  -18.334958 -12.244168  1.675
16760 1  -17.111760 -11.522928  1.675
16761 1  -19.545144 -14.385348  1.675
16762 1  -20.781354 -13.686647  1.675
16763 1  -20.794367 -12.266707  1.675
16764 1  -19.571169 -11.545467  1.675
16765 1  -22.004552 -14.407887  1.675
16766 1  -23.240763 -13.709186  1.675
16767 1  -23.253776 -12.289245  1.675
16768 1  -22.030578 -11.568006  1.675
16769 1  -24.463961 -14.430425  1.675
16770 1  -25.700172 -13.731725  1.675
16771 1  -25.713185 -12.311784  1.675
16772 1  -24.489987 -11.590545  1.675
16773 1  -26.923370 -14.452964  1.675
16774 1  -28.159581 -13.754263  1.675
16775 1  -28.172594 -12.334323  1.675
16776 1  -26.949396 -11.613083  1.675
16777 1  -29.382779 -14.475503  1.675
16778 1  -30.618990 -13.776802  1.675
16779 1  -30.632003 -12.356862  1.675
16780 1  -29.408805 -11.635622  1.675
16781 1  -31.842188 -14.498042  1.675
16782 1  -33.078399 -13.799341  1.675
16783 1  -33.091411 -12.379400  1.675
16784 1  -31.868213 -11.658161  1.675
16785 1  -34.301597 -14.520580  1.675
16786 1  -35.537808 -13.821879  1.675
16787 1  -35.550820 -12.401939  1.675
16788 1  -34.327622 -11.680700  1.675
16789 1  -36.761006 -14.543119  1.675
16790 1  -37.997216 -13.844418  1.675
16791 1  -38.010229 -12.424478  1.675
16792 1  -36.787031 -11.703238  1.675
16793 1  -39.220415 -14.565658  1.675
16794 1  -40.456625 -13.866957  1.675
16795 1  -40.469638 -12.447017  1.675
16796 1  -39.246440 -11.725777  1.675
16797 1  -41.679823 -14.588196  1.675
16798 1  -42.916034 -13.889496  1.675
16799 1  -42.929047 -12.469555  1.675
16800 1  -41.705849 -11.748316  1.675
16801 1  -44.139232 -14.610735  1.675
16802 1  -45.375443 -13.912034  1.675
16803 1  -45.388456 -12.492094  1.675
16804 1  -44.165258 -11.770854  1.675
16805 1  -46.598641 -14.633274  1.675
16806 1  -47.834852 -13.934573  1.675
16807 1  -47.847865 -12.514633  1.675
16808 1  -46.624667 -11.793393  1.675
16809 1  -49.058050 -14.655813  1.675
16810 1  -50.294261 -13.957112  1.675
16811 1  -50.307274 -12.537171  1.675
16812 1  -49.084076 -11.815932  1.675
16813 1  -51.517459 -14.678351  1.675
16814 1  -52.753670 -13.979651  1.675
16815 1  -52.766682 -12.559710  1.675
16816 1  -51.543484 -11.838471  1.675
16817 1  -53.976868 -14.700890  1.675
16818 1  -55.213079 -14.002189  1.675
16819 1  -55.226091 -12.582249  1.675
16820 1  -54.002893 -11.861009  1.675
16821 1  -56.436277 -14.723429  1.675
16822 1  -57.672487 -14.024728  1.675
16823 1  -57.685500 -12.604788  1.675
16824 1  -56.462302 -11.883548  1.675
16825 1  -58.895686 -14.745968  1.675
16826 1  -60.131896 -14.047267  1.675
16827 1  -60.144909 -12.627326  1.675
16828 1  -58.921711 -11.906087  1.675
16829 1  -61.355094 -14.768506  1.675
16830 1  -62.591305 -14.069806  1.675
16831 1  -62.604318 -12.649865  1.675
16832 1  -61.381120 -11.928626  1.675
16833 1  -63.814503 -14.791045  1.675
16834 1  -65.050714 -14.092344  1.675
16835 1  -65.063727 -12.672404  1.675
16836 1  -63.840529 -11.951164  1.675
16837 1  -66.273912 -14.813584  1.675
16838 1  -67.510123 -14.114883  1.675
16839 1  -67.523136 -12.694943  1.675
16840 1  -66.299938 -11.973703  1.675
16841 1  -68.733321 -14.836123  1.675
16842 1  -69.969532 -14.137422  1.675
16843 1  -69.982545 -12.717481  1.675
16844 1  -68.759346 -11.996242  1.675
16845 1  -71.192730 -14.858661  1.675
16846 1  -72.428941 -14.159960  1.675
16847 1  -72.441953 -12.740020  1.675
16848 1  -71.218755 -12.018781  1.675
16849 1  -73.652139 -14.881200  1.675
16850 1  -74.888350 -14.182499  1.675
16851 1  -74.901362 -12.762559  1.675
16852 1  -73.678164 -12.041319  1.675
16853 1  -76.111548 -14.903739  1.675
16854 1  -77.347758 -14.205038  1.675
16855 1  -77.360771 -12.785098  1.675
16856 1  -76.137573 -12.063858  1.675
16857 1  -78.570956 -14.926278  1.675
16858 1  -79.807167 -14.227577  1.675
16859 1  -79.820180 -12.807636  1.675
16860 1  -78.596982 -12.086397  1.675
16861 1  -81.030365 -14.948816  1.675
16862 1  -82.266576 -14.250115  1.675
16863 1  -82.279589 -12.830175  1.675
16864 1  -81.056391 -12.108936  1.675
16865 1  -83.489774 -14.971355  1.675
16866 1  -84.725985 -14.272654  1.675
16867 1  -84.738998 -12.852714  1.675
16868 1  -83.515800 -12.131474  1.675
16869 1  -85.949183 -14.993894  1.675
16870 1  -87.185394 -14.295193  1.675
16871 1  -87.198407 -12.875253  1.675
16872 1  -85.975209 -12.154013  1.675
16873 1  -88.408592 -15.016432  1.675
16874 1  -89.644803 -14.317732  1.675
16875 1  -89.657816 -12.897791  1.675
16876 1  -88.434617 -12.176552  1.675
16877 1  -90.868001 -15.038971  1.675
16878 1  -92.104212 -14.340270  1.675
16879 1  -92.117224 -12.920330  1.675
16880 1  -90.894026 -12.199090  1.675
16881 1  -93.327410 -15.061510  1.675
16882 1  -94.563621 -14.362809  1.675
16883 1  -94.576633 -12.942869  1.675
16884 1  -93.353435 -12.221629  1.675
16885 1  -95.786819 -15.084049  1.675
16886 1  -97.023029 -14.385348  1.675
16887 1  -97.036042 -12.965407  1.675
16888 1  -95.812844 -12.244168  1.675
16889 1  -98.246227 -15.106587  1.675
16890 1  -99.482438 -14.407887  1.675
16891 1  -99.495451 -12.987946  1.675
16892 1  -98.272253 -12.266707  1.675
16893 1 -100.705636 -15.129126  1.675
16894 1 -101.941847 -14.430425  1.675
16895 1 -101.954860 -13.010485  1.675
16896 1 -100.731662 -12.289245  1.675
16897 1 -103.165045 -15.151665  1.675
16898 1 -104.401256 -14.452964  1.675
16899 1 -104.414269 -13.033024  1.675
16900 1 -103.191071 -12.311784  1.675
16901 1 -105.624454 -15.174204  1.675
16902 1 -106.860665 -14.475503  1.675
16903 1 -106.873678 -13.055562  1.675
16904 1 -105.650480 -12.334323  1.675
16905 1 -108.083863 -15.196742  1.675
16906 1 -109.320074 -14.498042  1.675
16907 1 -109.333087 -13.078101  1.675
16908 1 -108.109888 -12.356862  1.675
16909 1 -110.543272 -15.219281  1.675
16910 1 -111.779483 -14.520580  1.675
16911 1 -111.792495 -13.100640  1.675
16912 1 -110.569297 -12.379400  1.675
16913 1 -113.002681 -15.241820  1.675
16914 1 -114.238892 -14.543119  1.675
16915 1 -114.251904 -13.123179  1.675
16916 1 -113.028706 -12.401939  1.675
16917 1 -115.462090 -15.264359  1.675
16918 1 -115.488115 -12.424478  1.675
16919 1  115.683306  -8.885896  1.675
16920 1  114.447095  -8.187195  1.675
16921 1  114.434083  -6.767255  1.675
16922 1  115.657281  -6.046015  1.675
16923 1  113.223897  -8.908435  1.675
16924 1  111.987687  -8.209734  1.675
16925 1  111.974674  -6.789794  1.675
16926 1  113.197872  -6.068554  1.675
16927 1  110.764489  -8.930974  1.675
16928 1  109.528278  -8.232273  1.675
16929 1  109.515265  -6.812333  1.675
16930 1  110.738463  -6.091093  1.675
16931 1  108.305080  -8.953512  1.675
16932 1  107.068869  -8.254812  1.675
16933 1  107.055856  -6.834871  1.675
16934 1  108.279054  -6.113632  1.675
16935 1  105.845671  -8.976051  1.675
16936 1  104.609460  -8.277350  1.675
16937 1  104.596447  -6.857410  1.675
16938 1  105.819645  -6.136170  1.675
16939 1  103.386262  -8.998590  1.675
16940 1  102.150051  -8.299889  1.675
16941 1  102.137038  -6.879949  1.675
16942 1  103.360236  -6.158709  1.675
16943 1  100.926853  -9.021129  1.675
16944 1   99.690642  -8.322428  1.675
16945 1   99.677629  -6.902487  1.675
16946 1  100.900828  -6.181248  1.675
16947 1   98.467444  -9.043667  1.675
16948 1   97.231233  -8.344967  1.675
16949 1   97.218221  -6.925026  1.675
16950 1   98.441419  -6.203787  1.675
16951 1   96.008035  -9.066206  1.675
16952 1   94.771824  -8.367505  1.675
16953 1   94.758812  -6.947565  1.675
16954 1   95.982010  -6.226325  1.675
16955 1   93.548626  -9.088745  1.675
16956 1   92.312416  -8.390044  1.675
16957 1   92.299403  -6.970104  1.675
16958 1   93.522601  -6.248864  1.675
16959 1   91.089218  -9.111284  1.675
16960 1   89.853007  -8.412583  1.675
16961 1   89.839994  -6.992642  1.675
16962 1   91.063192  -6.271403  1.675
16963 1   88.629809  -9.133822  1.675
16964 1   87.393598  -8.435122  1.675
16965 1   87.380585  -7.015181  1.675
16966 1   88.603783  -6.293942  1.675
16967 1   86.170400  -9.156361  1.675
16968 1   84.934189  -8.457660  1.675
16969 1   84.921176  -7.037720  1.675
16970 1   86.144374  -6.316480  1.675
16971 1   83.710991  -9.178900  1.675
16972 1   82.474780  -8.480199  1.675
16973 1   82.461767  -7.060259  1.675
16974 1   83.684965  -6.339019  1.675
16975 1   81.251582  -9.201439  1.675
16976 1   80.015371  -8.502738  1.675
16977 1   80.002358  -7.082797  1.675
16978 1   81.225557  -6.361558  1.675
16979 1   78.792173  -9.223977  1.675
16980 1   77.555962  -8.525276  1.675
16981 1   77.542950  -7.105336  1.675
16982 1   78.766148  -6.384097  1.675
16983 1   76.332764  -9.246516  1.675
16984 1   75.096553  -8.547815  1.675
16985 1   75.083541  -7.127875  1.675
16986 1   76.306739  -6.406635  1.675
16987 1   73.873355  -9.269055  1.675
16988 1   72.637145  -8.570354  1.675
16989 1   72.624132  -7.150414  1.675
16990 1   73.847330  -6.429174  1.675
16991 1   71.413947  -9.291593  1.675
16992 1   70.177736  -8.592893  1.675
16993 1   70.164723  -7.172952  1.675
16994 1   71.387921  -6.451713  1.675
16995 1   68.954538  -9.314132  1.675
16996 1   67.718327  -8.615431  1.675
16997 1   67.705314  -7.195491  1.675
16998 1   68.928512  -6.474251  1.675
16999 1   66.495129  -9.336671  1.675
17000 1   65.258918  -8.637970  1.675
17001 1   65.245905  -7.218030  1.675
17002 1   66.469103  -6.496790  1.675
17003 1   64.035720  -9.359210  1.675
17004 1   62.799509  -8.660509  1.675
17005 1   62.786496  -7.240569  1.675
17006 1   64.009694  -6.519329  1.675
17007 1   61.576311  -9.381748  1.675
17008 1   60.340100  -8.683048  1.675
17009 1   60.327087  -7.263107  1.675
17010 1   61.550286  -6.541868  1.675
17011 1   59.116902  -9.404287  1.675
17012 1   57.880691  -8.705586  1.675
17013 1   57.867679  -7.285646  1.675
17014 1   59.090877  -6.564406  1.675
17015 1   56.657493  -9.426826  1.675
17016 1   55.421282  -8.728125  1.675
17017 1   55.408270  -7.308185  1.675
17018 1   56.631468  -6.586945  1.675
17019 1   54.198084  -9.449365  1.675
17020 1   52.961874  -8.750664  1.675
17021 1   52.948861  -7.330723  1.675
17022 1   54.172059  -6.609484  1.675
17023 1   51.738676  -9.471903  1.675
17024 1   50.502465  -8.773203  1.675
17025 1   50.489452  -7.353262  1.675
17026 1   51.712650  -6.632023  1.675
17027 1   49.279267  -9.494442  1.675
17028 1   48.043056  -8.795741  1.675
17029 1   48.030043  -7.375801  1.675
17030 1   49.253241  -6.654561  1.675
17031 1   46.819858  -9.516981  1.675
17032 1   45.583647  -8.818280  1.675
17033 1   45.570634  -7.398340  1.675
17034 1   46.793832  -6.677100  1.675
17035 1   44.360449  -9.539520  1.675
17036 1   43.124238  -8.840819  1.675
17037 1   43.111225  -7.420878  1.675
17038 1   44.334423  -6.699639  1.675
17039 1   41.901040  -9.562058  1.675
17040 1   40.664829  -8.863358  1.675
17041 1   40.651817  -7.443417  1.675
17042 1   41.875015  -6.722178  1.675
17043 1   39.441631  -9.584597  1.675
17044 1   38.205420  -8.885896  1.675
17045 1   38.192408  -7.465956  1.675
17046 1   39.415606  -6.744716  1.675
17047 1   36.982222  -9.607136  1.675
17048 1   35.746012  -8.908435  1.675
17049 1   35.732999  -7.488495  1.675
17050 1   36.956197  -6.767255  1.675
17051 1   34.522813  -9.629675  1.675
17052 1   33.286603  -8.930974  1.675
17053 1   33.273590  -7.511033  1.675
17054 1   34.496788  -6.789794  1.675
17055 1   32.063405  -9.652213  1.675
17056 1   30.827194  -8.953512  1.675
17057 1   30.814181  -7.533572  1.675
17058 1   32.037379  -6.812333  1.675
17059 1   29.603996  -9.674752  1.675
17060 1   28.367785  -8.976051  1.675
17061 1   28.354772  -7.556111  1.675
17062 1   29.577970  -6.834871  1.675
17063 1   27.144587  -9.697291  1.675
17064 1   25.908376  -8.998590  1.675
17065 1   25.895363  -7.578650  1.675
17066 1   27.118561  -6.857410  1.675
17067 1   24.685178  -9.719829  1.675
17068 1   23.448967  -9.021129  1.675
17069 1   23.435954  -7.601188  1.675
17070 1   24.659152  -6.879949  1.675
17071 1   22.225769  -9.742368  1.675
17072 1   20.989558  -9.043667  1.675
17073 1   20.976546  -7.623727  1.675
17074 1   22.199744  -6.902487  1.675
17075 1   19.766360  -9.764907  1.675
17076 1   18.530149  -9.066206  1.675
17077 1   18.517137  -7.646266  1.675
17078 1   19.740335  -6.925026  1.675
17079 1   17.306951  -9.787446  1.675
17080 1   16.070741  -9.088745  1.675
17081 1   16.057728  -7.668804  1.675
17082 1   17.280926  -6.947565  1.675
17083 1   14.847542  -9.809984  1.675
17084 1   13.611332  -9.111284  1.675
17085 1   13.598319  -7.691343  1.675
17086 1   14.821517  -6.970104  1.675
17087 1   12.388134  -9.832523  1.675
17088 1   11.151923  -9.133822  1.675
17089 1   11.138910  -7.713882  1.675
17090 1   12.362108  -6.992642  1.675
17091 1    9.928725  -9.855062  1.675
17092 1    8.692514  -9.156361  1.675
17093 1    8.679501  -7.736421  1.675
17094 1    9.902699  -7.015181  1.675
17095 1    7.469316  -9.877601  1.675
17096 1    6.233105  -9.178900  1.675
17097 1    6.220092  -7.758959  1.675
17098 1    7.443290  -7.037720  1.675
17099 1    5.009907  -9.900139  1.675
17100 1    3.773696  -9.201439  1.675
17101 1    3.760683  -7.781498  1.675
17102 1    4.983881  -7.060259  1.675
17103 1    2.550498  -9.922678  1.675
17104 1    1.314287  -9.223977  1.675
17105 1    1.301275  -7.804037  1.675
17106 1    2.524473  -7.082797  1.675
17107 1    0.091089  -9.945217  1.675
17108 1   -1.145122  -9.246516  1.675
17109 1   -1.158134  -7.826576  1.675
17110 1    0.065064  -7.105336  1.675
17111 1   -2.368320  -9.967756  1.675
17112 1   -3.604530  -9.269055  1.675
17113 1   -3.617543  -7.849114  1.675
17114 1   -2.394345  -7.127875  1.675
17115 1   -4.827729  -9.990294  1.675
17116 1   -6.063939  -9.291593  1.675
17117 1   -6.076952  -7.871653  1.675
17118 1   -4.853754  -7.150414  1.675
17119 1   -7.287137 -10.012833  1.675
17120 1   -8.523348  -9.314132  1.675
17121 1   -8.536361  -7.894192  1.675
17122 1   -7.313163  -7.172952  1.675
17123 1   -9.746546 -10.035372  1.675
17124 1  -10.982757  -9.336671  1.675
17125 1  -10.995770  -7.916731  1.675
17126 1   -9.772572  -7.195491  1.675
17127 1  -12.205955 -10.057911  1.675
17128 1  -13.442166  -9.359210  1.675
17129 1  -13.455179  -7.939269  1.675
17130 1  -12.231981  -7.218030  1.675
17131 1  -14.665364 -10.080449  1.675
17132 1  -15.901575  -9.381748  1.675
17133 1  -15.914588  -7.961808  1.675
17134 1  -14.691390  -7.240569  1.675
17135 1  -17.124773 -10.102988  1.675
17136 1  -18.360984  -9.404287  1.675
17137 1  -18.373996  -7.984347  1.675
17138 1  -17.150798  -7.263107  1.675
17139 1  -19.584182 -10.125527  1.675
17140 1  -20.820393  -9.426826  1.675
17141 1  -20.833405  -8.006886  1.675
17142 1  -19.610207  -7.285646  1.675
17143 1  -22.043591 -10.148065  1.675
17144 1  -23.279801  -9.449365  1.675
17145 1  -23.292814  -8.029424  1.675
17146 1  -22.069616  -7.308185  1.675
17147 1  -24.503000 -10.170604  1.675
17148 1  -25.739210  -9.471903  1.675
17149 1  -25.752223  -8.051963  1.675
17150 1  -24.529025  -7.330723  1.675
17151 1  -26.962408 -10.193143  1.675
17152 1  -28.198619  -9.494442  1.675
17153 1  -28.211632  -8.074502  1.675
17154 1  -26.988434  -7.353262  1.675
17155 1  -29.421817 -10.215682  1.675
17156 1  -30.658028  -9.516981  1.675
17157 1  -30.671041  -8.097040  1.675
17158 1  -29.447843  -7.375801  1.675
17159 1  -31.881226 -10.238220  1.675
17160 1  -33.117437  -9.539520  1.675
17161 1  -33.130450  -8.119579  1.675
17162 1  -31.907252  -7.398340  1.675
17163 1  -34.340635 -10.260759  1.675
17164 1  -35.576846  -9.562058  1.675
17165 1  -35.589859  -8.142118  1.675
17166 1  -34.366660  -7.420878  1.675
17167 1  -36.800044 -10.283298  1.675
17168 1  -38.036255  -9.584597  1.675
17169 1  -38.049267  -8.164657  1.675
17170 1  -36.826069  -7.443417  1.675
17171 1  -39.259453 -10.305837  1.675
17172 1  -40.495664  -9.607136  1.675
17173 1  -40.508676  -8.187195  1.675
17174 1  -39.285478  -7.465956  1.675
17175 1  -41.718862 -10.328375  1.675
17176 1  -42.955072  -9.629675  1.675
17177 1  -42.968085  -8.209734  1.675
17178 1  -41.744887  -7.488495  1.675
17179 1  -44.178270 -10.350914  1.675
17180 1  -45.414481  -9.652213  1.675
17181 1  -45.427494  -8.232273  1.675
17182 1  -44.204296  -7.511033  1.675
17183 1  -46.637679 -10.373453  1.675
17184 1  -47.873890  -9.674752  1.675
17185 1  -47.886903  -8.254812  1.675
17186 1  -46.663705  -7.533572  1.675
17187 1  -49.097088 -10.395992  1.675
17188 1  -50.333299  -9.697291  1.675
17189 1  -50.346312  -8.277350  1.675
17190 1  -49.123114  -7.556111  1.675
17191 1  -51.556497 -10.418530  1.675
17192 1  -52.792708  -9.719829  1.675
17193 1  -52.805721  -8.299889  1.675
17194 1  -51.582523  -7.578650  1.675
17195 1  -54.015906 -10.441069  1.675
17196 1  -55.252117  -9.742368  1.675
17197 1  -55.265130  -8.322428  1.675
17198 1  -54.041931  -7.601188  1.675
17199 1  -56.475315 -10.463608  1.675
17200 1  -57.711526  -9.764907  1.675
17201 1  -57.724538  -8.344967  1.675
17202 1  -56.501340  -7.623727  1.675
17203 1  -58.934724 -10.486147  1.675
17204 1  -60.170935  -9.787446  1.675
17205 1  -60.183947  -8.367505  1.675
17206 1  -58.960749  -7.646266  1.675
17207 1  -61.394133 -10.508685  1.675
17208 1  -62.630343  -9.809984  1.675
17209 1  -62.643356  -8.390044  1.675
17210 1  -61.420158  -7.668804  1.675
17211 1  -63.853541 -10.531224  1.675
17212 1  -65.089752  -9.832523  1.675
17213 1  -65.102765  -8.412583  1.675
17214 1  -63.879567  -7.691343  1.675
17215 1  -66.312950 -10.553763  1.675
17216 1  -67.549161  -9.855062  1.675
17217 1  -67.562174  -8.435122  1.675
17218 1  -66.338976  -7.713882  1.675
17219 1  -68.772359 -10.576301  1.675
17220 1  -70.008570  -9.877601  1.675
17221 1  -70.021583  -8.457660  1.675
17222 1  -68.798385  -7.736421  1.675
17223 1  -71.231768 -10.598840  1.675
17224 1  -72.467979  -9.900139  1.675
17225 1  -72.480992  -8.480199  1.675
17226 1  -71.257794  -7.758959  1.675
17227 1  -73.691177 -10.621379  1.675
17228 1  -74.927388  -9.922678  1.675
17229 1  -74.940401  -8.502738  1.675
17230 1  -73.717202  -7.781498  1.675
17231 1  -76.150586 -10.643918  1.675
17232 1  -77.386797  -9.945217  1.675
17233 1  -77.399809  -8.525276  1.675
17234 1  -76.176611  -7.804037  1.675
17235 1  -78.609995 -10.666456  1.675
17236 1  -79.846206  -9.967756  1.675
17237 1  -79.859218  -8.547815  1.675
17238 1  -78.636020  -7.826576  1.675
17239 1  -81.069404 -10.688995  1.675
17240 1  -82.305614  -9.990294  1.675
17241 1  -82.318627  -8.570354  1.675
17242 1  -81.095429  -7.849114  1.675
17243 1  -83.528812 -10.711534  1.675
17244 1  -84.765023 -10.012833  1.675
17245 1  -84.778036  -8.592893  1.675
17246 1  -83.554838  -7.871653  1.675
17247 1  -85.988221 -10.734073  1.675
17248 1  -87.224432 -10.035372  1.675
17249 1  -87.237445  -8.615431  1.675
17250 1  -86.014247  -7.894192  1.675
17251 1  -88.447630 -10.756611  1.675
17252 1  -89.683841 -10.057911  1.675
17253 1  -89.696854  -8.637970  1.675
17254 1  -88.473656  -7.916731  1.675
17255 1  -90.907039 -10.779150  1.675
17256 1  -92.143250 -10.080449  1.675
17257 1  -92.156263  -8.660509  1.675
17258 1  -90.933065  -7.939269  1.675
17259 1  -93.366448 -10.801689  1.675
17260 1  -94.602659 -10.102988  1.675
17261 1  -94.615672  -8.683048  1.675
17262 1  -93.392473  -7.961808  1.675
17263 1  -95.825857 -10.824228  1.675
17264 1  -97.062068 -10.125527  1.675
17265 1  -97.075080  -8.705586  1.675
17266 1  -95.851882  -7.984347  1.675
17267 1  -98.285266 -10.846766  1.675
17268 1  -99.521477 -10.148065  1.675
17269 1  -99.534489  -8.728125  1.675
17270 1  -98.311291  -8.006886  1.675
17271 1 -100.744675 -10.869305  1.675
17272 1 -101.980885 -10.170604  1.675
17273 1 -101.993898  -8.750664  1.675
17274 1 -100.770700  -8.029424  1.675
17275 1 -103.204083 -10.891844  1.675
17276 1 -104.440294 -10.193143  1.675
17277 1 -104.453307  -8.773203  1.675
17278 1 -103.230109  -8.051963  1.675
17279 1 -105.663492 -10.914382  1.675
17280 1 -106.899703 -10.215682  1.675
17281 1 -106.912716  -8.795741  1.675
17282 1 -105.689518  -8.074502  1.675
17283 1 -108.122901 -10.936921  1.675
17284 1 -109.359112 -10.238220  1.675
17285 1 -109.372125  -8.818280  1.675
17286 1 -108.148927  -8.097040  1.675
17287 1 -110.582310 -10.959460  1.675
17288 1 -111.818521 -10.260759  1.675
17289 1 -111.831534  -8.840819  1.675
17290 1 -110.608336  -8.119579  1.675
17291 1 -113.041719 -10.981999  1.675
17292 1 -114.277930 -10.283298  1.675
17293 1 -114.290943  -8.863358  1.675
17294 1 -113.067744  -8.142118  1.675
17295 1 -115.501128 -11.004537  1.675
17296 1 -115.527153  -8.164657  1.675
17297 1  115.644268  -4.626075  1.675
17298 1  114.408057  -3.927374  1.675
17299 1  114.395044  -2.507434  1.675
17300 1  115.618243  -1.786194  1.675
17301 1  113.184859  -4.648614  1.675
17302 1  111.948648  -3.949913  1.675
17303 1  111.935636  -2.529973  1.675
17304 1  113.158834  -1.808733  1.675
17305 1  110.725450  -4.671153  1.675
17306 1  109.489239  -3.972452  1.675
17307 1  109.476227  -2.552511  1.675
17308 1  110.699425  -1.831272  1.675
17309 1  108.266041  -4.693691  1.675
17310 1  107.029831  -3.994991  1.675
17311 1  107.016818  -2.575050  1.675
17312 1  108.240016  -1.853811  1.675
17313 1  105.806633  -4.716230  1.675
17314 1  104.570422  -4.017529  1.675
17315 1  104.557409  -2.597589  1.675
17316 1  105.780607  -1.876349  1.675
17317 1  103.347224  -4.738769  1.675
17318 1  102.111013  -4.040068  1.675
17319 1  102.098000  -2.620128  1.675
17320 1  103.321198  -1.898888  1.675
17321 1  100.887815  -4.761308  1.675
17322 1   99.651604  -4.062607  1.675
17323 1   99.638591  -2.642666  1.675
17324 1  100.861789  -1.921427  1.675
17325 1   98.428406  -4.783846  1.675
17326 1   97.192195  -4.085145  1.675
17327 1   97.179182  -2.665205  1.675
17328 1   98.402380  -1.943966  1.675
17329 1   95.968997  -4.806385  1.675
17330 1   94.732786  -4.107684  1.675
17331 1   94.719773  -2.687744  1.675
17332 1   95.942972  -1.966504  1.675
17333 1   93.509588  -4.828924  1.675
17334 1   92.273377  -4.130223  1.675
17335 1   92.260365  -2.710283  1.675
17336 1   93.483563  -1.989043  1.675
17337 1   91.050179  -4.851462  1.675
17338 1   89.813968  -4.152762  1.675
17339 1   89.800956  -2.732821  1.675
17340 1   91.024154  -2.011582  1.675
17341 1   88.590770  -4.874001  1.675
17342 1   87.354560  -4.175300  1.675
17343 1   87.341547  -2.755360  1.675
17344 1   88.564745  -2.034120  1.675
17345 1   86.131362  -4.896540  1.675
17346 1   84.895151  -4.197839  1.675
17347 1   84.882138  -2.777899  1.675
17348 1   86.105336  -2.056659  1.675
17349 1   83.671953  -4.919079  1.675
17350 1   82.435742  -4.220378  1.675
17351 1   82.422729  -2.800437  1.675
17352 1   83.645927  -2.079198  1.675
17353 1   81.212544  -4.941617  1.675
17354 1   79.976333  -4.242917  1.675
17355 1   79.963320  -2.822976  1.675
17356 1   81.186518  -2.101737  1.675
17357 1   78.753135  -4.964156  1.675
17358 1   77.516924  -4.265455  1.675
17359 1   77.503911  -2.845515  1.675
17360 1   78.727109  -2.124275  1.675
17361 1   76.293726  -4.986695  1.675
17362 1   75.057515  -4.287994  1.675
17363 1   75.044502  -2.868054  1.675
17364 1   76.267701  -2.146814  1.675
17365 1   73.834317  -5.009234  1.675
17366 1   72.598106  -4.310533  1.675
17367 1   72.585094  -2.890592  1.675
17368 1   73.808292  -2.169353  1.675
17369 1   71.374908  -5.031772  1.675
17370 1   70.138697  -4.333072  1.675
17371 1   70.125685  -2.913131  1.675
17372 1   71.348883  -2.191892  1.675
17373 1   68.915499  -5.054311  1.675
17374 1   67.679289  -4.355610  1.675
17375 1   67.666276  -2.935670  1.675
17376 1   68.889474  -2.214430  1.675
17377 1   66.456091  -5.076850  1.675
17378 1   65.219880  -4.378149  1.675
17379 1   65.206867  -2.958209  1.675
17380 1   66.430065  -2.236969  1.675
17381 1   63.996682  -5.099389  1.675
17382 1   62.760471  -4.400688  1.675
17383 1   62.747458  -2.980747  1.675
17384 1   63.970656  -2.259508  1.675
17385 1   61.537273  -5.121927  1.675
17386 1   60.301062  -4.423226  1.675
17387 1   60.288049  -3.003286  1.675
17388 1   61.511247  -2.282047  1.675
17389 1   59.077864  -5.144466  1.675
17390 1   57.841653  -4.445765  1.675
17391 1   57.828640  -3.025825  1.675
17392 1   59.051838  -2.304585  1.675
17393 1   56.618455  -5.167005  1.675
17394 1   55.382244  -4.468304  1.675
17395 1   55.369232  -3.048364  1.675
17396 1   56.592430  -2.327124  1.675
17397 1   54.159046  -5.189544  1.675
17398 1   52.922835  -4.490843  1.675
17399 1   52.909823  -3.070902  1.675
17400 1   54.133021  -2.349663  1.675
17401 1   51.699637  -5.212082  1.675
17402 1   50.463427  -4.513381  1.675
17403 1   50.450414  -3.093441  1.675
17404 1   51.673612  -2.372202  1.675
17405 1   49.240228  -5.234621  1.675
17406 1   48.004018  -4.535920  1.675
17407 1   47.991005  -3.115980  1.675
17408 1   49.214203  -2.394740  1.675
17409 1   46.780820  -5.257160  1.675
17410 1   45.544609  -4.558459  1.675
17411 1   45.531596  -3.138519  1.675
17412 1   46.754794  -2.417279  1.675
17413 1   44.321411  -5.279698  1.675
17414 1   43.085200  -4.580998  1.675
17415 1   43.072187  -3.161057  1.675
17416 1   44.295385  -2.439818  1.675
17417 1   41.862002  -5.302237  1.675
17418 1   40.625791  -4.603536  1.675
17419 1   40.612778  -3.183596  1.675
17420 1   41.835976  -2.462356  1.675
17421 1   39.402593  -5.324776  1.675
17422 1   38.166382  -4.626075  1.675
17423 1   38.153369  -3.206135  1.675
17424 1   39.376567  -2.484895  1.675
17425 1   36.943184  -5.347315  1.675
17426 1   35.706973  -4.648614  1.675
17427 1   35.693961  -3.228673  1.675
17428 1   36.917159  -2.507434  1.675
17429 1   34.483775  -5.369853  1.675
17430 1   33.247564  -4.671153  1.675
17431 1   33.234552  -3.251212  1.675
17432 1   34.457750  -2.529973  1.675
17433 1   32.024366  -5.392392  1.675
17434 1   30.788156  -4.693691  1.675
17435 1   30.775143  -3.273751  1.675
17436 1   31.998341  -2.552511  1.675
17437 1   29.564957  -5.414931  1.675
17438 1   28.328747  -4.716230  1.675
17439 1   28.315734  -3.296290  1.675
17440 1   29.538932  -2.575050  1.675
17441 1   27.105549  -5.437470  1.675
17442 1   25.869338  -4.738769  1.675
17443 1   25.856325  -3.318828  1.675
17444 1   27.079523  -2.597589  1.675
17445 1   24.646140  -5.460008  1.675
17446 1   23.409929  -4.761308  1.675
17447 1   23.396916  -3.341367  1.675
17448 1   24.620114  -2.620128  1.675
17449 1   22.186731  -5.482547  1.675
17450 1   20.950520  -4.783846  1.675
17451 1   20.937507  -3.363906  1.675
17452 1   22.160705  -2.642666  1.675
17453 1   19.727322  -5.505086  1.675
17454 1   18.491111  -4.806385  1.675
17455 1   18.478098  -3.386445  1.675
17456 1   19.701296  -2.665205  1.675
17457 1   17.267913  -5.527625  1.675
17458 1   16.031702  -4.828924  1.675
17459 1   16.018690  -3.408983  1.675
17460 1   17.241888  -2.687744  1.675
17461 1   14.808504  -5.550163  1.675
17462 1   13.572293  -4.851462  1.675
17463 1   13.559281  -3.431522  1.675
17464 1   14.782479  -2.710283  1.675
17465 1   12.349095  -5.572702  1.675
17466 1   11.112885  -4.874001  1.675
17467 1   11.099872  -3.454061  1.675
17468 1   12.323070  -2.732821  1.675
17469 1    9.889686  -5.595241  1.675
17470 1    8.653476  -4.896540  1.675
17471 1    8.640463  -3.476600  1.675
17472 1    9.863661  -2.755360  1.675
17473 1    7.430278  -5.617780  1.675
17474 1    6.194067  -4.919079  1.675
17475 1    6.181054  -3.499138  1.675
17476 1    7.404252  -2.777899  1.675
17477 1    4.970869  -5.640318  1.675
17478 1    3.734658  -4.941617  1.675
17479 1    3.721645  -3.521677  1.675
17480 1    4.944843  -2.800437  1.675
17481 1    2.511460  -5.662857  1.675
17482 1    1.275249  -4.964156  1.675
17483 1    1.262236  -3.544216  1.675
17484 1    2.485434  -2.822976  1.675
17485 1    0.052051  -5.685396  1.675
17486 1   -1.184160  -4.986695  1.675
17487 1   -1.197173  -3.566755  1.675
17488 1    0.026025  -2.845515  1.675
17489 1   -2.407358  -5.707934  1.675
17490 1   -3.643569  -5.009234  1.675
17491 1   -3.656581  -3.589293  1.675
17492 1   -2.433383  -2.868054  1.675
17493 1   -4.866767  -5.730473  1.675
17494 1   -6.102978  -5.031772  1.675
17495 1   -6.115990  -3.611832  1.675
17496 1   -4.892792  -2.890592  1.675
17497 1   -7.326176  -5.753012  1.675
17498 1   -8.562386  -5.054311  1.675
17499 1   -8.575399  -3.634371  1.675
17500 1   -7.352201  -2.913131  1.675
17501 1   -9.785585  -5.775551  1.675
17502 1  -11.021795  -5.076850  1.675
17503 1  -11.034808  -3.656909  1.675
17504 1   -9.811610  -2.935670  1.675
17505 1  -12.244993  -5.798089  1.675
17506 1  -13.481204  -5.099389  1.675
17507 1  -13.494217  -3.679448  1.675
17508 1  -12.271019  -2.958209  1.675
17509 1  -14.704402  -5.820628  1.675
17510 1  -15.940613  -5.121927  1.675
17511 1  -15.953626  -3.701987  1.675
17512 1  -14.730428  -2.980747  1.675
17513 1  -17.163811  -5.843167  1.675
17514 1  -18.400022  -5.144466  1.675
17515 1  -18.413035  -3.724526  1.675
17516 1  -17.189837  -3.003286  1.675
17517 1  -19.623220  -5.865706  1.675
17518 1  -20.859431  -5.167005  1.675
17519 1  -20.872444  -3.747064  1.675
17520 1  -19.649245  -3.025825  1.675
17521 1  -22.082629  -5.888244  1.675
17522 1  -23.318840  -5.189544  1.675
17523 1  -23.331852  -3.769603  1.675
17524 1  -22.108654  -3.048364  1.675
17525 1  -24.542038  -5.910783  1.675
17526 1  -25.778249  -5.212082  1.675
17527 1  -25.791261  -3.792142  1.675
17528 1  -24.568063  -3.070902  1.675
17529 1  -27.001447  -5.933322  1.675
17530 1  -28.237657  -5.234621  1.675
17531 1  -28.250670  -3.814681  1.675
17532 1  -27.027472  -3.093441  1.675
17533 1  -29.460855  -5.955861  1.675
17534 1  -30.697066  -5.257160  1.675
17535 1  -30.710079  -3.837219  1.675
17536 1  -29.486881  -3.115980  1.675
17537 1  -31.920264  -5.978399  1.675
17538 1  -33.156475  -5.279698  1.675
17539 1  -33.169488  -3.859758  1.675
17540 1  -31.946290  -3.138519  1.675
17541 1  -34.379673  -6.000938  1.675
17542 1  -35.615884  -5.302237  1.675
17543 1  -35.628897  -3.882297  1.675
17544 1  -34.405699  -3.161057  1.675
17545 1  -36.839082  -6.023477  1.675
17546 1  -38.075293  -5.324776  1.675
17547 1  -38.088306  -3.904836  1.675
17548 1  -36.865108  -3.183596  1.675
17549 1  -39.298491  -6.046015  1.675
17550 1  -40.534702  -5.347315  1.675
17551 1  -40.547715  -3.927374  1.675
17552 1  -39.324516  -3.206135  1.675
17553 1  -41.757900  -6.068554  1.675
17554 1  -42.994111  -5.369853  1.675
17555 1  -43.007123  -3.949913  1.675
17556 1  -41.783925  -3.228673  1.675
17557 1  -44.217309  -6.091093  1.675
17558 1  -45.453520  -5.392392  1.675
17559 1  -45.466532  -3.972452  1.675
17560 1  -44.243334  -3.251212  1.675
17561 1  -46.676718  -6.113632  1.675
17562 1  -47.912928  -5.414931  1.675
17563 1  -47.925941  -3.994991  1.675
17564 1  -46.702743  -3.273751  1.675
17565 1  -49.136126  -6.136170  1.675
17566 1  -50.372337  -5.437470  1.675
17567 1  -50.385350  -4.017529  1.675
17568 1  -49.162152  -3.296290  1.675
17569 1  -51.595535  -6.158709  1.675
17570 1  -52.831746  -5.460008  1.675
17571 1  -52.844759  -4.040068  1.675
17572 1  -51.621561  -3.318828  1.675
17573 1  -54.054944  -6.181248  1.675
17574 1  -55.291155  -5.482547  1.675
17575 1  -55.304168  -4.062607  1.675
17576 1  -54.080970  -3.341367  1.675
17577 1  -56.514353  -6.203787  1.675
17578 1  -57.750564  -5.505086  1.675
17579 1  -57.763577  -4.085145  1.675
17580 1  -56.540379  -3.363906  1.675
17581 1  -58.973762  -6.226325  1.675
17582 1  -60.209973  -5.527625  1.675
17583 1  -60.222986  -4.107684  1.675
17584 1  -58.999787  -3.386445  1.675
17585 1  -61.433171  -6.248864  1.675
17586 1  -62.669382  -5.550163  1.675
17587 1  -62.682394  -4.130223  1.675
17588 1  -61.459196  -3.408983  1.675
17589 1  -63.892580  -6.271403  1.675
17590 1  -65.128791  -5.572702  1.675
17591 1  -65.141803  -4.152762  1.675
17592 1  -63.918605  -3.431522  1.675
17593 1  -66.351989  -6.293942  1.675
17594 1  -67.588199  -5.595241  1.675
17595 1  -67.601212  -4.175300  1.675
17596 1  -66.378014  -3.454061  1.675
17597 1  -68.811397  -6.316480  1.675
17598 1  -70.047608  -5.617780  1.675
17599 1  -70.060621  -4.197839  1.675
17600 1  -68.837423  -3.476600  1.675
17601 1  -71.270806  -6.339019  1.675
17602 1  -72.507017  -5.640318  1.675
17603 1  -72.520030  -4.220378  1.675
17604 1  -71.296832  -3.499138  1.675
17605 1  -73.730215  -6.361558  1.675
17606 1  -74.966426  -5.662857  1.675
17607 1  -74.979439  -4.242917  1.675
17608 1  -73.756241  -3.521677  1.675
17609 1  -76.189624  -6.384097  1.675
17610 1  -77.425835  -5.685396  1.675
17611 1  -77.438848  -4.265455  1.675
17612 1  -76.215650  -3.544216  1.675
17613 1  -78.649033  -6.406635  1.675
17614 1  -79.885244  -5.707934  1.675
17615 1  -79.898257  -4.287994  1.675
17616 1  -78.675058  -3.566755  1.675
17617 1  -81.108442  -6.429174  1.675
17618 1  -82.344653  -5.730473  1.675
17619 1  -82.357665  -4.310533  1.675
17620 1  -81.134467  -3.589293  1.675
17621 1  -83.567851  -6.451713  1.675
17622 1  -84.804062  -5.753012  1.675
17623 1  -84.817074  -4.333072  1.675
17624 1  -83.593876  -3.611832  1.675
17625 1  -86.027260  -6.474251  1.675
17626 1  -87.263470  -5.775551  1.675
17627 1  -87.276483  -4.355610  1.675
17628 1  -86.053285  -3.634371  1.675
17629 1  -88.486668  -6.496790  1.675
17630 1  -89.722879  -5.798089  1.675
17631 1  -89.735892  -4.378149  1.675
17632 1  -88.512694  -3.656909  1.675
17633 1  -90.946077  -6.519329  1.675
17634 1  -92.182288  -5.820628  1.675
17635 1  -92.195301  -4.400688  1.675
17636 1  -90.972103  -3.679448  1.675
17637 1  -93.405486  -6.541868  1.675
17638 1  -94.641697  -5.843167  1.675
17639 1  -94.654710  -4.423226  1.675
17640 1  -93.431512  -3.701987  1.675
17641 1  -95.864895  -6.564406  1.675
17642 1  -97.101106  -5.865706  1.675
17643 1  -97.114119  -4.445765  1.675
17644 1  -95.890921  -3.724526  1.675
17645 1  -98.324304  -6.586945  1.675
17646 1  -99.560515  -5.888244  1.675
17647 1  -99.573527  -4.468304  1.675
17648 1  -98.350329  -3.747064  1.675
17649 1 -100.783713  -6.609484  1.675
17650 1 -102.019924  -5.910783  1.675
17651 1 -102.032936  -4.490843  1.675
17652 1 -100.809738  -3.769603  1.675
17653 1 -103.243122  -6.632023  1.675
17654 1 -104.479333  -5.933322  1.675
17655 1 -104.492345  -4.513381  1.675
17656 1 -103.269147  -3.792142  1.675
17657 1 -105.702531  -6.654561  1.675
17658 1 -106.938741  -5.955861  1.675
17659 1 -106.951754  -4.535920  1.675
17660 1 -105.728556  -3.814681  1.675
17661 1 -108.161939  -6.677100  1.675
17662 1 -109.398150  -5.978399  1.675
17663 1 -109.411163  -4.558459  1.675
17664 1 -108.187965  -3.837219  1.675
17665 1 -110.621348  -6.699639  1.675
17666 1 -111.857559  -6.000938  1.675
17667 1 -111.870572  -4.580998  1.675
17668 1 -110.647374  -3.859758  1.675
17669 1 -113.080757  -6.722178  1.675
17670 1 -114.316968  -6.023477  1.675
17671 1 -114.329981  -4.603536  1.675
17672 1 -113.106783  -3.882297  1.675
17673 1 -115.540166  -6.744716  1.675
17674 1 -115.566192  -3.904836  1.675
17675 1  115.605230  -0.366254  1.675
17676 1  114.369019   0.332447  1.675
17677 1  114.356006   1.752387  1.675
17678 1  115.579204   2.473627  1.675
17679 1  113.145821  -0.388793  1.675
17680 1  111.909610   0.309908  1.675
17681 1  111.896597   1.729848  1.675
17682 1  113.119795   2.451088  1.675
17683 1  110.686412  -0.411331  1.675
17684 1  109.450201   0.287369  1.675
17685 1  109.437188   1.707310  1.675
17686 1  110.660387   2.428549  1.675
17687 1  108.227003  -0.433870  1.675
17688 1  106.990792   0.264831  1.675
17689 1  106.977780   1.684771  1.675
17690 1  108.200978   2.406011  1.675
17691 1  105.767594  -0.456409  1.675
17692 1  104.531383   0.242292  1.675
17693 1  104.518371   1.662232  1.675
17694 1  105.741569   2.383472  1.675
17695 1  103.308185  -0.478948  1.675
17696 1  102.071975   0.219753  1.675
17697 1  102.058962   1.639694  1.675
17698 1  103.282160   2.360933  1.675
17699 1  100.848777  -0.501486  1.675
17700 1   99.612566   0.197214  1.675
17701 1   99.599553   1.617155  1.675
17702 1  100.822751   2.338394  1.675
17703 1   98.389368  -0.524025  1.675
17704 1   97.153157   0.174676  1.675
17705 1   97.140144   1.594616  1.675
17706 1   98.363342   2.315856  1.675
17707 1   95.929959  -0.546564  1.675
17708 1   94.693748   0.152137  1.675
17709 1   94.680735   1.572077  1.675
17710 1   95.903933   2.293317  1.675
17711 1   93.470550  -0.569103  1.675
17712 1   92.234339   0.129598  1.675
17713 1   92.221326   1.549539  1.675
17714 1   93.444524   2.270778  1.675
17715 1   91.011141  -0.591641  1.675
17716 1   89.774930   0.107059  1.675
17717 1   89.761917   1.527000  1.675
17718 1   90.985116   2.248239  1.675
17719 1   88.551732  -0.614180  1.675
17720 1   87.315521   0.084521  1.675
17721 1   87.302509   1.504461  1.675
17722 1   88.525707   2.225701  1.675
17723 1   86.092323  -0.636719  1.675
17724 1   84.856112   0.061982  1.675
17725 1   84.843100   1.481922  1.675
17726 1   86.066298   2.203162  1.675
17727 1   83.632914  -0.659258  1.675
17728 1   82.396704   0.039443  1.675
17729 1   82.383691   1.459384  1.675
17730 1   83.606889   2.180623  1.675
17731 1   81.173506  -0.681796  1.675
17732 1   79.937295   0.016905  1.675
17733 1   79.924282   1.436845  1.675
17734 1   81.147480   2.158084  1.675
17735 1   78.714097  -0.704335  1.675
17736 1   77.477886  -0.005634  1.675
17737 1   77.464873   1.414306  1.675
17738 1   78.688071   2.135546  1.675
17739 1   76.254688  -0.726874  1.675
17740 1   75.018477  -0.028173  1.675
17741 1   75.005464   1.391767  1.675
17742 1   76.228662   2.113007  1.675
17743 1   73.795279  -0.749413  1.675
17744 1   72.559068  -0.050712  1.675
17745 1   72.546055   1.369229  1.675
17746 1   73.769253   2.090468  1.675
17747 1   71.335870  -0.771951  1.675
17748 1   70.099659  -0.073250  1.675
17749 1   70.086647   1.346690  1.675
17750 1   71.309845   2.067930  1.675
17751 1   68.876461  -0.794490  1.675
17752 1   67.640250  -0.095789  1.675
17753 1   67.627238   1.324151  1.675
17754 1   68.850436   2.045391  1.675
17755 1   66.417052  -0.817029  1.675
17756 1   65.180842  -0.118328  1.675
17757 1   65.167829   1.301612  1.675
17758 1   66.391027   2.022852  1.675
17759 1   63.957643  -0.839567  1.675
17760 1   62.721433  -0.140867  1.675
17761 1   62.708420   1.279074  1.675
17762 1   63.931618   2.000313  1.675
17763 1   61.498235  -0.862106  1.675
17764 1   60.262024  -0.163405  1.675
17765 1   60.249011   1.256535  1.675
17766 1   61.472209   1.977775  1.675
17767 1   59.038826  -0.884645  1.675
17768 1   57.802615  -0.185944  1.675
17769 1   57.789602   1.233996  1.675
17770 1   59.012800   1.955236  1.675
17771 1   56.579417  -0.907184  1.675
17772 1   55.343206  -0.208483  1.675
17773 1   55.330193   1.211458  1.675
17774 1   56.553391   1.932697  1.675
17775 1   54.120008  -0.929722  1.675
17776 1   52.883797  -0.231022  1.675
17777 1   52.870784   1.188919  1.675
17778 1   54.093982   1.910158  1.675
17779 1   51.660599  -0.952261  1.675
17780 1   50.424388  -0.253560  1.675
17781 1   50.411376   1.166380  1.675
17782 1   51.634574   1.887620  1.675
17783 1   49.201190  -0.974800  1.675
17784 1   47.964979  -0.276099  1.675
17785 1   47.951967   1.143841  1.675
17786 1   49.175165   1.865081  1.675
17787 1   46.741781  -0.997339  1.675
17788 1   45.505571  -0.298638  1.675
17789 1   45.492558   1.121303  1.675
17790 1   46.715756   1.842542  1.675
17791 1   44.282372  -1.019877  1.675
17792 1   43.046162  -0.321177  1.675
17793 1   43.033149   1.098764  1.675
17794 1   44.256347   1.820003  1.675
17795 1   41.822964  -1.042416  1.675
17796 1   40.586753  -0.343715  1.675
17797 1   40.573740   1.076225  1.675
17798 1   41.796938   1.797465  1.675
17799 1   39.363555  -1.064955  1.675
17800 1   38.127344  -0.366254  1.675
17801 1   38.114331   1.053686  1.675
17802 1   39.337529   1.774926  1.675
17803 1   36.904146  -1.087494  1.675
17804 1   35.667935  -0.388793  1.675
17805 1   35.654922   1.031148  1.675
17806 1   36.878120   1.752387  1.675
17807 1   34.444737  -1.110032  1.675
17808 1   33.208526  -0.411331  1.675
17809 1   33.195513   1.008609  1.675
17810 1   34.418711   1.729848  1.675
17811 1   31.985328  -1.132571  1.675
17812 1   30.749117  -0.433870  1.675
17813 1   30.736105   0.986070  1.675
17814 1   31.959303   1.707310  1.675
17815 1   29.525919  -1.155110  1.675
17816 1   28.289708  -0.456409  1.675
17817 1   28.276696   0.963531  1.675
17818 1   29.499894   1.684771  1.675
17819 1   27.066510  -1.177648  1.675
17820 1   25.830300  -0.478948  1.675
17821 1   25.817287   0.940993  1.675
17822 1   27.040485   1.662232  1.675
17823 1   24.607101  -1.200187  1.675
17824 1   23.370891  -0.501486  1.675
17825 1   23.357878   0.918454  1.675
17826 1   24.581076   1.639694  1.675
17827 1   22.147693  -1.222726  1.675
17828 1   20.911482  -0.524025  1.675
17829 1   20.898469   0.895915  1.675
17830 1   22.121667   1.617155  1.675
17831 1   19.688284  -1.245265  1.675
17832 1   18.452073  -0.546564  1.675
17833 1   18.439060   0.873376  1.675
17834 1   19.662258   1.594616  1.675
17835 1   17.228875  -1.267803  1.675
17836 1   15.992664  -0.569103  1.675
17837 1   15.979651   0.850838  1.675
17838 1   17.202849   1.572077  1.675
17839 1   14.769466  -1.290342  1.675
17840 1   13.533255  -0.591641  1.675
17841 1   13.520242   0.828299  1.675
17842 1   14.743440   1.549539  1.675
17843 1   12.310057  -1.312881  1.675
17844 1   11.073846  -0.614180  1.675
17845 1   11.060834   0.805760  1.675
17846 1   12.284032   1.527000  1.675
17847 1    9.850648  -1.335420  1.675
17848 1    8.614437  -0.636719  1.675
17849 1    8.601425   0.783222  1.675
17850 1    9.824623   1.504461  1.675
17851 1    7.391239  -1.357958  1.675
17852 1    6.155029  -0.659258  1.675
17853 1    6.142016   0.760683  1.675
17854 1    7.365214   1.481922  1.675
17855 1    4.931830  -1.380497  1.675
17856 1    3.695620  -0.681796  1.675
17857 1    3.682607   0.738144  1.675
17858 1    4.905805   1.459384  1.675
17859 1    2.472422  -1.403036  1.675
17860 1    1.236211  -0.704335  1.675
17861 1    1.223198   0.715605  1.675
17862 1    2.446396   1.436845  1.675
17863 1    0.013013  -1.425575  1.675
17864 1   -1.223198  -0.726874  1.675
17865 1   -1.236211   0.693067  1.675
17866 1   -0.013013   1.414306  1.675
17867 1   -2.446396  -1.448113  1.675
17868 1   -3.682607  -0.749413  1.675
17869 1   -3.695620   0.670528  1.675
17870 1   -2.472422   1.391767  1.675
17871 1   -4.905805  -1.470652  1.675
17872 1   -6.142016  -0.771951  1.675
17873 1   -6.155029   0.647989  1.675
17874 1   -4.931830   1.369229  1.675
17875 1   -7.365214  -1.493191  1.675
17876 1   -8.601425  -0.794490  1.675
17877 1   -8.614437   0.625450  1.675
17878 1   -7.391239   1.346690  1.675
17879 1   -9.824623  -1.515730  1.675
17880 1  -11.060834  -0.817029  1.675
17881 1  -11.073846   0.602912  1.675
17882 1   -9.850648   1.324151  1.675
17883 1  -12.284032  -1.538268  1.675
17884 1  -13.520242  -0.839567  1.675
17885 1  -13.533255   0.580373  1.675
17886 1  -12.310057   1.301612  1.675
17887 1  -14.743440  -1.560807  1.675
17888 1  -15.979651  -0.862106  1.675
17889 1  -15.992664   0.557834  1.675
17890 1  -14.769466   1.279074  1.675
17891 1  -17.202849  -1.583346  1.675
17892 1  -18.439060  -0.884645  1.675
17893 1  -18.452073   0.535295  1.675
17894 1  -17.228875   1.256535  1.675
17895 1  -19.662258  -1.605884  1.675
17896 1  -20.898469  -0.907184  1.675
17897 1  -20.911482   0.512757  1.675
17898 1  -19.688284   1.233996  1.675
17899 1  -22.121667  -1.628423  1.675
17900 1  -23.357878  -0.929722  1.675
17901 1  -23.370891   0.490218  1.675
17902 1  -22.147693   1.211458  1.675
17903 1  -24.581076  -1.650962  1.675
17904 1  -25.817287  -0.952261  1.675
17905 1  -25.830300   0.467679  1.675
17906 1  -24.607101   1.188919  1.675
17907 1  -27.040485  -1.673501  1.675
17908 1  -28.276696  -0.974800  1.675
17909 1  -28.289708   0.445141  1.675
17910 1  -27.066510   1.166380  1.675
17911 1  -29.499894  -1.696039  1.675
17912 1  -30.736105  -0.997339  1.675
17913 1  -30.749117   0.422602  1.675
17914 1  -29.525919   1.143841  1.675
17915 1  -31.959303  -1.718578  1.675
17916 1  -33.195513  -1.019877  1.675
17917 1  -33.208526   0.400063  1.675
17918 1  -31.985328   1.121303  1.675
17919 1  -34.418711  -1.741117  1.675
17920 1  -35.654922  -1.042416  1.675
17921 1  -35.667935   0.377524  1.675
17922 1  -34.444737   1.098764  1.675
17923 1  -36.878120  -1.763656  1.675
17924 1  -38.114331  -1.064955  1.675
17925 1  -38.127344   0.354986  1.675
17926 1  -36.904146   1.076225  1.675
17927 1  -39.337529  -1.786194  1.675
17928 1  -40.573740  -1.087494  1.675
17929 1  -40.586753   0.332447  1.675
17930 1  -39.363555   1.053686  1.675
17931 1  -41.796938  -1.808733  1.675
17932 1  -43.033149  -1.110032  1.675
17933 1  -43.046162   0.309908  1.675
17934 1  -41.822964   1.031148  1.675
17935 1  -44.256347  -1.831272  1.675
17936 1  -45.492558  -1.132571  1.675
17937 1  -45.505571   0.287369  1.675
17938 1  -44.282372   1.008609  1.675
17939 1  -46.715756  -1.853811  1.675
17940 1  -47.951967  -1.155110  1.675
17941 1  -47.964979   0.264831  1.675
17942 1  -46.741781   0.986070  1.675
17943 1  -49.175165  -1.876349  1.675
17944 1  -50.411376  -1.177648  1.675
17945 1  -50.424388   0.242292  1.675
17946 1  -49.201190   0.963531  1.675
17947 1  -51.634574  -1.898888  1.675
17948 1  -52.870784  -1.200187  1.675
17949 1  -52.883797   0.219753  1.675
17950 1  -51.660599   0.940993  1.675
17951 1  -54.093982  -1.921427  1.675
17952 1  -55.330193  -1.222726  1.675
17953 1  -55.343206   0.197214  1.675
17954 1  -54.120008   0.918454  1.675
17955 1  -56.553391  -1.943966  1.675
17956 1  -57.789602  -1.245265  1.675
17957 1  -57.802615   0.174676  1.675
17958 1  -56.579417   0.895915  1.675
17959 1  -59.012800  -1.966504  1.675
17960 1  -60.249011  -1.267803  1.675
17961 1  -60.262024   0.152137  1.675
17962 1  -59.038826   0.873376  1.675
17963 1  -61.472209  -1.989043  1.675
17964 1  -62.708420  -1.290342  1.675
17965 1  -62.721433   0.129598  1.675
17966 1  -61.498235   0.850838  1.675
17967 1  -63.931618  -2.011582  1.675
17968 1  -65.167829  -1.312881  1.675
17969 1  -65.180842   0.107059  1.675
17970 1  -63.957643   0.828299  1.675
17971 1  -66.391027  -2.034120  1.675
17972 1  -67.627238  -1.335420  1.675
17973 1  -67.640250   0.084521  1.675
17974 1  -66.417052   0.805760  1.675
17975 1  -68.850436  -2.056659  1.675
17976 1  -70.086647  -1.357958  1.675
17977 1  -70.099659   0.061982  1.675
17978 1  -68.876461   0.783222  1.675
17979 1  -71.309845  -2.079198  1.675
17980 1  -72.546055  -1.380497  1.675
17981 1  -72.559068   0.039443  1.675
17982 1  -71.335870   0.760683  1.675
17983 1  -73.769253  -2.101737  1.675
17984 1  -75.005464  -1.403036  1.675
17985 1  -75.018477   0.016905  1.675
17986 1  -73.795279   0.738144  1.675
17987 1  -76.228662  -2.124275  1.675
17988 1  -77.464873  -1.425575  1.675
17989 1  -77.477886  -0.005634  1.675
17990 1  -76.254688   0.715605  1.675
17991 1  -78.688071  -2.146814  1.675
17992 1  -79.924282  -1.448113  1.675
17993 1  -79.937295  -0.028173  1.675
17994 1  -78.714097   0.693067  1.675
17995 1  -81.147480  -2.169353  1.675
17996 1  -82.383691  -1.470652  1.675
17997 1  -82.396704  -0.050712  1.675
17998 1  -81.173506   0.670528  1.675
17999 1  -83.606889  -2.191892  1.675
18000 1  -84.843100  -1.493191  1.675
18001 1  -84.856112  -0.073250  1.675
18002 1  -83.632914   0.647989  1.675
18003 1  -86.066298  -2.214430  1.675
18004 1  -87.302509  -1.515730  1.675
18005 1  -87.315521  -0.095789  1.675
18006 1  -86.092323   0.625450  1.675
18007 1  -88.525707  -2.236969  1.675
18008 1  -89.761917  -1.538268  1.675
18009 1  -89.774930  -0.118328  1.675
18010 1  -88.551732   0.602912  1.675
18011 1  -90.985116  -2.259508  1.675
18012 1  -92.221326  -1.560807  1.675
18013 1  -92.234339  -0.140867  1.675
18014 1  -91.011141   0.580373  1.675
18015 1  -93.444524  -2.282047  1.675
18016 1  -94.680735  -1.583346  1.675
18017 1  -94.693748  -0.163405  1.675
18018 1  -93.470550   0.557834  1.675
18019 1  -95.903933  -2.304585  1.675
18020 1  -97.140144  -1.605884  1.675
18021 1  -97.153157  -0.185944  1.675
18022 1  -95.929959   0.535295  1.675
18023 1  -98.363342  -2.327124  1.675
18024 1  -99.599553  -1.628423  1.675
18025 1  -99.612566  -0.208483  1.675
18026 1  -98.389368   0.512757  1.675
18027 1 -100.822751  -2.349663  1.675
18028 1 -102.058962  -1.650962  1.675
18029 1 -102.071975  -0.231022  1.675
18030 1 -100.848777   0.490218  1.675
18031 1 -103.282160  -2.372202  1.675
18032 1 -104.518371  -1.673501  1.675
18033 1 -104.531383  -0.253560  1.675
18034 1 -103.308185   0.467679  1.675
18035 1 -105.741569  -2.394740  1.675
18036 1 -106.977780  -1.696039  1.675
18037 1 -106.990792  -0.276099  1.675
18038 1 -105.767594   0.445141  1.675
18039 1 -108.200978  -2.417279  1.675
18040 1 -109.437188  -1.718578  1.675
18041 1 -109.450201  -0.298638  1.675
18042 1 -108.227003   0.422602  1.675
18043 1 -110.660387  -2.439818  1.675
18044 1 -111.896597  -1.741117  1.675
18045 1 -111.909610  -0.321177  1.675
18046 1 -110.686412   0.400063  1.675
18047 1 -113.119795  -2.462356  1.675
18048 1 -114.356006  -1.763656  1.675
18049 1 -114.369019  -0.343715  1.675
18050 1 -113.145821   0.377524  1.675
18051 1 -115.579204  -2.484895  1.675
18052 1 -115.605230   0.354986  1.675
18053 1  115.566192   3.893567  1.675
18054 1  114.329981   4.592268  1.675
18055 1  114.316968   6.012208  1.675
18056 1  115.540166   6.733448  1.675
18057 1  113.106783   3.871028  1.675
18058 1  111.870572   4.569729  1.675
18059 1  111.857559   5.989670  1.675
18060 1  113.080757   6.710909  1.675
18061 1  110.647374   3.848490  1.675
18062 1  109.411163   4.547190  1.675
18063 1  109.398150   5.967131  1.675
18064 1  110.621348   6.688370  1.675
18065 1  108.187965   3.825951  1.675
18066 1  106.951754   4.524652  1.675
18067 1  106.938741   5.944592  1.675
18068 1  108.161939   6.665832  1.675
18069 1  105.728556   3.803412  1.675
18070 1  104.492345   4.502113  1.675
18071 1  104.479333   5.922053  1.675
18072 1  105.702531   6.643293  1.675
18073 1  103.269147   3.780873  1.675
18074 1  102.032936   4.479574  1.675
18075 1  102.019924   5.899515  1.675
18076 1  103.243122   6.620754  1.675
18077 1  100.809738   3.758335  1.675
18078 1   99.573527   4.457036  1.675
18079 1   99.560515   5.876976  1.675
18080 1  100.783713   6.598215  1.675
18081 1   98.350329   3.735796  1.675
18082 1   97.114119   4.434497  1.675
18083 1   97.101106   5.854437  1.675
18084 1   98.324304   6.575677  1.675
18085 1   95.890921   3.713257  1.675
18086 1   94.654710   4.411958  1.675
18087 1   94.641697   5.831898  1.675
18088 1   95.864895   6.553138  1.675
18089 1   93.431512   3.690719  1.675
18090 1   92.195301   4.389419  1.675
18091 1   92.182288   5.809360  1.675
18092 1   93.405486   6.530599  1.675
18093 1   90.972103   3.668180  1.675
18094 1   89.735892   4.366881  1.675
18095 1   89.722879   5.786821  1.675
18096 1   90.946077   6.508061  1.675
18097 1   88.512694   3.645641  1.675
18098 1   87.276483   4.344342  1.675
18099 1   87.263470   5.764282  1.675
18100 1   88.486668   6.485522  1.675
18101 1   86.053285   3.623102  1.675
18102 1   84.817074   4.321803  1.675
18103 1   84.804062   5.741743  1.675
18104 1   86.027260   6.462983  1.675
18105 1   83.593876   3.600564  1.675
18106 1   82.357665   4.299264  1.675
18107 1   82.344653   5.719205  1.675
18108 1   83.567851   6.440444  1.675
18109 1   81.134467   3.578025  1.675
18110 1   79.898257   4.276726  1.675
18111 1   79.885244   5.696666  1.675
18112 1   81.108442   6.417906  1.675
18113 1   78.675058   3.555486  1.675
18114 1   77.438848   4.254187  1.675
18115 1   77.425835   5.674127  1.675
18116 1   78.649033   6.395367  1.675
18117 1   76.215650   3.532947  1.675
18118 1   74.979439   4.231648  1.675
18119 1   74.966426   5.651589  1.675
18120 1   76.189624   6.372828  1.675
18121 1   73.756241   3.510409  1.675
18122 1   72.520030   4.209109  1.675
18123 1   72.507017   5.629050  1.675
18124 1   73.730215   6.350289  1.675
18125 1   71.296832   3.487870  1.675
18126 1   70.060621   4.186571  1.675
18127 1   70.047608   5.606511  1.675
18128 1   71.270806   6.327751  1.675
18129 1   68.837423   3.465331  1.675
18130 1   67.601212   4.164032  1.675
18131 1   67.588199   5.583972  1.675
18132 1   68.811397   6.305212  1.675
18133 1   66.378014   3.442792  1.675
18134 1   65.141803   4.141493  1.675
18135 1   65.128791   5.561434  1.675
18136 1   66.351989   6.282673  1.675
18137 1   63.918605   3.420254  1.675
18138 1   62.682394   4.118954  1.675
18139 1   62.669382   5.538895  1.675
18140 1   63.892580   6.260134  1.675
18141 1   61.459196   3.397715  1.675
18142 1   60.222986   4.096416  1.675
18143 1   60.209973   5.516356  1.675
18144 1   61.433171   6.237596  1.675
18145 1   58.999787   3.375176  1.675
18146 1   57.763577   4.073877  1.675
18147 1   57.750564   5.493817  1.675
18148 1   58.973762   6.215057  1.675
18149 1   56.540379   3.352637  1.675
18150 1   55.304168   4.051338  1.675
18151 1   55.291155   5.471279  1.675
18152 1   56.514353   6.192518  1.675
18153 1   54.080970   3.330099  1.675
18154 1   52.844759   4.028800  1.675
18155 1   52.831746   5.448740  1.675
18156 1   54.054944   6.169979  1.675
18157 1   51.621561   3.307560  1.675
18158 1   50.385350   4.006261  1.675
18159 1   50.372337   5.426201  1.675
18160 1   51.595535   6.147441  1.675
18161 1   49.162152   3.285021  1.675
18162 1   47.925941   3.983722  1.675
18163 1   47.912928   5.403662  1.675
18164 1   49.136126   6.124902  1.675
18165 1   46.702743   3.262483  1.675
18166 1   45.466532   3.961183  1.675
18167 1   45.453520   5.381124  1.675
18168 1   46.676718   6.102363  1.675
18169 1   44.243334   3.239944  1.675
18170 1   43.007123   3.938645  1.675
18171 1   42.994111   5.358585  1.675
18172 1   44.217309   6.079825  1.675
18173 1   41.783925   3.217405  1.675
18174 1   40.547715   3.916106  1.675
18175 1   40.534702   5.336046  1.675
18176 1   41.757900   6.057286  1.675
18177 1   39.324516   3.194866  1.675
18178 1   38.088306   3.893567  1.675
18179 1   38.075293   5.313508  1.675
18180 1   39.298491   6.034747  1.675
18181 1   36.865108   3.172328  1.675
18182 1   35.628897   3.871028  1.675
18183 1   35.615884   5.290969  1.675
18184 1   36.839082   6.012208  1.675
18185 1   34.405699   3.149789  1.675
18186 1   33.169488   3.848490  1.675
18187 1   33.156475   5.268430  1.675
18188 1   34.379673   5.989670  1.675
18189 1   31.946290   3.127250  1.675
18190 1   30.710079   3.825951  1.675
18191 1   30.697066   5.245891  1.675
18192 1   31.920264   5.967131  1.675
18193 1   29.486881   3.104711  1.675
18194 1   28.250670   3.803412  1.675
18195 1   28.237657   5.223353  1.675
18196 1   29.460855   5.944592  1.675
18197 1   27.027472   3.082173  1.675
18198 1   25.791261   3.780873  1.675
18199 1   25.778249   5.200814  1.675
18200 1   27.001447   5.922053  1.675
18201 1   24.568063   3.059634  1.675
18202 1   23.331852   3.758335  1.675
18203 1   23.318840   5.178275  1.675
18204 1   24.542038   5.899515  1.675
18205 1   22.108654   3.037095  1.675
18206 1   20.872444   3.735796  1.675
18207 1   20.859431   5.155736  1.675
18208 1   22.082629   5.876976  1.675
18209 1   19.649245   3.014556  1.675
18210 1   18.413035   3.713257  1.675
18211 1   18.400022   5.133198  1.675
18212 1   19.623220   5.854437  1.675
18213 1   17.189837   2.992018  1.675
18214 1   15.953626   3.690719  1.675
18215 1   15.940613   5.110659  1.675
18216 1   17.163811   5.831898  1.675
18217 1   14.730428   2.969479  1.675
18218 1   13.494217   3.668180  1.675
18219 1   13.481204   5.088120  1.675
18220 1   14.704402   5.809360  1.675
18221 1   12.271019   2.946940  1.675
18222 1   11.034808   3.645641  1.675
18223 1   11.021795   5.065581  1.675
18224 1   12.244993   5.786821  1.675
18225 1    9.811610   2.924401  1.675
18226 1    8.575399   3.623102  1.675
18227 1    8.562386   5.043043  1.675
18228 1    9.785585   5.764282  1.675
18229 1    7.352201   2.901863  1.675
18230 1    6.115990   3.600564  1.675
18231 1    6.102978   5.020504  1.675
18232 1    7.326176   5.741743  1.675
18233 1    4.892792   2.879324  1.675
18234 1    3.656581   3.578025  1.675
18235 1    3.643569   4.997965  1.675
18236 1    4.866767   5.719205  1.675
18237 1    2.433383   2.856785  1.675
18238 1    1.197173   3.555486  1.675
18239 1    1.184160   4.975426  1.675
18240 1    2.407358   5.696666  1.675
18241 1   -0.026025   2.834247  1.675
18242 1   -1.262236   3.532947  1.675
18243 1   -1.275249   4.952888  1.675
18244 1   -0.052051   5.674127  1.675
18245 1   -2.485434   2.811708  1.675
18246 1   -3.721645   3.510409  1.675
18247 1   -3.734658   4.930349  1.675
18248 1   -2.511460   5.651589  1.675
18249 1   -4.944843   2.789169  1.675
18250 1   -6.181054   3.487870  1.675
18251 1   -6.194067   4.907810  1.675
18252 1   -4.970869   5.629050  1.675
18253 1   -7.404252   2.766630  1.675
18254 1   -8.640463   3.465331  1.675
18255 1   -8.653476   4.885272  1.675
18256 1   -7.430278   5.606511  1.675
18257 1   -9.863661   2.744092  1.675
18258 1  -11.099872   3.442792  1.675
18259 1  -11.112885   4.862733  1.675
18260 1   -9.889686   5.583972  1.675
18261 1  -12.323070   2.721553  1.675
18262 1  -13.559281   3.420254  1.675
18263 1  -13.572293   4.840194  1.675
18264 1  -12.349095   5.561434  1.675
18265 1  -14.782479   2.699014  1.675
18266 1  -16.018690   3.397715  1.675
18267 1  -16.031702   4.817655  1.675
18268 1  -14.808504   5.538895  1.675
18269 1  -17.241888   2.676475  1.675
18270 1  -18.478098   3.375176  1.675
18271 1  -18.491111   4.795117  1.675
18272 1  -17.267913   5.516356  1.675
18273 1  -19.701296   2.653937  1.675
18274 1  -20.937507   3.352637  1.675
18275 1  -20.950520   4.772578  1.675
18276 1  -19.727322   5.493817  1.675
18277 1  -22.160705   2.631398  1.675
18278 1  -23.396916   3.330099  1.675
18279 1  -23.409929   4.750039  1.675
18280 1  -22.186731   5.471279  1.675
18281 1  -24.620114   2.608859  1.675
18282 1  -25.856325   3.307560  1.675
18283 1  -25.869338   4.727500  1.675
18284 1  -24.646140   5.448740  1.675
18285 1  -27.079523   2.586320  1.675
18286 1  -28.315734   3.285021  1.675
18287 1  -28.328747   4.704962  1.675
18288 1  -27.105549   5.426201  1.675
18289 1  -29.538932   2.563782  1.675
18290 1  -30.775143   3.262483  1.675
18291 1  -30.788156   4.682423  1.675
18292 1  -29.564957   5.403662  1.675
18293 1  -31.998341   2.541243  1.675
18294 1  -33.234552   3.239944  1.675
18295 1  -33.247564   4.659884  1.675
18296 1  -32.024366   5.381124  1.675
18297 1  -34.457750   2.518704  1.675
18298 1  -35.693961   3.217405  1.675
18299 1  -35.706973   4.637345  1.675
18300 1  -34.483775   5.358585  1.675
18301 1  -36.917159   2.496165  1.675
18302 1  -38.153369   3.194866  1.675
18303 1  -38.166382   4.614807  1.675
18304 1  -36.943184   5.336046  1.675
18305 1  -39.376567   2.473627  1.675
18306 1  -40.612778   3.172328  1.675
18307 1  -40.625791   4.592268  1.675
18308 1  -39.402593   5.313508  1.675
18309 1  -41.835976   2.451088  1.675
18310 1  -43.072187   3.149789  1.675
18311 1  -43.085200   4.569729  1.675
18312 1  -41.862002   5.290969  1.675
18313 1  -44.295385   2.428549  1.675
18314 1  -45.531596   3.127250  1.675
18315 1  -45.544609   4.547190  1.675
18316 1  -44.321411   5.268430  1.675
18317 1  -46.754794   2.406011  1.675
18318 1  -47.991005   3.104711  1.675
18319 1  -48.004018   4.524652  1.675
18320 1  -46.780820   5.245891  1.675
18321 1  -49.214203   2.383472  1.675
18322 1  -50.450414   3.082173  1.675
18323 1  -50.463427   4.502113  1.675
18324 1  -49.240228   5.223353  1.675
18325 1  -51.673612   2.360933  1.675
18326 1  -52.909823   3.059634  1.675
18327 1  -52.922835   4.479574  1.675
18328 1  -51.699637   5.200814  1.675
18329 1  -54.133021   2.338394  1.675
18330 1  -55.369232   3.037095  1.675
18331 1  -55.382244   4.457036  1.675
18332 1  -54.159046   5.178275  1.675
18333 1  -56.592430   2.315856  1.675
18334 1  -57.828640   3.014556  1.675
18335 1  -57.841653   4.434497  1.675
18336 1  -56.618455   5.155736  1.675
18337 1  -59.051838   2.293317  1.675
18338 1  -60.288049   2.992018  1.675
18339 1  -60.301062   4.411958  1.675
18340 1  -59.077864   5.133198  1.675
18341 1  -61.511247   2.270778  1.675
18342 1  -62.747458   2.969479  1.675
18343 1  -62.760471   4.389419  1.675
18344 1  -61.537273   5.110659  1.675
18345 1  -63.970656   2.248239  1.675
18346 1  -65.206867   2.946940  1.675
18347 1  -65.219880   4.366881  1.675
18348 1  -63.996682   5.088120  1.675
18349 1  -66.430065   2.225701  1.675
18350 1  -67.666276   2.924401  1.675
18351 1  -67.679289   4.344342  1.675
18352 1  -66.456091   5.065581  1.675
18353 1  -68.889474   2.203162  1.675
18354 1  -70.125685   2.901863  1.675
18355 1  -70.138697   4.321803  1.675
18356 1  -68.915499   5.043043  1.675
18357 1  -71.348883   2.180623  1.675
18358 1  -72.585094   2.879324  1.675
18359 1  -72.598106   4.299264  1.675
18360 1  -71.374908   5.020504  1.675
18361 1  -73.808292   2.158084  1.675
18362 1  -75.044502   2.856785  1.675
18363 1  -75.057515   4.276726  1.675
18364 1  -73.834317   4.997965  1.675
18365 1  -76.267701   2.135546  1.675
18366 1  -77.503911   2.834247  1.675
18367 1  -77.516924   4.254187  1.675
18368 1  -76.293726   4.975426  1.675
18369 1  -78.727109   2.113007  1.675
18370 1  -79.963320   2.811708  1.675
18371 1  -79.976333   4.231648  1.675
18372 1  -78.753135   4.952888  1.675
18373 1  -81.186518   2.090468  1.675
18374 1  -82.422729   2.789169  1.675
18375 1  -82.435742   4.209109  1.675
18376 1  -81.212544   4.930349  1.675
18377 1  -83.645927   2.067930  1.675
18378 1  -84.882138   2.766630  1.675
18379 1  -84.895151   4.186571  1.675
18380 1  -83.671953   4.907810  1.675
18381 1  -86.105336   2.045391  1.675
18382 1  -87.341547   2.744092  1.675
18383 1  -87.354560   4.164032  1.675
18384 1  -86.131362   4.885272  1.675
18385 1  -88.564745   2.022852  1.675
18386 1  -89.800956   2.721553  1.675
18387 1  -89.813968   4.141493  1.675
18388 1  -88.590770   4.862733  1.675
18389 1  -91.024154   2.000313  1.675
18390 1  -92.260365   2.699014  1.675
18391 1  -92.273377   4.118954  1.675
18392 1  -91.050179   4.840194  1.675
18393 1  -93.483563   1.977775  1.675
18394 1  -94.719773   2.676475  1.675
18395 1  -94.732786   4.096416  1.675
18396 1  -93.509588   4.817655  1.675
18397 1  -95.942972   1.955236  1.675
18398 1  -97.179182   2.653937  1.675
18399 1  -97.192195   4.073877  1.675
18400 1  -95.968997   4.795117  1.675
18401 1  -98.402380   1.932697  1.675
18402 1  -99.638591   2.631398  1.675
18403 1  -99.651604   4.051338  1.675
18404 1  -98.428406   4.772578  1.675
18405 1 -100.861789   1.910158  1.675
18406 1 -102.098000   2.608859  1.675
18407 1 -102.111013   4.028800  1.675
18408 1 -100.887815   4.750039  1.675
18409 1 -103.321198   1.887620  1.675
18410 1 -104.557409   2.586320  1.675
18411 1 -104.570422   4.006261  1.675
18412 1 -103.347224   4.727500  1.675
18413 1 -105.780607   1.865081  1.675
18414 1 -107.016818   2.563782  1.675
18415 1 -107.029831   3.983722  1.675
18416 1 -105.806633   4.704962  1.675
18417 1 -108.240016   1.842542  1.675
18418 1 -109.476227   2.541243  1.675
18419 1 -109.489239   3.961183  1.675
18420 1 -108.266041   4.682423  1.675
18421 1 -110.699425   1.820003  1.675
18422 1 -111.935636   2.518704  1.675
18423 1 -111.948648   3.938645  1.675
18424 1 -110.725450   4.659884  1.675
18425 1 -113.158834   1.797465  1.675
18426 1 -114.395044   2.496165  1.675
18427 1 -114.408057   3.916106  1.675
18428 1 -113.184859   4.637345  1.675
18429 1 -115.618243   1.774926  1.675
18430 1 -115.644268   4.614807  1.675
18431 1  115.527153   8.153388  1.675
18432 1  114.290943   8.852089  1.675
18433 1  114.277930  10.272029  1.675
18434 1  115.501128  10.993269  1.675
18435 1  113.067744   8.130850  1.675
18436 1  111.831534   8.829550  1.675
18437 1  111.818521  10.249491  1.675
18438 1  113.041719  10.970730  1.675
18439 1  110.608336   8.108311  1.675
18440 1  109.372125   8.807012  1.675
18441 1  109.359112  10.226952  1.675
18442 1  110.582310  10.948192  1.675
18443 1  108.148927   8.085772  1.675
18444 1  106.912716   8.784473  1.675
18445 1  106.899703  10.204413  1.675
18446 1  108.122901  10.925653  1.675
18447 1  105.689518   8.063233  1.675
18448 1  104.453307   8.761934  1.675
18449 1  104.440294  10.181875  1.675
18450 1  105.663492  10.903114  1.675
18451 1  103.230109   8.040695  1.675
18452 1  101.993898   8.739395  1.675
18453 1  101.980885  10.159336  1.675
18454 1  103.204083  10.880575  1.675
18455 1  100.770700   8.018156  1.675
18456 1   99.534489   8.716857  1.675
18457 1   99.521477  10.136797  1.675
18458 1  100.744675  10.858037  1.675
18459 1   98.311291   7.995617  1.675
18460 1   97.075080   8.694318  1.675
18461 1   97.062068  10.114258  1.675
18462 1   98.285266  10.835498  1.675
18463 1   95.851882   7.973078  1.675
18464 1   94.615672   8.671779  1.675
18465 1   94.602659  10.091720  1.675
18466 1   95.825857  10.812959  1.675
18467 1   93.392473   7.950540  1.675
18468 1   92.156263   8.649240  1.675
18469 1   92.143250  10.069181  1.675
18470 1   93.366448  10.790420  1.675
18471 1   90.933065   7.928001  1.675
18472 1   89.696854   8.626702  1.675
18473 1   89.683841  10.046642  1.675
18474 1   90.907039  10.767882  1.675
18475 1   88.473656   7.905462  1.675
18476 1   87.237445   8.604163  1.675
18477 1   87.224432  10.024103  1.675
18478 1   88.447630  10.745343  1.675
18479 1   86.014247   7.882923  1.675
18480 1   84.778036   8.581624  1.675
18481 1   84.765023  10.001565  1.675
18482 1   85.988221  10.722804  1.675
18483 1   83.554838   7.860385  1.675
18484 1   82.318627   8.559086  1.675
18485 1   82.305614   9.979026  1.675
18486 1   83.528812  10.700265  1.675
18487 1   81.095429   7.837846  1.675
18488 1   79.859218   8.536547  1.675
18489 1   79.846206   9.956487  1.675
18490 1   81.069404  10.677727  1.675
18491 1   78.636020   7.815307  1.675
18492 1   77.399809   8.514008  1.675
18493 1   77.386797   9.933948  1.675
18494 1   78.609995  10.655188  1.675
18495 1   76.176611   7.792768  1.675
18496 1   74.940401   8.491469  1.675
18497 1   74.927388   9.911410  1.675
18498 1   76.150586  10.632649  1.675
18499 1   73.717202   7.770230  1.675
18500 1   72.480992   8.468931  1.675
18501 1   72.467979   9.888871  1.675
18502 1   73.691177  10.610110  1.675
18503 1   71.257794   7.747691  1.675
18504 1   70.021583   8.446392  1.675
18505 1   70.008570   9.866332  1.675
18506 1   71.231768  10.587572  1.675
18507 1   68.798385   7.725152  1.675
18508 1   67.562174   8.423853  1.675
18509 1   67.549161   9.843793  1.675
18510 1   68.772359  10.565033  1.675
18511 1   66.338976   7.702614  1.675
18512 1   65.102765   8.401314  1.675
18513 1   65.089752   9.821255  1.675
18514 1   66.312950  10.542494  1.675
18515 1   63.879567   7.680075  1.675
18516 1   62.643356   8.378776  1.675
18517 1   62.630343   9.798716  1.675
18518 1   63.853541  10.519956  1.675
18519 1   61.420158   7.657536  1.675
18520 1   60.183947   8.356237  1.675
18521 1   60.170935   9.776177  1.675
18522 1   61.394133  10.497417  1.675
18523 1   58.960749   7.634997  1.675
18524 1   57.724538   8.333698  1.675
18525 1   57.711526   9.753639  1.675
18526 1   58.934724  10.474878  1.675
18527 1   56.501340   7.612459  1.675
18528 1   55.265130   8.311159  1.675
18529 1   55.252117   9.731100  1.675
18530 1   56.475315  10.452339  1.675
18531 1   54.041931   7.589920  1.675
18532 1   52.805721   8.288621  1.675
18533 1   52.792708   9.708561  1.675
18534 1   54.015906  10.429801  1.675
18535 1   51.582523   7.567381  1.675
18536 1   50.346312   8.266082  1.675
18537 1   50.333299   9.686022  1.675
18538 1   51.556497  10.407262  1.675
18539 1   49.123114   7.544842  1.675
18540 1   47.886903   8.243543  1.675
18541 1   47.873890   9.663484  1.675
18542 1   49.097088  10.384723  1.675
18543 1   46.663705   7.522304  1.675
18544 1   45.427494   8.221004  1.675
18545 1   45.414481   9.640945  1.675
18546 1   46.637679  10.362184  1.675
18547 1   44.204296   7.499765  1.675
18548 1   42.968085   8.198466  1.675
18549 1   42.955072   9.618406  1.675
18550 1   44.178270  10.339646  1.675
18551 1   41.744887   7.477226  1.675
18552 1   40.508676   8.175927  1.675
18553 1   40.495664   9.595867  1.675
18554 1   41.718862  10.317107  1.675
18555 1   39.285478   7.454687  1.675
18556 1   38.049267   8.153388  1.675
18557 1   38.036255   9.573329  1.675
18558 1   39.259453  10.294568  1.675
18559 1   36.826069   7.432149  1.675
18560 1   35.589859   8.130850  1.675
18561 1   35.576846   9.550790  1.675
18562 1   36.800044  10.272029  1.675
18563 1   34.366660   7.409610  1.675
18564 1   33.130450   8.108311  1.675
18565 1   33.117437   9.528251  1.675
18566 1   34.340635  10.249491  1.675
18567 1   31.907252   7.387071  1.675
18568 1   30.671041   8.085772  1.675
18569 1   30.658028   9.505712  1.675
18570 1   31.881226  10.226952  1.675
18571 1   29.447843   7.364532  1.675
18572 1   28.211632   8.063233  1.675
18573 1   28.198619   9.483174  1.675
18574 1   29.421817  10.204413  1.675
18575 1   26.988434   7.341994  1.675
18576 1   25.752223   8.040695  1.675
18577 1   25.739210   9.460635  1.675
18578 1   26.962408  10.181875  1.675
18579 1   24.529025   7.319455  1.675
18580 1   23.292814   8.018156  1.675
18581 1   23.279801   9.438096  1.675
18582 1   24.503000  10.159336  1.675
18583 1   22.069616   7.296916  1.675
18584 1   20.833405   7.995617  1.675
18585 1   20.820393   9.415557  1.675
18586 1   22.043591  10.136797  1.675
18587 1   19.610207   7.274378  1.675
18588 1   18.373996   7.973078  1.675
18589 1   18.360984   9.393019  1.675
18590 1   19.584182  10.114258  1.675
18591 1   17.150798   7.251839  1.675
18592 1   15.914588   7.950540  1.675
18593 1   15.901575   9.370480  1.675
18594 1   17.124773  10.091720  1.675
18595 1   14.691390   7.229300  1.675
18596 1   13.455179   7.928001  1.675
18597 1   13.442166   9.347941  1.675
18598 1   14.665364  10.069181  1.675
18599 1   12.231981   7.206761  1.675
18600 1   10.995770   7.905462  1.675
18601 1   10.982757   9.325403  1.675
18602 1   12.205955  10.046642  1.675
18603 1    9.772572   7.184223  1.675
18604 1    8.536361   7.882923  1.675
18605 1    8.523348   9.302864  1.675
18606 1    9.746546  10.024103  1.675
18607 1    7.313163   7.161684  1.675
18608 1    6.076952   7.860385  1.675
18609 1    6.063939   9.280325  1.675
18610 1    7.287137  10.001565  1.675
18611 1    4.853754   7.139145  1.675
18612 1    3.617543   7.837846  1.675
18613 1    3.604530   9.257786  1.675
18614 1    4.827729   9.979026  1.675
18615 1    2.394345   7.116606  1.675
18616 1    1.158134   7.815307  1.675
18617 1    1.145122   9.235248  1.675
18618 1    2.368320   9.956487  1.675
18619 1   -0.065064   7.094068  1.675
18620 1   -1.301275   7.792768  1.675
18621 1   -1.314287   9.212709  1.675
18622 1   -0.091089   9.933948  1.675
18623 1   -2.524473   7.071529  1.675
18624 1   -3.760683   7.770230  1.675
18625 1   -3.773696   9.190170  1.675
18626 1   -2.550498   9.911410  1.675
18627 1   -4.983881   7.048990  1.675
18628 1   -6.220092   7.747691  1.675
18629 1   -6.233105   9.167631  1.675
18630 1   -5.009907   9.888871  1.675
18631 1   -7.443290   7.026451  1.675
18632 1   -8.679501   7.725152  1.675
18633 1   -8.692514   9.145093  1.675
18634 1   -7.469316   9.866332  1.675
18635 1   -9.902699   7.003913  1.675
18636 1  -11.138910   7.702614  1.675
18637 1  -11.151923   9.122554  1.675
18638 1   -9.928725   9.843793  1.675
18639 1  -12.362108   6.981374  1.675
18640 1  -13.598319   7.680075  1.675
18641 1  -13.611332   9.100015  1.675
18642 1  -12.388134   9.821255  1.675
18643 1  -14.821517   6.958835  1.675
18644 1  -16.057728   7.657536  1.675
18645 1  -16.070741   9.077476  1.675
18646 1  -14.847542   9.798716  1.675
18647 1  -17.280926   6.936297  1.675
18648 1  -18.517137   7.634997  1.675
18649 1  -18.530149   9.054938  1.675
18650 1  -17.306951   9.776177  1.675
18651 1  -19.740335   6.913758  1.675
18652 1  -20.976546   7.612459  1.675
18653 1  -20.989558   9.032399  1.675
18654 1  -19.766360   9.753639  1.675
18655 1  -22.199744   6.891219  1.675
18656 1  -23.435954   7.589920  1.675
18657 1  -23.448967   9.009860  1.675
18658 1  -22.225769   9.731100  1.675
18659 1  -24.659152   6.868680  1.675
18660 1  -25.895363   7.567381  1.675
18661 1  -25.908376   8.987321  1.675
18662 1  -24.685178   9.708561  1.675
18663 1  -27.118561   6.846142  1.675
18664 1  -28.354772   7.544842  1.675
18665 1  -28.367785   8.964783  1.675
18666 1  -27.144587   9.686022  1.675
18667 1  -29.577970   6.823603  1.675
18668 1  -30.814181   7.522304  1.675
18669 1  -30.827194   8.942244  1.675
18670 1  -29.603996   9.663484  1.675
18671 1  -32.037379   6.801064  1.675
18672 1  -33.273590   7.499765  1.675
18673 1  -33.286603   8.919705  1.675
18674 1  -32.063405   9.640945  1.675
18675 1  -34.496788   6.778525  1.675
18676 1  -35.732999   7.477226  1.675
18677 1  -35.746012   8.897167  1.675
18678 1  -34.522813   9.618406  1.675
18679 1  -36.956197   6.755987  1.675
18680 1  -38.192408   7.454687  1.675
18681 1  -38.205420   8.874628  1.675
18682 1  -36.982222   9.595867  1.675
18683 1  -39.415606   6.733448  1.675
18684 1  -40.651817   7.432149  1.675
18685 1  -40.664829   8.852089  1.675
18686 1  -39.441631   9.573329  1.675
18687 1  -41.875015   6.710909  1.675
18688 1  -43.111225   7.409610  1.675
18689 1  -43.124238   8.829550  1.675
18690 1  -41.901040   9.550790  1.675
18691 1  -44.334423   6.688370  1.675
18692 1  -45.570634   7.387071  1.675
18693 1  -45.583647   8.807012  1.675
18694 1  -44.360449   9.528251  1.675
18695 1  -46.793832   6.665832  1.675
18696 1  -48.030043   7.364532  1.675
18697 1  -48.043056   8.784473  1.675
18698 1  -46.819858   9.505712  1.675
18699 1  -49.253241   6.643293  1.675
18700 1  -50.489452   7.341994  1.675
18701 1  -50.502465   8.761934  1.675
18702 1  -49.279267   9.483174  1.675
18703 1  -51.712650   6.620754  1.675
18704 1  -52.948861   7.319455  1.675
18705 1  -52.961874   8.739395  1.675
18706 1  -51.738676   9.460635  1.675
18707 1  -54.172059   6.598215  1.675
18708 1  -55.408270   7.296916  1.675
18709 1  -55.421282   8.716857  1.675
18710 1  -54.198084   9.438096  1.675
18711 1  -56.631468   6.575677  1.675
18712 1  -57.867679   7.274378  1.675
18713 1  -57.880691   8.694318  1.675
18714 1  -56.657493   9.415557  1.675
18715 1  -59.090877   6.553138  1.675
18716 1  -60.327087   7.251839  1.675
18717 1  -60.340100   8.671779  1.675
18718 1  -59.116902   9.393019  1.675
18719 1  -61.550286   6.530599  1.675
18720 1  -62.786496   7.229300  1.675
18721 1  -62.799509   8.649240  1.675
18722 1  -61.576311   9.370480  1.675
18723 1  -64.009694   6.508061  1.675
18724 1  -65.245905   7.206761  1.675
18725 1  -65.258918   8.626702  1.675
18726 1  -64.035720   9.347941  1.675
18727 1  -66.469103   6.485522  1.675
18728 1  -67.705314   7.184223  1.675
18729 1  -67.718327   8.604163  1.675
18730 1  -66.495129   9.325403  1.675
18731 1  -68.928512   6.462983  1.675
18732 1  -70.164723   7.161684  1.675
18733 1  -70.177736   8.581624  1.675
18734 1  -68.954538   9.302864  1.675
18735 1  -71.387921   6.440444  1.675
18736 1  -72.624132   7.139145  1.675
18737 1  -72.637145   8.559086  1.675
18738 1  -71.413947   9.280325  1.675
18739 1  -73.847330   6.417906  1.675
18740 1  -75.083541   7.116606  1.675
18741 1  -75.096553   8.536547  1.675
18742 1  -73.873355   9.257786  1.675
18743 1  -76.306739   6.395367  1.675
18744 1  -77.542950   7.094068  1.675
18745 1  -77.555962   8.514008  1.675
18746 1  -76.332764   9.235248  1.675
18747 1  -78.766148   6.372828  1.675
18748 1  -80.002358   7.071529  1.675
18749 1  -80.015371   8.491469  1.675
18750 1  -78.792173   9.212709  1.675
18751 1  -81.225557   6.350289  1.675
18752 1  -82.461767   7.048990  1.675
18753 1  -82.474780   8.468931  1.675
18754 1  -81.251582   9.190170  1.675
18755 1  -83.684965   6.327751  1.675
18756 1  -84.921176   7.026451  1.675
18757 1  -84.934189   8.446392  1.675
18758 1  -83.710991   9.167631  1.675
18759 1  -86.144374   6.305212  1.675
18760 1  -87.380585   7.003913  1.675
18761 1  -87.393598   8.423853  1.675
18762 1  -86.170400   9.145093  1.675
18763 1  -88.603783   6.282673  1.675
18764 1  -89.839994   6.981374  1.675
18765 1  -89.853007   8.401314  1.675
18766 1  -88.629809   9.122554  1.675
18767 1  -91.063192   6.260134  1.675
18768 1  -92.299403   6.958835  1.675
18769 1  -92.312416   8.378776  1.675
18770 1  -91.089218   9.100015  1.675
18771 1  -93.522601   6.237596  1.675
18772 1  -94.758812   6.936297  1.675
18773 1  -94.771824   8.356237  1.675
18774 1  -93.548626   9.077476  1.675
18775 1  -95.982010   6.215057  1.675
18776 1  -97.218221   6.913758  1.675
18777 1  -97.231233   8.333698  1.675
18778 1  -96.008035   9.054938  1.675
18779 1  -98.441419   6.192518  1.675
18780 1  -99.677629   6.891219  1.675
18781 1  -99.690642   8.311159  1.675
18782 1  -98.467444   9.032399  1.675
18783 1 -100.900828   6.169979  1.675
18784 1 -102.137038   6.868680  1.675
18785 1 -102.150051   8.288621  1.675
18786 1 -100.926853   9.009860  1.675
18787 1 -103.360236   6.147441  1.675
18788 1 -104.596447   6.846142  1.675
18789 1 -104.609460   8.266082  1.675
18790 1 -103.386262   8.987321  1.675
18791 1 -105.819645   6.124902  1.675
18792 1 -107.055856   6.823603  1.675
18793 1 -107.068869   8.243543  1.675
18794 1 -105.845671   8.964783  1.675
18795 1 -108.279054   6.102363  1.675
18796 1 -109.515265   6.801064  1.675
18797 1 -109.528278   8.221004  1.675
18798 1 -108.305080   8.942244  1.675
18799 1 -110.738463   6.079825  1.675
18800 1 -111.974674   6.778525  1.675
18801 1 -111.987687   8.198466  1.675
18802 1 -110.764489   8.919705  1.675
18803 1 -113.197872   6.057286  1.675
18804 1 -114.434083   6.755987  1.675
18805 1 -114.447095   8.175927  1.675
18806 1 -113.223897   8.897167  1.675
18807 1 -115.657281   6.034747  1.675
18808 1 -115.683306   8.874628  1.675
18809 1  115.488115  12.413209  1.675
18810 1  114.251904  13.111910  1.675
18811 1  114.238892  14.531851  1.675
18812 1  115.462090  15.253090  1.675
18813 1  113.028706  12.390671  1.675
18814 1  111.792495  13.089371  1.675
18815 1  111.779483  14.509312  1.675
18816 1  113.002681  15.230551  1.675
18817 1  110.569297  12.368132  1.675
18818 1  109.333087  13.066833  1.675
18819 1  109.320074  14.486773  1.675
18820 1  110.543272  15.208013  1.675
18821 1  108.109888  12.345593  1.675
18822 1  106.873678  13.044294  1.675
18823 1  106.860665  14.464234  1.675
18824 1  108.083863  15.185474  1.675
18825 1  105.650480  12.323054  1.675
18826 1  104.414269  13.021755  1.675
18827 1  104.401256  14.441696  1.675
18828 1  105.624454  15.162935  1.675
18829 1  103.191071  12.300516  1.675
18830 1  101.954860  12.999217  1.675
18831 1  101.941847  14.419157  1.675
18832 1  103.165045  15.140396  1.675
18833 1  100.731662  12.277977  1.675
18834 1   99.495451  12.976678  1.675
18835 1   99.482438  14.396618  1.675
18836 1  100.705636  15.117858  1.675
18837 1   98.272253  12.255438  1.675
18838 1   97.036042  12.954139  1.675
18839 1   97.023029  14.374079  1.675
18840 1   98.246227  15.095319  1.675
18841 1   95.812844  12.232899  1.675
18842 1   94.576633  12.931600  1.675
18843 1   94.563621  14.351541  1.675
18844 1   95.786819  15.072780  1.675
18845 1   93.353435  12.210361  1.675
18846 1   92.117224  12.909062  1.675
18847 1   92.104212  14.329002  1.675
18848 1   93.327410  15.050242  1.675
18849 1   90.894026  12.187822  1.675
18850 1   89.657816  12.886523  1.675
18851 1   89.644803  14.306463  1.675
18852 1   90.868001  15.027703  1.675
18853 1   88.434617  12.165283  1.675
18854 1   87.198407  12.863984  1.675
18855 1   87.185394  14.283924  1.675
18856 1   88.408592  15.005164  1.675
18857 1   85.975209  12.142745  1.675
18858 1   84.738998  12.841445  1.675
18859 1   84.725985  14.261386  1.675
18860 1   85.949183  14.982625  1.675
18861 1   83.515800  12.120206  1.675
18862 1   82.279589  12.818907  1.675
18863 1   82.266576  14.238847  1.675
18864 1   83.489774  14.960087  1.675
18865 1   81.056391  12.097667  1.675
18866 1   79.820180  12.796368  1.675
18867 1   79.807167  14.216308  1.675
18868 1   81.030365  14.937548  1.675
18869 1   78.596982  12.075128  1.675
18870 1   77.360771  12.773829  1.675
18871 1   77.347758  14.193770  1.675
18872 1   78.570956  14.915009  1.675
18873 1   76.137573  12.052590  1.675
18874 1   74.901362  12.751290  1.675
18875 1   74.888350  14.171231  1.675
18876 1   76.111548  14.892470  1.675
18877 1   73.678164  12.030051  1.675
18878 1   72.441953  12.728752  1.675
18879 1   72.428941  14.148692  1.675
18880 1   73.652139  14.869932  1.675
18881 1   71.218755  12.007512  1.675
18882 1   69.982545  12.706213  1.675
18883 1   69.969532  14.126153  1.675
18884 1   71.192730  14.847393  1.675
18885 1   68.759346  11.984973  1.675
18886 1   67.523136  12.683674  1.675
18887 1   67.510123  14.103615  1.675
18888 1   68.733321  14.824854  1.675
18889 1   66.299938  11.962435  1.675
18890 1   65.063727  12.661135  1.675
18891 1   65.050714  14.081076  1.675
18892 1   66.273912  14.802315  1.675
18893 1   63.840529  11.939896  1.675
18894 1   62.604318  12.638597  1.675
18895 1   62.591305  14.058537  1.675
18896 1   63.814503  14.779777  1.675
18897 1   61.381120  11.917357  1.675
18898 1   60.144909  12.616058  1.675
18899 1   60.131896  14.035998  1.675
18900 1   61.355094  14.757238  1.675
18901 1   58.921711  11.894818  1.675
18902 1   57.685500  12.593519  1.675
18903 1   57.672487  14.013460  1.675
18904 1   58.895686  14.734699  1.675
18905 1   56.462302  11.872280  1.675
18906 1   55.226091  12.570981  1.675
18907 1   55.213079  13.990921  1.675
18908 1   56.436277  14.712160  1.675
18909 1   54.002893  11.849741  1.675
18910 1   52.766682  12.548442  1.675
18911 1   52.753670  13.968382  1.675
18912 1   53.976868  14.689622  1.675
18913 1   51.543484  11.827202  1.675
18914 1   50.307274  12.525903  1.675
18915 1   50.294261  13.945843  1.675
18916 1   51.517459  14.667083  1.675
18917 1   49.084076  11.804664  1.675
18918 1   47.847865  12.503364  1.675
18919 1   47.834852  13.923305  1.675
18920 1   49.058050  14.644544  1.675
18921 1   46.624667  11.782125  1.675
18922 1   45.388456  12.480826  1.675
18923 1   45.375443  13.900766  1.675
18924 1   46.598641  14.622006  1.675
18925 1   44.165258  11.759586  1.675
18926 1   42.929047  12.458287  1.675
18927 1   42.916034  13.878227  1.675
18928 1   44.139232  14.599467  1.675
18929 1   41.705849  11.737047  1.675
18930 1   40.469638  12.435748  1.675
18931 1   40.456625  13.855688  1.675
18932 1   41.679823  14.576928  1.675
18933 1   39.246440  11.714509  1.675
18934 1   38.010229  12.413209  1.675
18935 1   37.997216  13.833150  1.675
18936 1   39.220415  14.554389  1.675
18937 1   36.787031  11.691970  1.675
18938 1   35.550820  12.390671  1.675
18939 1   35.537808  13.810611  1.675
18940 1   36.761006  14.531851  1.675
18941 1   34.327622  11.669431  1.675
18942 1   33.091411  12.368132  1.675
18943 1   33.078399  13.788072  1.675
18944 1   34.301597  14.509312  1.675
18945 1   31.868213  11.646892  1.675
18946 1   30.632003  12.345593  1.675
18947 1   30.618990  13.765534  1.675
18948 1   31.842188  14.486773  1.675
18949 1   29.408805  11.624354  1.675
18950 1   28.172594  12.323054  1.675
18951 1   28.159581  13.742995  1.675
18952 1   29.382779  14.464234  1.675
18953 1   26.949396  11.601815  1.675
18954 1   25.713185  12.300516  1.675
18955 1   25.700172  13.720456  1.675
18956 1   26.923370  14.441696  1.675
18957 1   24.489987  11.579276  1.675
18958 1   23.253776  12.277977  1.675
18959 1   23.240763  13.697917  1.675
18960 1   24.463961  14.419157  1.675
18961 1   22.030578  11.556737  1.675
18962 1   20.794367  12.255438  1.675
18963 1   20.781354  13.675379  1.675
18964 1   22.004552  14.396618  1.675
18965 1   19.571169  11.534199  1.675
18966 1   18.334958  12.232899  1.675
18967 1   18.321945  13.652840  1.675
18968 1   19.545144  14.374079  1.675
18969 1   17.111760  11.511660  1.675
18970 1   15.875549  12.210361  1.675
18971 1   15.862537  13.630301  1.675
18972 1   17.085735  14.351541  1.675
18973 1   14.652351  11.489121  1.675
18974 1   13.416140  12.187822  1.675
18975 1   13.403128  13.607762  1.675
18976 1   14.626326  14.329002  1.675
18977 1   12.192942  11.466582  1.675
18978 1   10.956732  12.165283  1.675
18979 1   10.943719  13.585224  1.675
18980 1   12.166917  14.306463  1.675
18981 1    9.733534  11.444044  1.675
18982 1    8.497323  12.142745  1.675
18983 1    8.484310  13.562685  1.675
18984 1    9.707508  14.283924  1.675
18985 1    7.274125  11.421505  1.675
18986 1    6.037914  12.120206  1.675
18987 1    6.024901  13.540146  1.675
18988 1    7.248099  14.261386  1.675
18989 1    4.814716  11.398966  1.675
18990 1    3.578505  12.097667  1.675
18991 1    3.565492  13.517607  1.675
18992 1    4.788690  14.238847  1.675
18993 1    2.355307  11.376428  1.675
18994 1    1.119096  12.075128  1.675
18995 1    1.106083  13.495069  1.675
18996 1    2.329281  14.216308  1.675
18997 1   -0.104102  11.353889  1.675
18998 1   -1.340313  12.052590  1.675
18999 1   -1.353326  13.472530  1.675
19000 1   -0.130127  14.193770  1.675
19001 1   -2.563511  11.331350  1.675
19002 1   -3.799722  12.030051  1.675
19003 1   -3.812734  13.449991  1.675
19004 1   -2.589536  14.171231  1.675
19005 1   -5.022920  11.308811  1.675
19006 1   -6.259131  12.007512  1.675
19007 1   -6.272143  13.427453  1.675
19008 1   -5.048945  14.148692  1.675
19009 1   -7.482329  11.286273  1.675
19010 1   -8.718539  11.984973  1.675
19011 1   -8.731552  13.404914  1.675
19012 1   -7.508354  14.126153  1.675
19013 1   -9.941737  11.263734  1.675
19014 1  -11.177948  11.962435  1.675
19015 1  -11.190961  13.382375  1.675
19016 1   -9.967763  14.103615  1.675
19017 1  -12.401146  11.241195  1.675
19018 1  -13.637357  11.939896  1.675
19019 1  -13.650370  13.359836  1.675
19020 1  -12.427172  14.081076  1.675
19021 1  -14.860555  11.218656  1.675
19022 1  -16.096766  11.917357  1.675
19023 1  -16.109779  13.337298  1.675
19024 1  -14.886581  14.058537  1.675
19025 1  -17.319964  11.196118  1.675
19026 1  -18.556175  11.894818  1.675
19027 1  -18.569188  13.314759  1.675
19028 1  -17.345990  14.035998  1.675
19029 1  -19.779373  11.173579  1.675
19030 1  -21.015584  11.872280  1.675
19031 1  -21.028597  13.292220  1.675
19032 1  -19.805398  14.013460  1.675
19033 1  -22.238782  11.151040  1.675
19034 1  -23.474993  11.849741  1.675
19035 1  -23.488005  13.269681  1.675
19036 1  -22.264807  13.990921  1.675
19037 1  -24.698191  11.128501  1.675
19038 1  -25.934402  11.827202  1.675
19039 1  -25.947414  13.247143  1.675
19040 1  -24.724216  13.968382  1.675
19041 1  -27.157600  11.105963  1.675
19042 1  -28.393810  11.804664  1.675
19043 1  -28.406823  13.224604  1.675
19044 1  -27.183625  13.945843  1.675
19045 1  -29.617008  11.083424  1.675
19046 1  -30.853219  11.782125  1.675
19047 1  -30.866232  13.202065  1.675
19048 1  -29.643034  13.923305  1.675
19049 1  -32.076417  11.060885  1.675
19050 1  -33.312628  11.759586  1.675
19051 1  -33.325641  13.179526  1.675
19052 1  -32.102443  13.900766  1.675
19053 1  -34.535826  11.038346  1.675
19054 1  -35.772037  11.737047  1.675
19055 1  -35.785050  13.156988  1.675
19056 1  -34.561852  13.878227  1.675
19057 1  -36.995235  11.015808  1.675
19058 1  -38.231446  11.714509  1.675
19059 1  -38.244459  13.134449  1.675
19060 1  -37.021261  13.855688  1.675
19061 1  -39.454644  10.993269  1.675
19062 1  -40.690855  11.691970  1.675
19063 1  -40.703867  13.111910  1.675
19064 1  -39.480669  13.833150  1.675
19065 1  -41.914053  10.970730  1.675
19066 1  -43.150264  11.669431  1.675
19067 1  -43.163276  13.089371  1.675
19068 1  -41.940078  13.810611  1.675
19069 1  -44.373462  10.948192  1.675
19070 1  -45.609672  11.646892  1.675
19071 1  -45.622685  13.066833  1.675
19072 1  -44.399487  13.788072  1.675
19073 1  -46.832871  10.925653  1.675
19074 1  -48.069081  11.624354  1.675
19075 1  -48.082094  13.044294  1.675
19076 1  -46.858896  13.765534  1.675
19077 1  -49.292279  10.903114  1.675
19078 1  -50.528490  11.601815  1.675
19079 1  -50.541503  13.021755  1.675
19080 1  -49.318305  13.742995  1.675
19081 1  -51.751688  10.880575  1.675
19082 1  -52.987899  11.579276  1.675
19083 1  -53.000912  12.999217  1.675
19084 1  -51.777714  13.720456  1.675
19085 1  -54.211097  10.858037  1.675
19086 1  -55.447308  11.556737  1.675
19087 1  -55.460321  12.976678  1.675
19088 1  -54.237123  13.697917  1.675
19089 1  -56.670506  10.835498  1.675
19090 1  -57.906717  11.534199  1.675
19091 1  -57.919730  12.954139  1.675
19092 1  -56.696532  13.675379  1.675
19093 1  -59.129915  10.812959  1.675
19094 1  -60.366126  11.511660  1.675
19095 1  -60.379138  12.931600  1.675
19096 1  -59.155940  13.652840  1.675
19097 1  -61.589324  10.790420  1.675
19098 1  -62.825535  11.489121  1.675
19099 1  -62.838547  12.909062  1.675
19100 1  -61.615349  13.630301  1.675
19101 1  -64.048733  10.767882  1.675
19102 1  -65.284943  11.466582  1.675
19103 1  -65.297956  12.886523  1.675
19104 1  -64.074758  13.607762  1.675
19105 1  -66.508142  10.745343  1.675
19106 1  -67.744352  11.444044  1.675
19107 1  -67.757365  12.863984  1.675
19108 1  -66.534167  13.585224  1.675
19109 1  -68.967550  10.722804  1.675
19110 1  -70.203761  11.421505  1.675
19111 1  -70.216774  12.841445  1.675
19112 1  -68.993576  13.562685  1.675
19113 1  -71.426959  10.700265  1.675
19114 1  -72.663170  11.398966  1.675
19115 1  -72.676183  12.818907  1.675
19116 1  -71.452985  13.540146  1.675
19117 1  -73.886368  10.677727  1.675
19118 1  -75.122579  11.376428  1.675
19119 1  -75.135592  12.796368  1.675
19120 1  -73.912394  13.517607  1.675
19121 1  -76.345777  10.655188  1.675
19122 1  -77.581988  11.353889  1.675
19123 1  -77.595001  12.773829  1.675
19124 1  -76.371803  13.495069  1.675
19125 1  -78.805186  10.632649  1.675
19126 1  -80.041397  11.331350  1.675
19127 1  -80.054409  12.751290  1.675
19128 1  -78.831211  13.472530  1.675
19129 1  -81.264595  10.610110  1.675
19130 1  -82.500806  11.308811  1.675
19131 1  -82.513818  12.728752  1.675
19132 1  -81.290620  13.449991  1.675
19133 1  -83.724004  10.587572  1.675
19134 1  -84.960214  11.286273  1.675
19135 1  -84.973227  12.706213  1.675
19136 1  -83.750029  13.427453  1.675
19137 1  -86.183413  10.565033  1.675
19138 1  -87.419623  11.263734  1.675
19139 1  -87.432636  12.683674  1.675
19140 1  -86.209438  13.404914  1.675
19141 1  -88.642821  10.542494  1.675
19142 1  -89.879032  11.241195  1.675
19143 1  -89.892045  12.661135  1.675
19144 1  -88.668847  13.382375  1.675
19145 1  -91.102230  10.519956  1.675
19146 1  -92.338441  11.218656  1.675
19147 1  -92.351454  12.638597  1.675
19148 1  -91.128256  13.359836  1.675
19149 1  -93.561639  10.497417  1.675
19150 1  -94.797850  11.196118  1.675
19151 1  -94.810863  12.616058  1.675
19152 1  -93.587665  13.337298  1.675
19153 1  -96.021048  10.474878  1.675
19154 1  -97.257259  11.173579  1.675
19155 1  -97.270272  12.593519  1.675
19156 1  -96.047074  13.314759  1.675
19157 1  -98.480457  10.452339  1.675
19158 1  -99.716668  11.151040  1.675
19159 1  -99.729680  12.570981  1.675
19160 1  -98.506482  13.292220  1.675
19161 1 -100.939866  10.429801  1.675
19162 1 -102.176077  11.128501  1.675
19163 1 -102.189089  12.548442  1.675
19164 1 -100.965891  13.269681  1.675
19165 1 -103.399275  10.407262  1.675
19166 1 -104.635485  11.105963  1.675
19167 1 -104.648498  12.525903  1.675
19168 1 -103.425300  13.247143  1.675
19169 1 -105.858684  10.384723  1.675
19170 1 -107.094894  11.083424  1.675
19171 1 -107.107907  12.503364  1.675
19172 1 -105.884709  13.224604  1.675
19173 1 -108.318092  10.362184  1.675
19174 1 -109.554303  11.060885  1.675
19175 1 -109.567316  12.480826  1.675
19176 1 -108.344118  13.202065  1.675
19177 1 -110.777501  10.339646  1.675
19178 1 -112.013712  11.038346  1.675
19179 1 -112.026725  12.458287  1.675
19180 1 -110.803527  13.179526  1.675
19181 1 -113.236910  10.317107  1.675
19182 1 -114.473121  11.015808  1.675
19183 1 -114.486134  12.435748  1.675
19184 1 -113.262936  13.156988  1.675
19185 1 -115.696319  10.294568  1.675
19186 1 -115.722344  13.134449  1.675
19187 1  115.449077  16.673031  1.675
19188 1  114.212866  17.371731  1.675
19189 1  114.199853  18.791672  1.675
19190 1  115.423051  19.512911  1.675
19191 1  112.989668  16.650492  1.675
19192 1  111.753457  17.349193  1.675
19193 1  111.740444  18.769133  1.675
19194 1  112.963642  19.490373  1.675
19195 1  110.530259  16.627953  1.675
19196 1  109.294048  17.326654  1.675
19197 1  109.281036  18.746594  1.675
19198 1  110.504234  19.467834  1.675
19199 1  108.070850  16.605414  1.675
19200 1  106.834639  17.304115  1.675
19201 1  106.821627  18.724055  1.675
19202 1  108.044825  19.445295  1.675
19203 1  105.611441  16.582876  1.675
19204 1  104.375231  17.281576  1.675
19205 1  104.362218  18.701517  1.675
19206 1  105.585416  19.422756  1.675
19207 1  103.152032  16.560337  1.675
19208 1  101.915822  17.259038  1.675
19209 1  101.902809  18.678978  1.675
19210 1  103.126007  19.400218  1.675
19211 1  100.692624  16.537798  1.675
19212 1   99.456413  17.236499  1.675
19213 1   99.443400  18.656439  1.675
19214 1  100.666598  19.377679  1.675
19215 1   98.233215  16.515259  1.675
19216 1   96.997004  17.213960  1.675
19217 1   96.983991  18.633901  1.675
19218 1   98.207189  19.355140  1.675
19219 1   95.773806  16.492721  1.675
19220 1   94.537595  17.191421  1.675
19221 1   94.524582  18.611362  1.675
19222 1   95.747780  19.332601  1.675
19223 1   93.314397  16.470182  1.675
19224 1   92.078186  17.168883  1.675
19225 1   92.065173  18.588823  1.675
19226 1   93.288371  19.310063  1.675
19227 1   90.854988  16.447643  1.675
19228 1   89.618777  17.146344  1.675
19229 1   89.605765  18.566284  1.675
19230 1   90.828963  19.287524  1.675
19231 1   88.395579  16.425104  1.675
19232 1   87.159368  17.123805  1.675
19233 1   87.146356  18.543746  1.675
19234 1   88.369554  19.264985  1.675
19235 1   85.936170  16.402566  1.675
19236 1   84.699960  17.101266  1.675
19237 1   84.686947  18.521207  1.675
19238 1   85.910145  19.242446  1.675
19239 1   83.476761  16.380027  1.675
19240 1   82.240551  17.078728  1.675
19241 1   82.227538  18.498668  1.675
19242 1   83.450736  19.219908  1.675
19243 1   81.017353  16.357488  1.675
19244 1   79.781142  17.056189  1.675
19245 1   79.768129  18.476129  1.675
19246 1   80.991327  19.197369  1.675
19247 1   78.557944  16.334949  1.675
19248 1   77.321733  17.033650  1.675
19249 1   77.308720  18.453591  1.675
19250 1   78.531918  19.174830  1.675
19251 1   76.098535  16.312411  1.675
19252 1   74.862324  17.011112  1.675
19253 1   74.849311  18.431052  1.675
19254 1   76.072509  19.152291  1.675
19255 1   73.639126  16.289872  1.675
19256 1   72.402915  16.988573  1.675
19257 1   72.389902  18.408513  1.675
19258 1   73.613101  19.129753  1.675
19259 1   71.179717  16.267333  1.675
19260 1   69.943506  16.966034  1.675
19261 1   69.930494  18.385974  1.675
19262 1   71.153692  19.107214  1.675
19263 1   68.720308  16.244795  1.675
19264 1   67.484097  16.943495  1.675
19265 1   67.471085  18.363436  1.675
19266 1   68.694283  19.084675  1.675
19267 1   66.260899  16.222256  1.675
19268 1   65.024689  16.920957  1.675
19269 1   65.011676  18.340897  1.675
19270 1   66.234874  19.062137  1.675
19271 1   63.801491  16.199717  1.675
19272 1   62.565280  16.898418  1.675
19273 1   62.552267  18.318358  1.675
19274 1   63.775465  19.039598  1.675
19275 1   61.342082  16.177178  1.675
19276 1   60.105871  16.875879  1.675
19277 1   60.092858  18.295820  1.675
19278 1   61.316056  19.017059  1.675
19279 1   58.882673  16.154640  1.675
19280 1   57.646462  16.853340  1.675
19281 1   57.633449  18.273281  1.675
19282 1   58.856647  18.994520  1.675
19283 1   56.423264  16.132101  1.675
19284 1   55.187053  16.830802  1.675
19285 1   55.174040  18.250742  1.675
19286 1   56.397238  18.971982  1.675
19287 1   53.963855  16.109562  1.675
19288 1   52.727644  16.808263  1.675
19289 1   52.714631  18.228203  1.675
19290 1   53.937830  18.949443  1.675
19291 1   51.504446  16.087023  1.675
19292 1   50.268235  16.785724  1.675
19293 1   50.255223  18.205665  1.675
19294 1   51.478421  18.926904  1.675
19295 1   49.045037  16.064485  1.675
19296 1   47.808826  16.763185  1.675
19297 1   47.795814  18.183126  1.675
19298 1   49.019012  18.904365  1.675
19299 1   46.585628  16.041946  1.675
19300 1   45.349418  16.740647  1.675
19301 1   45.336405  18.160587  1.675
19302 1   46.559603  18.881827  1.675
19303 1   44.126220  16.019407  1.675
19304 1   42.890009  16.718108  1.675
19305 1   42.876996  18.138048  1.675
19306 1   44.100194  18.859288  1.675
19307 1   41.666811  15.996868  1.675
19308 1   40.430600  16.695569  1.675
19309 1   40.417587  18.115510  1.675
19310 1   41.640785  18.836749  1.675
19311 1   39.207402  15.974330  1.675
19312 1   37.971191  16.673031  1.675
19313 1   37.958178  18.092971  1.675
19314 1   39.181376  18.814210  1.675
19315 1   36.747993  15.951791  1.675
19316 1   35.511782  16.650492  1.675
19317 1   35.498769  18.070432  1.675
19318 1   36.721967  18.791672  1.675
19319 1   34.288584  15.929252  1.675
19320 1   33.052373  16.627953  1.675
19321 1   33.039360  18.047893  1.675
19322 1   34.262559  18.769133  1.675
19323 1   31.829175  15.906713  1.675
19324 1   30.592964  16.605414  1.675
19325 1   30.579952  18.025355  1.675
19326 1   31.803150  18.746594  1.675
19327 1   29.369766  15.884175  1.675
19328 1   28.133555  16.582876  1.675
19329 1   28.120543  18.002816  1.675
19330 1   29.343741  18.724055  1.675
19331 1   26.910357  15.861636  1.675
19332 1   25.674147  16.560337  1.675
19333 1   25.661134  17.980277  1.675
19334 1   26.884332  18.701517  1.675
19335 1   24.450949  15.839097  1.675
19336 1   23.214738  16.537798  1.675
19337 1   23.201725  17.957738  1.675
19338 1   24.424923  18.678978  1.675
19339 1   21.991540  15.816559  1.675
19340 1   20.755329  16.515259  1.675
19341 1   20.742316  17.935200  1.675
19342 1   21.965514  18.656439  1.675
19343 1   19.532131  15.794020  1.675
19344 1   18.295920  16.492721  1.675
19345 1   18.282907  17.912661  1.675
19346 1   19.506105  18.633901  1.675
19347 1   17.072722  15.771481  1.675
19348 1   15.836511  16.470182  1.675
19349 1   15.823498  17.890122  1.675
19350 1   17.046696  18.611362  1.675
19351 1   14.613313  15.748942  1.675
19352 1   13.377102  16.447643  1.675
19353 1   13.364089  17.867584  1.675
19354 1   14.587288  18.588823  1.675
19355 1   12.153904  15.726404  1.675
19356 1   10.917693  16.425104  1.675
19357 1   10.904681  17.845045  1.675
19358 1   12.127879  18.566284  1.675
19359 1    9.694495  15.703865  1.675
19360 1    8.458284  16.402566  1.675
19361 1    8.445272  17.822506  1.675
19362 1    9.668470  18.543746  1.675
19363 1    7.235086  15.681326  1.675
19364 1    5.998876  16.380027  1.675
19365 1    5.985863  17.799967  1.675
19366 1    7.209061  18.521207  1.675
19367 1    4.775678  15.658787  1.675
19368 1    3.539467  16.357488  1.675
19369 1    3.526454  17.777429  1.675
19370 1    4.749652  18.498668  1.675
19371 1    2.316269  15.636249  1.675
19372 1    1.080058  16.334949  1.675
19373 1    1.067045  17.754890  1.675
19374 1    2.290243  18.476129  1.675
19375 1   -0.143140  15.613710  1.675
19376 1   -1.379351  16.312411  1.675
19377 1   -1.392364  17.732351  1.675
19378 1   -0.169166  18.453591  1.675
19379 1   -2.602549  15.591171  1.675
19380 1   -3.838760  16.289872  1.675
19381 1   -3.851773  17.709812  1.675
19382 1   -2.628575  18.431052  1.675
19383 1   -5.061958  15.568632  1.675
19384 1   -6.298169  16.267333  1.675
19385 1   -6.311181  17.687274  1.675
19386 1   -5.087983  18.408513  1.675
19387 1   -7.521367  15.546094  1.675
19388 1   -8.757578  16.244795  1.675
19389 1   -8.770590  17.664735  1.675
19390 1   -7.547392  18.385974  1.675
19391 1   -9.980776  15.523555  1.675
19392 1  -11.216987  16.222256  1.675
19393 1  -11.229999  17.642196  1.675
19394 1  -10.006801  18.363436  1.675
19395 1  -12.440185  15.501016  1.675
19396 1  -13.676395  16.199717  1.675
19397 1  -13.689408  17.619657  1.675
19398 1  -12.466210  18.340897  1.675
19399 1  -14.899593  15.478477  1.675
19400 1  -16.135804  16.177178  1.675
19401 1  -16.148817  17.597119  1.675
19402 1  -14.925619  18.318358  1.675
19403 1  -17.359002  15.455939  1.675
19404 1  -18.595213  16.154640  1.675
19405 1  -18.608226  17.574580  1.675
19406 1  -17.385028  18.295820  1.675
19407 1  -19.818411  15.433400  1.675
19408 1  -21.054622  16.132101  1.675
19409 1  -21.067635  17.552041  1.675
19410 1  -19.844437  18.273281  1.675
19411 1  -22.277820  15.410861  1.675
19412 1  -23.514031  16.109562  1.675
19413 1  -23.527044  17.529502  1.675
19414 1  -22.303846  18.250742  1.675
19415 1  -24.737229  15.388323  1.675
19416 1  -25.973440  16.087023  1.675
19417 1  -25.986452  17.506964  1.675
19418 1  -24.763254  18.228203  1.675
19419 1  -27.196638  15.365784  1.675
19420 1  -28.432849  16.064485  1.675
19421 1  -28.445861  17.484425  1.675
19422 1  -27.222663  18.205665  1.675
19423 1  -29.656047  15.343245  1.675
19424 1  -30.892257  16.041946  1.675
19425 1  -30.905270  17.461886  1.675
19426 1  -29.682072  18.183126  1.675
19427 1  -32.115456  15.320706  1.675
19428 1  -33.351666  16.019407  1.675
19429 1  -33.364679  17.439348  1.675
19430 1  -32.141481  18.160587  1.675
19431 1  -34.574864  15.298168  1.675
19432 1  -35.811075  15.996868  1.675
19433 1  -35.824088  17.416809  1.675
19434 1  -34.600890  18.138048  1.675
19435 1  -37.034273  15.275629  1.675
19436 1  -38.270484  15.974330  1.675
19437 1  -38.283497  17.394270  1.675
19438 1  -37.060299  18.115510  1.675
19439 1  -39.493682  15.253090  1.675
19440 1  -40.729893  15.951791  1.675
19441 1  -40.742906  17.371731  1.675
19442 1  -39.519708  18.092971  1.675
19443 1  -41.953091  15.230551  1.675
19444 1  -43.189302  15.929252  1.675
19445 1  -43.202315  17.349193  1.675
19446 1  -41.979117  18.070432  1.675
19447 1  -44.412500  15.208013  1.675
19448 1  -45.648711  15.906713  1.675
19449 1  -45.661723  17.326654  1.675
19450 1  -44.438525  18.047893  1.675
19451 1  -46.871909  15.185474  1.675
19452 1  -48.108120  15.884175  1.675
19453 1  -48.121132  17.304115  1.675
19454 1  -46.897934  18.025355  1.675
19455 1  -49.331318  15.162935  1.675
19456 1  -50.567528  15.861636  1.675
19457 1  -50.580541  17.281576  1.675
19458 1  -49.357343  18.002816  1.675
19459 1  -51.790727  15.140396  1.675
19460 1  -53.026937  15.839097  1.675
19461 1  -53.039950  17.259038  1.675
19462 1  -51.816752  17.980277  1.675
19463 1  -54.250135  15.117858  1.675
19464 1  -55.486346  15.816559  1.675
19465 1  -55.499359  17.236499  1.675
19466 1  -54.276161  17.957738  1.675
19467 1  -56.709544  15.095319  1.675
19468 1  -57.945755  15.794020  1.675
19469 1  -57.958768  17.213960  1.675
19470 1  -56.735570  17.935200  1.675
19471 1  -59.168953  15.072780  1.675
19472 1  -60.405164  15.771481  1.675
19473 1  -60.418177  17.191421  1.675
19474 1  -59.194979  17.912661  1.675
19475 1  -61.628362  15.050242  1.675
19476 1  -62.864573  15.748942  1.675
19477 1  -62.877586  17.168883  1.675
19478 1  -61.654388  17.890122  1.675
19479 1  -64.087771  15.027703  1.675
19480 1  -65.323982  15.726404  1.675
19481 1  -65.336994  17.146344  1.675
19482 1  -64.113796  17.867584  1.675
19483 1  -66.547180  15.005164  1.675
19484 1  -67.783391  15.703865  1.675
19485 1  -67.796403  17.123805  1.675
19486 1  -66.573205  17.845045  1.675
19487 1  -69.006589  14.982625  1.675
19488 1  -70.242799  15.681326  1.675
19489 1  -70.255812  17.101266  1.675
19490 1  -69.032614  17.822506  1.675
19491 1  -71.465998  14.960087  1.675
19492 1  -72.702208  15.658787  1.675
19493 1  -72.715221  17.078728  1.675
19494 1  -71.492023  17.799967  1.675
19495 1  -73.925406  14.937548  1.675
19496 1  -75.161617  15.636249  1.675
19497 1  -75.174630  17.056189  1.675
19498 1  -73.951432  17.777429  1.675
19499 1  -76.384815  14.915009  1.675
19500 1  -77.621026  15.613710  1.675
19501 1  -77.634039  17.033650  1.675
19502 1  -76.410841  17.754890  1.675
19503 1  -78.844224  14.892470  1.675
19504 1  -80.080435  15.591171  1.675
19505 1  -80.093448  17.011112  1.675
19506 1  -78.870250  17.732351  1.675
19507 1  -81.303633  14.869932  1.675
19508 1  -82.539844  15.568632  1.675
19509 1  -82.552857  16.988573  1.675
19510 1  -81.329659  17.709812  1.675
19511 1  -83.763042  14.847393  1.675
19512 1  -84.999253  15.546094  1.675
19513 1  -85.012265  16.966034  1.675
19514 1  -83.789067  17.687274  1.675
19515 1  -86.222451  14.824854  1.675
19516 1  -87.458662  15.523555  1.675
19517 1  -87.471674  16.943495  1.675
19518 1  -86.248476  17.664735  1.675
19519 1  -88.681860  14.802315  1.675
19520 1  -89.918070  15.501016  1.675
19521 1  -89.931083  16.920957  1.675
19522 1  -88.707885  17.642196  1.675
19523 1  -91.141269  14.779777  1.675
19524 1  -92.377479  15.478477  1.675
19525 1  -92.390492  16.898418  1.675
19526 1  -91.167294  17.619657  1.675
19527 1  -93.600677  14.757238  1.675
19528 1  -94.836888  15.455939  1.675
19529 1  -94.849901  16.875879  1.675
19530 1  -93.626703  17.597119  1.675
19531 1  -96.060086  14.734699  1.675
19532 1  -97.296297  15.433400  1.675
19533 1  -97.309310  16.853340  1.675
19534 1  -96.086112  17.574580  1.675
19535 1  -98.519495  14.712160  1.675
19536 1  -99.755706  15.410861  1.675
19537 1  -99.768719  16.830802  1.675
19538 1  -98.545521  17.552041  1.675
19539 1 -100.978904  14.689622  1.675
19540 1 -102.215115  15.388323  1.675
19541 1 -102.228128  16.808263  1.675
19542 1 -101.004929  17.529502  1.675
19543 1 -103.438313  14.667083  1.675
19544 1 -104.674524  15.365784  1.675
19545 1 -104.687536  16.785724  1.675
19546 1 -103.464338  17.506964  1.675
19547 1 -105.897722  14.644544  1.675
19548 1 -107.133933  15.343245  1.675
19549 1 -107.146945  16.763185  1.675
19550 1 -105.923747  17.484425  1.675
19551 1 -108.357131  14.622006  1.675
19552 1 -109.593341  15.320706  1.675
19553 1 -109.606354  16.740647  1.675
19554 1 -108.383156  17.461886  1.675
19555 1 -110.816539  14.599467  1.675
19556 1 -112.052750  15.298168  1.675
19557 1 -112.065763  16.718108  1.675
19558 1 -110.842565  17.439348  1.675
19559 1 -113.275948  14.576928  1.675
19560 1 -114.512159  15.275629  1.675
19561 1 -114.525172  16.695569  1.675
19562 1 -113.301974  17.416809  1.675
19563 1 -115.735357  14.554389  1.675
19564 1 -115.761383  17.394270  1.675
19565 1  115.410039  20.932852  1.675
19566 1  114.173828  21.631552  1.675
19567 1  114.160815  23.051493  1.675
19568 1  115.384013  23.772732  1.675
19569 1  112.950630  20.910313  1.675
19570 1  111.714419  21.609014  1.675
19571 1  111.701406  23.028954  1.675
19572 1  112.924604  23.750194  1.675
19573 1  110.491221  20.887774  1.675
19574 1  109.255010  21.586475  1.675
19575 1  109.241997  23.006415  1.675
19576 1  110.465195  23.727655  1.675
19577 1  108.031812  20.865235  1.675
19578 1  106.795601  21.563936  1.675
19579 1  106.782588  22.983877  1.675
19580 1  108.005786  23.705116  1.675
19581 1  105.572403  20.842697  1.675
19582 1  104.336192  21.541398  1.675
19583 1  104.323180  22.961338  1.675
19584 1  105.546378  23.682577  1.675
19585 1  103.112994  20.820158  1.675
19586 1  101.876783  21.518859  1.675
19587 1  101.863771  22.938799  1.675
19588 1  103.086969  23.660039  1.675
19589 1  100.653585  20.797619  1.675
19590 1   99.417375  21.496320  1.675
19591 1   99.404362  22.916260  1.675
19592 1  100.627560  23.637500  1.675
19593 1   98.194176  20.775080  1.675
19594 1   96.957966  21.473781  1.675
19595 1   96.944953  22.893722  1.675
19596 1   98.168151  23.614961  1.675
19597 1   95.734768  20.752542  1.675
19598 1   94.498557  21.451243  1.675
19599 1   94.485544  22.871183  1.675
19600 1   95.708742  23.592422  1.675
19601 1   93.275359  20.730003  1.675
19602 1   92.039148  21.428704  1.675
19603 1   92.026135  22.848644  1.675
19604 1   93.249333  23.569884  1.675
19605 1   90.815950  20.707464  1.675
19606 1   89.579739  21.406165  1.675
19607 1   89.566726  22.826105  1.675
19608 1   90.789924  23.547345  1.675
19609 1   88.356541  20.684926  1.675
19610 1   87.120330  21.383626  1.675
19611 1   87.107317  22.803567  1.675
19612 1   88.330516  23.524806  1.675
19613 1   85.897132  20.662387  1.675
19614 1   84.660921  21.361088  1.675
19615 1   84.647909  22.781028  1.675
19616 1   85.871107  23.502268  1.675
19617 1   83.437723  20.639848  1.675
19618 1   82.201512  21.338549  1.675
19619 1   82.188500  22.758489  1.675
19620 1   83.411698  23.479729  1.675
19621 1   80.978314  20.617309  1.675
19622 1   79.742104  21.316010  1.675
19623 1   79.729091  22.735951  1.675
19624 1   80.952289  23.457190  1.675
19625 1   78.518906  20.594771  1.675
19626 1   77.282695  21.293471  1.675
19627 1   77.269682  22.713412  1.675
19628 1   78.492880  23.434651  1.675
19629 1   76.059497  20.572232  1.675
19630 1   74.823286  21.270933  1.675
19631 1   74.810273  22.690873  1.675
19632 1   76.033471  23.412113  1.675
19633 1   73.600088  20.549693  1.675
19634 1   72.363877  21.248394  1.675
19635 1   72.350864  22.668334  1.675
19636 1   73.574062  23.389574  1.675
19637 1   71.140679  20.527154  1.675
19638 1   69.904468  21.225855  1.675
19639 1   69.891455  22.645796  1.675
19640 1   71.114653  23.367035  1.675
19641 1   68.681270  20.504616  1.675
19642 1   67.445059  21.203316  1.675
19643 1   67.432046  22.623257  1.675
19644 1   68.655245  23.344496  1.675
19645 1   66.221861  20.482077  1.675
19646 1   64.985650  21.180778  1.675
19647 1   64.972638  22.600718  1.675
19648 1   66.195836  23.321958  1.675
19649 1   63.762452  20.459538  1.675
19650 1   62.526241  21.158239  1.675
19651 1   62.513229  22.578179  1.675
19652 1   63.736427  23.299419  1.675
19653 1   61.303043  20.436999  1.675
19654 1   60.066833  21.135700  1.675
19655 1   60.053820  22.555641  1.675
19656 1   61.277018  23.276880  1.675
19657 1   58.843635  20.414461  1.675
19658 1   57.607424  21.113162  1.675
19659 1   57.594411  22.533102  1.675
19660 1   58.817609  23.254341  1.675
19661 1   56.384226  20.391922  1.675
19662 1   55.148015  21.090623  1.675
19663 1   55.135002  22.510563  1.675
19664 1   56.358200  23.231803  1.675
19665 1   53.924817  20.369383  1.675
19666 1   52.688606  21.068084  1.675
19667 1   52.675593  22.488024  1.675
19668 1   53.898791  23.209264  1.675
19669 1   51.465408  20.346844  1.675
19670 1   50.229197  21.045545  1.675
19671 1   50.216184  22.465486  1.675
19672 1   51.439382  23.186725  1.675
19673 1   49.005999  20.324306  1.675
19674 1   47.769788  21.023007  1.675
19675 1   47.756775  22.442947  1.675
19676 1   48.979974  23.164187  1.675
19677 1   46.546590  20.301767  1.675
19678 1   45.310379  21.000468  1.675
19679 1   45.297367  22.420408  1.675
19680 1   46.520565  23.141648  1.675
19681 1   44.087181  20.279228  1.675
19682 1   42.850970  20.977929  1.675
19683 1   42.837958  22.397869  1.675
19684 1   44.061156  23.119109  1.675
19685 1   41.627772  20.256690  1.675
19686 1   40.391562  20.955390  1.675
19687 1   40.378549  22.375331  1.675
19688 1   41.601747  23.096570  1.675
19689 1   39.168364  20.234151  1.675
19690 1   37.932153  20.932852  1.675
19691 1   37.919140  22.352792  1.675
19692 1   39.142338  23.074032  1.675
19693 1   36.708955  20.211612  1.675
19694 1   35.472744  20.910313  1.675
19695 1   35.459731  22.330253  1.675
19696 1   36.682929  23.051493  1.675
19697 1   34.249546  20.189073  1.675
19698 1   33.013335  20.887774  1.675
19699 1   33.000322  22.307715  1.675
19700 1   34.223520  23.028954  1.675
19701 1   31.790137  20.166535  1.675
19702 1   30.553926  20.865235  1.675
19703 1   30.540913  22.285176  1.675
19704 1   31.764111  23.006415  1.675
19705 1   29.330728  20.143996  1.675
19706 1   28.094517  20.842697  1.675
19707 1   28.081504  22.262637  1.675
19708 1   29.304703  22.983877  1.675
19709 1   26.871319  20.121457  1.675
19710 1   25.635108  20.820158  1.675
19711 1   25.622096  22.240098  1.675
19712 1   26.845294  22.961338  1.675
19713 1   24.411910  20.098918  1.675
19714 1   23.175699  20.797619  1.675
19715 1   23.162687  22.217560  1.675
19716 1   24.385885  22.938799  1.675
19717 1   21.952501  20.076380  1.675
19718 1   20.716291  20.775080  1.675
19719 1   20.703278  22.195021  1.675
19720 1   21.926476  22.916260  1.675
19721 1   19.493093  20.053841  1.675
19722 1   18.256882  20.752542  1.675
19723 1   18.243869  22.172482  1.675
19724 1   19.467067  22.893722  1.675
19725 1   17.033684  20.031302  1.675
19726 1   15.797473  20.730003  1.675
19727 1   15.784460  22.149943  1.675
19728 1   17.007658  22.871183  1.675
19729 1   14.574275  20.008763  1.675
19730 1   13.338064  20.707464  1.675
19731 1   13.325051  22.127405  1.675
19732 1   14.548249  22.848644  1.675
19733 1   12.114866  19.986225  1.675
19734 1   10.878655  20.684926  1.675
19735 1   10.865642  22.104866  1.675
19736 1   12.088840  22.826105  1.675
19737 1    9.655457  19.963686  1.675
19738 1    8.419246  20.662387  1.675
19739 1    8.406234  22.082327  1.675
19740 1    9.629432  22.803567  1.675
19741 1    7.196048  19.941147  1.675
19742 1    5.959837  20.639848  1.675
19743 1    5.946825  22.059788  1.675
19744 1    7.170023  22.781028  1.675
19745 1    4.736639  19.918609  1.675
19746 1    3.500429  20.617309  1.675
19747 1    3.487416  22.037250  1.675
19748 1    4.710614  22.758489  1.675
19749 1    2.277230  19.896070  1.675
19750 1    1.041020  20.594771  1.675
19751 1    1.028007  22.014711  1.675
19752 1    2.251205  22.735951  1.675
19753 1   -0.182178  19.873531  1.675
19754 1   -1.418389  20.572232  1.675
19755 1   -1.431402  21.992172  1.675
19756 1   -0.208204  22.713412  1.675
19757 1   -2.641587  19.850992  1.675
19758 1   -3.877798  20.549693  1.675
19759 1   -3.890811  21.969633  1.675
19760 1   -2.667613  22.690873  1.675
19761 1   -5.100996  19.828454  1.675
19762 1   -6.337207  20.527154  1.675
19763 1   -6.350220  21.947095  1.675
19764 1   -5.127022  22.668334  1.675
19765 1   -7.560405  19.805915  1.675
19766 1   -8.796616  20.504616  1.675
19767 1   -8.809629  21.924556  1.675
19768 1   -7.586431  22.645796  1.675
19769 1  -10.019814  19.783376  1.675
19770 1  -11.256025  20.482077  1.675
19771 1  -11.269037  21.902017  1.675
19772 1  -10.045839  22.623257  1.675
19773 1  -12.479223  19.760837  1.675
19774 1  -13.715434  20.459538  1.675
19775 1  -13.728446  21.879479  1.675
19776 1  -12.505248  22.600718  1.675
19777 1  -14.938632  19.738299  1.675
19778 1  -16.174842  20.436999  1.675
19779 1  -16.187855  21.856940  1.675
19780 1  -14.964657  22.578179  1.675
19781 1  -17.398041  19.715760  1.675
19782 1  -18.634251  20.414461  1.675
19783 1  -18.647264  21.834401  1.675
19784 1  -17.424066  22.555641  1.675
19785 1  -19.857449  19.693221  1.675
19786 1  -21.093660  20.391922  1.675
19787 1  -21.106673  21.811862  1.675
19788 1  -19.883475  22.533102  1.675
19789 1  -22.316858  19.670682  1.675
19790 1  -23.553069  20.369383  1.675
19791 1  -23.566082  21.789324  1.675
19792 1  -22.342884  22.510563  1.675
19793 1  -24.776267  19.648144  1.675
19794 1  -26.012478  20.346844  1.675
19795 1  -26.025491  21.766785  1.675
19796 1  -24.802293  22.488024  1.675
19797 1  -27.235676  19.625605  1.675
19798 1  -28.471887  20.324306  1.675
19799 1  -28.484900  21.744246  1.675
19800 1  -27.261702  22.465486  1.675
19801 1  -29.695085  19.603066  1.675
19802 1  -30.931296  20.301767  1.675
19803 1  -30.944308  21.721707  1.675
19804 1  -29.721110  22.442947  1.675
19805 1  -32.154494  19.580527  1.675
19806 1  -33.390705  20.279228  1.675
19807 1  -33.403717  21.699169  1.675
19808 1  -32.180519  22.420408  1.675
19809 1  -34.613903  19.557989  1.675
19810 1  -35.850113  20.256690  1.675
19811 1  -35.863126  21.676630  1.675
19812 1  -34.639928  22.397869  1.675
19813 1  -37.073312  19.535450  1.675
19814 1  -38.309522  20.234151  1.675
19815 1  -38.322535  21.654091  1.675
19816 1  -37.099337  22.375331  1.675
19817 1  -39.532720  19.512911  1.675
19818 1  -40.768931  20.211612  1.675
19819 1  -40.781944  21.631552  1.675
19820 1  -39.558746  22.352792  1.675
19821 1  -41.992129  19.490373  1.675
19822 1  -43.228340  20.189073  1.675
19823 1  -43.241353  21.609014  1.675
19824 1  -42.018155  22.330253  1.675
19825 1  -44.451538  19.467834  1.675
19826 1  -45.687749  20.166535  1.675
19827 1  -45.700762  21.586475  1.675
19828 1  -44.477564  22.307715  1.675
19829 1  -46.910947  19.445295  1.675
19830 1  -48.147158  20.143996  1.675
19831 1  -48.160171  21.563936  1.675
19832 1  -46.936973  22.285176  1.675
19833 1  -49.370356  19.422756  1.675
19834 1  -50.606567  20.121457  1.675
19835 1  -50.619579  21.541398  1.675
19836 1  -49.396381  22.262637  1.675
19837 1  -51.829765  19.400218  1.675
19838 1  -53.065976  20.098918  1.675
19839 1  -53.078988  21.518859  1.675
19840 1  -51.855790  22.240098  1.675
19841 1  -54.289174  19.377679  1.675
19842 1  -55.525384  20.076380  1.675
19843 1  -55.538397  21.496320  1.675
19844 1  -54.315199  22.217560  1.675
19845 1  -56.748583  19.355140  1.675
19846 1  -57.984793  20.053841  1.675
19847 1  -57.997806  21.473781  1.675
19848 1  -56.774608  22.195021  1.675
19849 1  -59.207991  19.332601  1.675
19850 1  -60.444202  20.031302  1.675
19851 1  -60.457215  21.451243  1.675
19852 1  -59.234017  22.172482  1.675
19853 1  -61.667400  19.310063  1.675
19854 1  -62.903611  20.008763  1.675
19855 1  -62.916624  21.428704  1.675
19856 1  -61.693426  22.149943  1.675
19857 1  -64.126809  19.287524  1.675
19858 1  -65.363020  19.986225  1.675
19859 1  -65.376033  21.406165  1.675
19860 1  -64.152835  22.127405  1.675
19861 1  -66.586218  19.264985  1.675
19862 1  -67.822429  19.963686  1.675
19863 1  -67.835442  21.383626  1.675
19864 1  -66.612244  22.104866  1.675
19865 1  -69.045627  19.242446  1.675
19866 1  -70.281838  19.941147  1.675
19867 1  -70.294850  21.361088  1.675
19868 1  -69.071652  22.082327  1.675
19869 1  -71.505036  19.219908  1.675
19870 1  -72.741247  19.918609  1.675
19871 1  -72.754259  21.338549  1.675
19872 1  -71.531061  22.059788  1.675
19873 1  -73.964445  19.197369  1.675
19874 1  -75.200655  19.896070  1.675
19875 1  -75.213668  21.316010  1.675
19876 1  -73.990470  22.037250  1.675
19877 1  -76.423854  19.174830  1.675
19878 1  -77.660064  19.873531  1.675
19879 1  -77.673077  21.293471  1.675
19880 1  -76.449879  22.014711  1.675
19881 1  -78.883262  19.152291  1.675
19882 1  -80.119473  19.850992  1.675
19883 1  -80.132486  21.270933  1.675
19884 1  -78.909288  21.992172  1.675
19885 1  -81.342671  19.129753  1.675
19886 1  -82.578882  19.828454  1.675
19887 1  -82.591895  21.248394  1.675
19888 1  -81.368697  21.969633  1.675
19889 1  -83.802080  19.107214  1.675
19890 1  -85.038291  19.805915  1.675
19891 1  -85.051304  21.225855  1.675
19892 1  -83.828106  21.947095  1.675
19893 1  -86.261489  19.084675  1.675
19894 1  -87.497700  19.783376  1.675
19895 1  -87.510713  21.203316  1.675
19896 1  -86.287514  21.924556  1.675
19897 1  -88.720898  19.062137  1.675
19898 1  -89.957109  19.760837  1.675
19899 1  -89.970121  21.180778  1.675
19900 1  -88.746923  21.902017  1.675
19901 1  -91.180307  19.039598  1.675
19902 1  -92.416518  19.738299  1.675
19903 1  -92.429530  21.158239  1.675
19904 1  -91.206332  21.879479  1.675
19905 1  -93.639716  19.017059  1.675
19906 1  -94.875926  19.715760  1.675
19907 1  -94.888939  21.135700  1.675
19908 1  -93.665741  21.856940  1.675
19909 1  -96.099124  18.994520  1.675
19910 1  -97.335335  19.693221  1.675
19911 1  -97.348348  21.113162  1.675
19912 1  -96.125150  21.834401  1.675
19913 1  -98.558533  18.971982  1.675
19914 1  -99.794744  19.670682  1.675
19915 1  -99.807757  21.090623  1.675
19916 1  -98.584559  21.811862  1.675
19917 1 -101.017942  18.949443  1.675
19918 1 -102.254153  19.648144  1.675
19919 1 -102.267166  21.068084  1.675
19920 1 -101.043968  21.789324  1.675
19921 1 -103.477351  18.926904  1.675
19922 1 -104.713562  19.625605  1.675
19923 1 -104.726575  21.045545  1.675
19924 1 -103.503377  21.766785  1.675
19925 1 -105.936760  18.904365  1.675
19926 1 -107.172971  19.603066  1.675
19927 1 -107.185984  21.023007  1.675
19928 1 -105.962785  21.744246  1.675
19929 1 -108.396169  18.881827  1.675
19930 1 -109.632380  19.580527  1.675
19931 1 -109.645392  21.000468  1.675
19932 1 -108.422194  21.721707  1.675
19933 1 -110.855578  18.859288  1.675
19934 1 -112.091789  19.557989  1.675
19935 1 -112.104801  20.977929  1.675
19936 1 -110.881603  21.699169  1.675
19937 1 -113.314987  18.836749  1.675
19938 1 -114.551197  19.535450  1.675
19939 1 -114.564210  20.955390  1.675
19940 1 -113.341012  21.676630  1.675
19941 1 -115.774395  18.814210  1.675
19942 1 -115.800421  21.654091  1.675
19943 1  115.371000  25.192673  1.675
19944 1  114.134790  25.891374  1.675
19945 1  114.121777  27.311314  1.675
19946 1  115.344975  28.032554  1.675
19947 1  112.911591  25.170134  1.675
19948 1  111.675381  25.868835  1.675
19949 1  111.662368  27.288775  1.675
19950 1  112.885566  28.010015  1.675
19951 1  110.452183  25.147595  1.675
19952 1  109.215972  25.846296  1.675
19953 1  109.202959  27.266236  1.675
19954 1  110.426157  27.987476  1.675
19955 1  107.992774  25.125057  1.675
19956 1  106.756563  25.823757  1.675
19957 1  106.743550  27.243698  1.675
19958 1  107.966748  27.964937  1.675
19959 1  105.533365  25.102518  1.675
19960 1  104.297154  25.801219  1.675
19961 1  104.284141  27.221159  1.675
19962 1  105.507339  27.942399  1.675
19963 1  103.073956  25.079979  1.675
19964 1  101.837745  25.778680  1.675
19965 1  101.824732  27.198620  1.675
19966 1  103.047931  27.919860  1.675
19967 1  100.614547  25.057440  1.675
19968 1   99.378336  25.756141  1.675
19969 1   99.365324  27.176082  1.675
19970 1  100.588522  27.897321  1.675
19971 1   98.155138  25.034902  1.675
19972 1   96.918927  25.733602  1.675
19973 1   96.905915  27.153543  1.675
19974 1   98.129113  27.874782  1.675
19975 1   95.695729  25.012363  1.675
19976 1   94.459519  25.711064  1.675
19977 1   94.446506  27.131004  1.675
19978 1   95.669704  27.852244  1.675
19979 1   93.236321  24.989824  1.675
19980 1   92.000110  25.688525  1.675
19981 1   91.987097  27.108465  1.675
19982 1   93.210295  27.829705  1.675
19983 1   90.776912  24.967285  1.675
19984 1   89.540701  25.665986  1.675
19985 1   89.527688  27.085927  1.675
19986 1   90.750886  27.807166  1.675
19987 1   88.317503  24.944747  1.675
19988 1   87.081292  25.643447  1.675
19989 1   87.068279  27.063388  1.675
19990 1   88.291477  27.784627  1.675
19991 1   85.858094  24.922208  1.675
19992 1   84.621883  25.620909  1.675
19993 1   84.608870  27.040849  1.675
19994 1   85.832068  27.762089  1.675
19995 1   83.398685  24.899669  1.675
19996 1   82.162474  25.598370  1.675
19997 1   82.149461  27.018310  1.675
19998 1   83.372660  27.739550  1.675
19999 1   80.939276  24.877130  1.675
20000 1   79.703065  25.575831  1.675
20001 1   79.690053  26.995772  1.675
20002 1   80.913251  27.717011  1.675
20003 1   78.479867  24.854592  1.675
20004 1   77.243656  25.553293  1.675
20005 1   77.230644  26.973233  1.675
20006 1   78.453842  27.694472  1.675
20007 1   76.020458  24.832053  1.675
20008 1   74.784248  25.530754  1.675
20009 1   74.771235  26.950694  1.675
20010 1   75.994433  27.671934  1.675
20011 1   73.561050  24.809514  1.675
20012 1   72.324839  25.508215  1.675
20013 1   72.311826  26.928155  1.675
20014 1   73.535024  27.649395  1.675
20015 1   71.101641  24.786976  1.675
20016 1   69.865430  25.485676  1.675
20017 1   69.852417  26.905617  1.675
20018 1   71.075615  27.626856  1.675
20019 1   68.642232  24.764437  1.675
20020 1   67.406021  25.463138  1.675
20021 1   67.393008  26.883078  1.675
20022 1   68.616206  27.604318  1.675
20023 1   66.182823  24.741898  1.675
20024 1   64.946612  25.440599  1.675
20025 1   64.933599  26.860539  1.675
20026 1   66.156797  27.581779  1.675
20027 1   63.723414  24.719359  1.675
20028 1   62.487203  25.418060  1.675
20029 1   62.474190  26.838000  1.675
20030 1   63.697389  27.559240  1.675
20031 1   61.264005  24.696821  1.675
20032 1   60.027794  25.395521  1.675
20033 1   60.014782  26.815462  1.675
20034 1   61.237980  27.536701  1.675
20035 1   58.804596  24.674282  1.675
20036 1   57.568385  25.372983  1.675
20037 1   57.555373  26.792923  1.675
20038 1   58.778571  27.514163  1.675
20039 1   56.345187  24.651743  1.675
20040 1   55.108977  25.350444  1.675
20041 1   55.095964  26.770384  1.675
20042 1   56.319162  27.491624  1.675
20043 1   53.885779  24.629204  1.675
20044 1   52.649568  25.327905  1.675
20045 1   52.636555  26.747846  1.675
20046 1   53.859753  27.469085  1.675
20047 1   51.426370  24.606666  1.675
20048 1   50.190159  25.305366  1.675
20049 1   50.177146  26.725307  1.675
20050 1   51.400344  27.446546  1.675
20051 1   48.966961  24.584127  1.675
20052 1   47.730750  25.282828  1.675
20053 1   47.717737  26.702768  1.675
20054 1   48.940935  27.424008  1.675
20055 1   46.507552  24.561588  1.675
20056 1   45.271341  25.260289  1.675
20057 1   45.258328  26.680229  1.675
20058 1   46.481526  27.401469  1.675
20059 1   44.048143  24.539049  1.675
20060 1   42.811932  25.237750  1.675
20061 1   42.798919  26.657691  1.675
20062 1   44.022118  27.378930  1.675
20063 1   41.588734  24.516511  1.675
20064 1   40.352523  25.215211  1.675
20065 1   40.339511  26.635152  1.675
20066 1   41.562709  27.356391  1.675
20067 1   39.129325  24.493972  1.675
20068 1   37.893114  25.192673  1.675
20069 1   37.880102  26.612613  1.675
20070 1   39.103300  27.333853  1.675
20071 1   36.669916  24.471433  1.675
20072 1   35.433706  25.170134  1.675
20073 1   35.420693  26.590074  1.675
20074 1   36.643891  27.311314  1.675
20075 1   34.210508  24.448894  1.675
20076 1   32.974297  25.147595  1.675
20077 1   32.961284  26.567536  1.675
20078 1   34.184482  27.288775  1.675
20079 1   31.751099  24.426356  1.675
20080 1   30.514888  25.125057  1.675
20081 1   30.501875  26.544997  1.675
20082 1   31.725073  27.266236  1.675
20083 1   29.291690  24.403817  1.675
20084 1   28.055479  25.102518  1.675
20085 1   28.042466  26.522458  1.675
20086 1   29.265664  27.243698  1.675
20087 1   26.832281  24.381278  1.675
20088 1   25.596070  25.079979  1.675
20089 1   25.583057  26.499919  1.675
20090 1   26.806255  27.221159  1.675
20091 1   24.372872  24.358740  1.675
20092 1   23.136661  25.057440  1.675
20093 1   23.123649  26.477381  1.675
20094 1   24.346847  27.198620  1.675
20095 1   21.913463  24.336201  1.675
20096 1   20.677252  25.034902  1.675
20097 1   20.664240  26.454842  1.675
20098 1   21.887438  27.176082  1.675
20099 1   19.454054  24.313662  1.675
20100 1   18.217844  25.012363  1.675
20101 1   18.204831  26.432303  1.675
20102 1   19.428029  27.153543  1.675
20103 1   16.994645  24.291123  1.675
20104 1   15.758435  24.989824  1.675
20105 1   15.745422  26.409765  1.675
20106 1   16.968620  27.131004  1.675
20107 1   14.535237  24.268585  1.675
20108 1   13.299026  24.967285  1.675
20109 1   13.286013  26.387226  1.675
20110 1   14.509211  27.108465  1.675
20111 1   12.075828  24.246046  1.675
20112 1   10.839617  24.944747  1.675
20113 1   10.826604  26.364687  1.675
20114 1   12.049802  27.085927  1.675
20115 1    9.616419  24.223507  1.675
20116 1    8.380208  24.922208  1.675
20117 1    8.367195  26.342148  1.675
20118 1    9.590393  27.063388  1.675
20119 1    7.157010  24.200968  1.675
20120 1    5.920799  24.899669  1.675
20121 1    5.907786  26.319610  1.675
20122 1    7.130984  27.040849  1.675
20123 1    4.697601  24.178430  1.675
20124 1    3.461390  24.877130  1.675
20125 1    3.448378  26.297071  1.675
20126 1    4.671576  27.018310  1.675
20127 1    2.238192  24.155891  1.675
20128 1    1.001981  24.854592  1.675
20129 1    0.988969  26.274532  1.675
20130 1    2.212167  26.995772  1.675
20131 1   -0.221217  24.133352  1.675
20132 1   -1.457427  24.832053  1.675
20133 1   -1.470440  26.251993  1.675
20134 1   -0.247242  26.973233  1.675
20135 1   -2.680626  24.110813  1.675
20136 1   -3.916836  24.809514  1.675
20137 1   -3.929849  26.229455  1.675
20138 1   -2.706651  26.950694  1.675
20139 1   -5.140034  24.088275  1.675
20140 1   -6.376245  24.786976  1.675
20141 1   -6.389258  26.206916  1.675
20142 1   -5.166060  26.928155  1.675
20143 1   -7.599443  24.065736  1.675
20144 1   -8.835654  24.764437  1.675
20145 1   -8.848667  26.184377  1.675
20146 1   -7.625469  26.905617  1.675
20147 1  -10.058852  24.043197  1.675
20148 1  -11.295063  24.741898  1.675
20149 1  -11.308076  26.161838  1.675
20150 1  -10.084878  26.883078  1.675
20151 1  -12.518261  24.020658  1.675
20152 1  -13.754472  24.719359  1.675
20153 1  -13.767485  26.139300  1.675
20154 1  -12.544287  26.860539  1.675
20155 1  -14.977670  23.998120  1.675
20156 1  -16.213881  24.696821  1.675
20157 1  -16.226893  26.116761  1.675
20158 1  -15.003695  26.838000  1.675
20159 1  -17.437079  23.975581  1.675
20160 1  -18.673290  24.674282  1.675
20161 1  -18.686302  26.094222  1.675
20162 1  -17.463104  26.815462  1.675
20163 1  -19.896488  23.953042  1.675
20164 1  -21.132698  24.651743  1.675
20165 1  -21.145711  26.071683  1.675
20166 1  -19.922513  26.792923  1.675
20167 1  -22.355897  23.930504  1.675
20168 1  -23.592107  24.629204  1.675
20169 1  -23.605120  26.049145  1.675
20170 1  -22.381922  26.770384  1.675
20171 1  -24.815305  23.907965  1.675
20172 1  -26.051516  24.606666  1.675
20173 1  -26.064529  26.026606  1.675
20174 1  -24.841331  26.747846  1.675
20175 1  -27.274714  23.885426  1.675
20176 1  -28.510925  24.584127  1.675
20177 1  -28.523938  26.004067  1.675
20178 1  -27.300740  26.725307  1.675
20179 1  -29.734123  23.862887  1.675
20180 1  -30.970334  24.561588  1.675
20181 1  -30.983347  25.981529  1.675
20182 1  -29.760149  26.702768  1.675
20183 1  -32.193532  23.840349  1.675
20184 1  -33.429743  24.539049  1.675
20185 1  -33.442756  25.958990  1.675
20186 1  -32.219558  26.680229  1.675
20187 1  -34.652941  23.817810  1.675
20188 1  -35.889152  24.516511  1.675
20189 1  -35.902164  25.936451  1.675
20190 1  -34.678966  26.657691  1.675
20191 1  -37.112350  23.795271  1.675
20192 1  -38.348561  24.493972  1.675
20193 1  -38.361573  25.913912  1.675
20194 1  -37.138375  26.635152  1.675
20195 1  -39.571759  23.772732  1.675
20196 1  -40.807969  24.471433  1.675
20197 1  -40.820982  25.891374  1.675
20198 1  -39.597784  26.612613  1.675
20199 1  -42.031168  23.750194  1.675
20200 1  -43.267378  24.448894  1.675
20201 1  -43.280391  25.868835  1.675
20202 1  -42.057193  26.590074  1.675
20203 1  -44.490576  23.727655  1.675
20204 1  -45.726787  24.426356  1.675
20205 1  -45.739800  25.846296  1.675
20206 1  -44.516602  26.567536  1.675
20207 1  -46.949985  23.705116  1.675
20208 1  -48.186196  24.403817  1.675
20209 1  -48.199209  25.823757  1.675
20210 1  -46.976011  26.544997  1.675
20211 1  -49.409394  23.682577  1.675
20212 1  -50.645605  24.381278  1.675
20213 1  -50.658618  25.801219  1.675
20214 1  -49.435420  26.522458  1.675
20215 1  -51.868803  23.660039  1.675
20216 1  -53.105014  24.358740  1.675
20217 1  -53.118027  25.778680  1.675
20218 1  -51.894828  26.499919  1.675
20219 1  -54.328212  23.637500  1.675
20220 1  -55.564423  24.336201  1.675
20221 1  -55.577435  25.756141  1.675
20222 1  -54.354237  26.477381  1.675
20223 1  -56.787621  23.614961  1.675
20224 1  -58.023832  24.313662  1.675
20225 1  -58.036844  25.733602  1.675
20226 1  -56.813646  26.454842  1.675
20227 1  -59.247030  23.592422  1.675
20228 1  -60.483240  24.291123  1.675
20229 1  -60.496253  25.711064  1.675
20230 1  -59.273055  26.432303  1.675
20231 1  -61.706439  23.569884  1.675
20232 1  -62.942649  24.268585  1.675
20233 1  -62.955662  25.688525  1.675
20234 1  -61.732464  26.409765  1.675
20235 1  -64.165847  23.547345  1.675
20236 1  -65.402058  24.246046  1.675
20237 1  -65.415071  25.665986  1.675
20238 1  -64.191873  26.387226  1.675
20239 1  -66.625256  23.524806  1.675
20240 1  -67.861467  24.223507  1.675
20241 1  -67.874480  25.643447  1.675
20242 1  -66.651282  26.364687  1.675
20243 1  -69.084665  23.502268  1.675
20244 1  -70.320876  24.200968  1.675
20245 1  -70.333889  25.620909  1.675
20246 1  -69.110691  26.342148  1.675
20247 1  -71.544074  23.479729  1.675
20248 1  -72.780285  24.178430  1.675
20249 1  -72.793298  25.598370  1.675
20250 1  -71.570099  26.319610  1.675
20251 1  -74.003483  23.457190  1.675
20252 1  -75.239694  24.155891  1.675
20253 1  -75.252706  25.575831  1.675
20254 1  -74.029508  26.297071  1.675
20255 1  -76.462892  23.434651  1.675
20256 1  -77.699103  24.133352  1.675
20257 1  -77.712115  25.553293  1.675
20258 1  -76.488917  26.274532  1.675
20259 1  -78.922301  23.412113  1.675
20260 1  -80.158511  24.110813  1.675
20261 1  -80.171524  25.530754  1.675
20262 1  -78.948326  26.251993  1.675
20263 1  -81.381709  23.389574  1.675
20264 1  -82.617920  24.088275  1.675
20265 1  -82.630933  25.508215  1.675
20266 1  -81.407735  26.229455  1.675
20267 1  -83.841118  23.367035  1.675
20268 1  -85.077329  24.065736  1.675
20269 1  -85.090342  25.485676  1.675
20270 1  -83.867144  26.206916  1.675
20271 1  -86.300527  23.344496  1.675
20272 1  -87.536738  24.043197  1.675
20273 1  -87.549751  25.463138  1.675
20274 1  -86.326553  26.184377  1.675
20275 1  -88.759936  23.321958  1.675
20276 1  -89.996147  24.020658  1.675
20277 1  -90.009160  25.440599  1.675
20278 1  -88.785962  26.161838  1.675
20279 1  -91.219345  23.299419  1.675
20280 1  -92.455556  23.998120  1.675
20281 1  -92.468569  25.418060  1.675
20282 1  -91.245370  26.139300  1.675
20283 1  -93.678754  23.276880  1.675
20284 1  -94.914965  23.975581  1.675
20285 1  -94.927977  25.395521  1.675
20286 1  -93.704779  26.116761  1.675
20287 1  -96.138163  23.254341  1.675
20288 1  -97.374374  23.953042  1.675
20289 1  -97.387386  25.372983  1.675
20290 1  -96.164188  26.094222  1.675
20291 1  -98.597572  23.231803  1.675
20292 1  -99.833782  23.930504  1.675
20293 1  -99.846795  25.350444  1.675
20294 1  -98.623597  26.071683  1.675
20295 1 -101.056980  23.209264  1.675
20296 1 -102.293191  23.907965  1.675
20297 1 -102.306204  25.327905  1.675
20298 1 -101.083006  26.049145  1.675
20299 1 -103.516389  23.186725  1.675
20300 1 -104.752600  23.885426  1.675
20301 1 -104.765613  25.305366  1.675
20302 1 -103.542415  26.026606  1.675
20303 1 -105.975798  23.164187  1.675
20304 1 -107.212009  23.862887  1.675
20305 1 -107.225022  25.282828  1.675
20306 1 -106.001824  26.004067  1.675
20307 1 -108.435207  23.141648  1.675
20308 1 -109.671418  23.840349  1.675
20309 1 -109.684431  25.260289  1.675
20310 1 -108.461233  25.981529  1.675
20311 1 -110.894616  23.119109  1.675
20312 1 -112.130827  23.817810  1.675
20313 1 -112.143840  25.237750  1.675
20314 1 -110.920641  25.958990  1.675
20315 1 -113.354025  23.096570  1.675
20316 1 -114.590236  23.795271  1.675
20317 1 -114.603248  25.215211  1.675
20318 1 -113.380050  25.936451  1.675
20319 1 -115.813434  23.074032  1.675
20320 1 -115.839459  25.913912  1.675
20321 1  115.331962  29.452494  1.675
20322 1  114.095751  30.151195  1.675
20323 1  114.082739  31.571135  1.675
20324 1  115.305937  32.292375  1.675
20325 1  112.872553  29.429955  1.675
20326 1  111.636342  30.128656  1.675
20327 1  111.623330  31.548596  1.675
20328 1  112.846528  32.269836  1.675
20329 1  110.413144  29.407416  1.675
20330 1  109.176934  30.106117  1.675
20331 1  109.163921  31.526058  1.675
20332 1  110.387119  32.247297  1.675
20333 1  107.953736  29.384878  1.675
20334 1  106.717525  30.083578  1.675
20335 1  106.704512  31.503519  1.675
20336 1  107.927710  32.224758  1.675
20337 1  105.494327  29.362339  1.675
20338 1  104.258116  30.061040  1.675
20339 1  104.245103  31.480980  1.675
20340 1  105.468301  32.202220  1.675
20341 1  103.034918  29.339800  1.675
20342 1  101.798707  30.038501  1.675
20343 1  101.785694  31.458441  1.675
20344 1  103.008892  32.179681  1.675
20345 1  100.575509  29.317261  1.675
20346 1   99.339298  30.015962  1.675
20347 1   99.326285  31.435903  1.675
20348 1  100.549483  32.157142  1.675
20349 1   98.116100  29.294723  1.675
20350 1   96.879889  29.993424  1.675
20351 1   96.866876  31.413364  1.675
20352 1   98.090075  32.134603  1.675
20353 1   95.656691  29.272184  1.675
20354 1   94.420480  29.970885  1.675
20355 1   94.407468  31.390825  1.675
20356 1   95.630666  32.112065  1.675
20357 1   93.197282  29.249645  1.675
20358 1   91.961071  29.948346  1.675
20359 1   91.948059  31.368286  1.675
20360 1   93.171257  32.089526  1.675
20361 1   90.737873  29.227107  1.675
20362 1   89.501663  29.925807  1.675
20363 1   89.488650  31.345748  1.675
20364 1   90.711848  32.066987  1.675
20365 1   88.278465  29.204568  1.675
20366 1   87.042254  29.903269  1.675
20367 1   87.029241  31.323209  1.675
20368 1   88.252439  32.044449  1.675
20369 1   85.819056  29.182029  1.675
20370 1   84.582845  29.880730  1.675
20371 1   84.569832  31.300670  1.675
20372 1   85.793030  32.021910  1.675
20373 1   83.359647  29.159490  1.675
20374 1   82.123436  29.858191  1.675
20375 1   82.110423  31.278132  1.675
20376 1   83.333621  31.999371  1.675
20377 1   80.900238  29.136952  1.675
20378 1   79.664027  29.835652  1.675
20379 1   79.651014  31.255593  1.675
20380 1   80.874212  31.976832  1.675
20381 1   78.440829  29.114413  1.675
20382 1   77.204618  29.813114  1.675
20383 1   77.191605  31.233054  1.675
20384 1   78.414804  31.954294  1.675
20385 1   75.981420  29.091874  1.675
20386 1   74.745209  29.790575  1.675
20387 1   74.732197  31.210515  1.675
20388 1   75.955395  31.931755  1.675
20389 1   73.522011  29.069335  1.675
20390 1   72.285800  29.768036  1.675
20391 1   72.272788  31.187977  1.675
20392 1   73.495986  31.909216  1.675
20393 1   71.062602  29.046797  1.675
20394 1   69.826392  29.745497  1.675
20395 1   69.813379  31.165438  1.675
20396 1   71.036577  31.886677  1.675
20397 1   68.603194  29.024258  1.675
20398 1   67.366983  29.722959  1.675
20399 1   67.353970  31.142899  1.675
20400 1   68.577168  31.864139  1.675
20401 1   66.143785  29.001719  1.675
20402 1   64.907574  29.700420  1.675
20403 1   64.894561  31.120360  1.675
20404 1   66.117759  31.841600  1.675
20405 1   63.684376  28.979180  1.675
20406 1   62.448165  29.677881  1.675
20407 1   62.435152  31.097822  1.675
20408 1   63.658350  31.819061  1.675
20409 1   61.224967  28.956642  1.675
20410 1   59.988756  29.655343  1.675
20411 1   59.975743  31.075283  1.675
20412 1   61.198941  31.796522  1.675
20413 1   58.765558  28.934103  1.675
20414 1   57.529347  29.632804  1.675
20415 1   57.516334  31.052744  1.675
20416 1   58.739533  31.773984  1.675
20417 1   56.306149  28.911564  1.675
20418 1   55.069938  29.610265  1.675
20419 1   55.056926  31.030205  1.675
20420 1   56.280124  31.751445  1.675
20421 1   53.846740  28.889025  1.675
20422 1   52.610529  29.587726  1.675
20423 1   52.597517  31.007667  1.675
20424 1   53.820715  31.728906  1.675
20425 1   51.387331  28.866487  1.675
20426 1   50.151121  29.565188  1.675
20427 1   50.138108  30.985128  1.675
20428 1   51.361306  31.706367  1.675
20429 1   48.927923  28.843948  1.675
20430 1   47.691712  29.542649  1.675
20431 1   47.678699  30.962589  1.675
20432 1   48.901897  31.683829  1.675
20433 1   46.468514  28.821409  1.675
20434 1   45.232303  29.520110  1.675
20435 1   45.219290  30.940050  1.675
20436 1   46.442488  31.661290  1.675
20437 1   44.009105  28.798871  1.675
20438 1   42.772894  29.497571  1.675
20439 1   42.759881  30.917512  1.675
20440 1   43.983079  31.638751  1.675
20441 1   41.549696  28.776332  1.675
20442 1   40.313485  29.475033  1.675
20443 1   40.300472  30.894973  1.675
20444 1   41.523670  31.616213  1.675
20445 1   39.090287  28.753793  1.675
20446 1   37.854076  29.452494  1.675
20447 1   37.841064  30.872434  1.675
20448 1   39.064262  31.593674  1.675
20449 1   36.630878  28.731254  1.675
20450 1   35.394667  29.429955  1.675
20451 1   35.381655  30.849896  1.675
20452 1   36.604853  31.571135  1.675
20453 1   34.171469  28.708716  1.675
20454 1   32.935259  29.407416  1.675
20455 1   32.922246  30.827357  1.675
20456 1   34.145444  31.548596  1.675
20457 1   31.712060  28.686177  1.675
20458 1   30.475850  29.384878  1.675
20459 1   30.462837  30.804818  1.675
20460 1   31.686035  31.526058  1.675
20461 1   29.252652  28.663638  1.675
20462 1   28.016441  29.362339  1.675
20463 1   28.003428  30.782279  1.675
20464 1   29.226626  31.503519  1.675
20465 1   26.793243  28.641099  1.675
20466 1   25.557032  29.339800  1.675
20467 1   25.544019  30.759741  1.675
20468 1   26.767217  31.480980  1.675
20469 1   24.333834  28.618561  1.675
20470 1   23.097623  29.317261  1.675
20471 1   23.084610  30.737202  1.675
20472 1   24.307808  31.458441  1.675
20473 1   21.874425  28.596022  1.675
20474 1   20.638214  29.294723  1.675
20475 1   20.625201  30.714663  1.675
20476 1   21.848399  31.435903  1.675
20477 1   19.415016  28.573483  1.675
20478 1   18.178805  29.272184  1.675
20479 1   18.165793  30.692124  1.675
20480 1   19.388991  31.413364  1.675
20481 1   16.955607  28.550944  1.675
20482 1   15.719396  29.249645  1.675
20483 1   15.706384  30.669586  1.675
20484 1   16.929582  31.390825  1.675
20485 1   14.496198  28.528406  1.675
20486 1   13.259988  29.227107  1.675
20487 1   13.246975  30.647047  1.675
20488 1   14.470173  31.368286  1.675
20489 1   12.036789  28.505867  1.675
20490 1   10.800579  29.204568  1.675
20491 1   10.787566  30.624508  1.675
20492 1   12.010764  31.345748  1.675
20493 1    9.577381  28.483328  1.675
20494 1    8.341170  29.182029  1.675
20495 1    8.328157  30.601969  1.675
20496 1    9.551355  31.323209  1.675
20497 1    7.117972  28.460789  1.675
20498 1    5.881761  29.159490  1.675
20499 1    5.868748  30.579431  1.675
20500 1    7.091946  31.300670  1.675
20501 1    4.658563  28.438251  1.675
20502 1    3.422352  29.136952  1.675
20503 1    3.409339  30.556892  1.675
20504 1    4.632537  31.278132  1.675
20505 1    2.199154  28.415712  1.675
20506 1    0.962943  29.114413  1.675
20507 1    0.949930  30.534353  1.675
20508 1    2.173128  31.255593  1.675
20509 1   -0.260255  28.393173  1.675
20510 1   -1.496466  29.091874  1.675
20511 1   -1.509478  30.511814  1.675
20512 1   -0.286280  31.233054  1.675
20513 1   -2.719664  28.370635  1.675
20514 1   -3.955875  29.069335  1.675
20515 1   -3.968887  30.489276  1.675
20516 1   -2.745689  31.210515  1.675
20517 1   -5.179073  28.348096  1.675
20518 1   -6.415283  29.046797  1.675
20519 1   -6.428296  30.466737  1.675
20520 1   -5.205098  31.187977  1.675
20521 1   -7.638482  28.325557  1.675
20522 1   -8.874692  29.024258  1.675
20523 1   -8.887705  30.444198  1.675
20524 1   -7.664507  31.165438  1.675
20525 1  -10.097890  28.303018  1.675
20526 1  -11.334101  29.001719  1.675
20527 1  -11.347114  30.421660  1.675
20528 1  -10.123916  31.142899  1.675
20529 1  -12.557299  28.280480  1.675
20530 1  -13.793510  28.979180  1.675
20531 1  -13.806523  30.399121  1.675
20532 1  -12.583325  31.120360  1.675
20533 1  -15.016708  28.257941  1.675
20534 1  -16.252919  28.956642  1.675
20535 1  -16.265932  30.376582  1.675
20536 1  -15.042734  31.097822  1.675
20537 1  -17.476117  28.235402  1.675
20538 1  -18.712328  28.934103  1.675
20539 1  -18.725341  30.354043  1.675
20540 1  -17.502143  31.075283  1.675
20541 1  -19.935526  28.212863  1.675
20542 1  -21.171737  28.911564  1.675
20543 1  -21.184749  30.331505  1.675
20544 1  -19.961551  31.052744  1.675
20545 1  -22.394935  28.190325  1.675
20546 1  -23.631146  28.889025  1.675
20547 1  -23.644158  30.308966  1.675
20548 1  -22.420960  31.030205  1.675
20549 1  -24.854344  28.167786  1.675
20550 1  -26.090554  28.866487  1.675
20551 1  -26.103567  30.286427  1.675
20552 1  -24.880369  31.007667  1.675
20553 1  -27.313753  28.145247  1.675
20554 1  -28.549963  28.843948  1.675
20555 1  -28.562976  30.263888  1.675
20556 1  -27.339778  30.985128  1.675
20557 1  -29.773161  28.122708  1.675
20558 1  -31.009372  28.821409  1.675
20559 1  -31.022385  30.241350  1.675
20560 1  -29.799187  30.962589  1.675
20561 1  -32.232570  28.100170  1.675
20562 1  -33.468781  28.798871  1.675
20563 1  -33.481794  30.218811  1.675
20564 1  -32.258596  30.940050  1.675
20565 1  -34.691979  28.077631  1.675
20566 1  -35.928190  28.776332  1.675
20567 1  -35.941203  30.196272  1.675
20568 1  -34.718005  30.917512  1.675
20569 1  -37.151388  28.055092  1.675
20570 1  -38.387599  28.753793  1.675
20571 1  -38.400612  30.173733  1.675
20572 1  -37.177413  30.894973  1.675
20573 1  -39.610797  28.032554  1.675
20574 1  -40.847008  28.731254  1.675
20575 1  -40.860020  30.151195  1.675
20576 1  -39.636822  30.872434  1.675
20577 1  -42.070206  28.010015  1.675
20578 1  -43.306417  28.708716  1.675
20579 1  -43.319429  30.128656  1.675
20580 1  -42.096231  30.849896  1.675
20581 1  -44.529615  27.987476  1.675
20582 1  -45.765825  28.686177  1.675
20583 1  -45.778838  30.106117  1.675
20584 1  -44.555640  30.827357  1.675
20585 1  -46.989023  27.964937  1.675
20586 1  -48.225234  28.663638  1.675
20587 1  -48.238247  30.083578  1.675
20588 1  -47.015049  30.804818  1.675
20589 1  -49.448432  27.942399  1.675
20590 1  -50.684643  28.641099  1.675
20591 1  -50.697656  30.061040  1.675
20592 1  -49.474458  30.782279  1.675
20593 1  -51.907841  27.919860  1.675
20594 1  -53.144052  28.618561  1.675
20595 1  -53.157065  30.038501  1.675
20596 1  -51.933867  30.759741  1.675
20597 1  -54.367250  27.897321  1.675
20598 1  -55.603461  28.596022  1.675
20599 1  -55.616474  30.015962  1.675
20600 1  -54.393276  30.737202  1.675
20601 1  -56.826659  27.874782  1.675
20602 1  -58.062870  28.573483  1.675
20603 1  -58.075883  29.993424  1.675
20604 1  -56.852684  30.714663  1.675
20605 1  -59.286068  27.852244  1.675
20606 1  -60.522279  28.550944  1.675
20607 1  -60.535291  29.970885  1.675
20608 1  -59.312093  30.692124  1.675
20609 1  -61.745477  27.829705  1.675
20610 1  -62.981688  28.528406  1.675
20611 1  -62.994700  29.948346  1.675
20612 1  -61.771502  30.669586  1.675
20613 1  -64.204886  27.807166  1.675
20614 1  -65.441096  28.505867  1.675
20615 1  -65.454109  29.925807  1.675
20616 1  -64.230911  30.647047  1.675
20617 1  -66.664294  27.784627  1.675
20618 1  -67.900505  28.483328  1.675
20619 1  -67.913518  29.903269  1.675
20620 1  -66.690320  30.624508  1.675
20621 1  -69.123703  27.762089  1.675
20622 1  -70.359914  28.460789  1.675
20623 1  -70.372927  29.880730  1.675
20624 1  -69.149729  30.601969  1.675
20625 1  -71.583112  27.739550  1.675
20626 1  -72.819323  28.438251  1.675
20627 1  -72.832336  29.858191  1.675
20628 1  -71.609138  30.579431  1.675
20629 1  -74.042521  27.717011  1.675
20630 1  -75.278732  28.415712  1.675
20631 1  -75.291745  29.835652  1.675
20632 1  -74.068547  30.556892  1.675
20633 1  -76.501930  27.694472  1.675
20634 1  -77.738141  28.393173  1.675
20635 1  -77.751154  29.813114  1.675
20636 1  -76.527955  30.534353  1.675
20637 1  -78.961339  27.671934  1.675
20638 1  -80.197550  28.370635  1.675
20639 1  -80.210562  29.790575  1.675
20640 1  -78.987364  30.511814  1.675
20641 1  -81.420748  27.649395  1.675
20642 1  -82.656959  28.348096  1.675
20643 1  -82.669971  29.768036  1.675
20644 1  -81.446773  30.489276  1.675
20645 1  -83.880157  27.626856  1.675
20646 1  -85.116367  28.325557  1.675
20647 1  -85.129380  29.745497  1.675
20648 1  -83.906182  30.466737  1.675
20649 1  -86.339565  27.604318  1.675
20650 1  -87.575776  28.303018  1.675
20651 1  -87.588789  29.722959  1.675
20652 1  -86.365591  30.444198  1.675
20653 1  -88.798974  27.581779  1.675
20654 1  -90.035185  28.280480  1.675
20655 1  -90.048198  29.700420  1.675
20656 1  -88.825000  30.421660  1.675
20657 1  -91.258383  27.559240  1.675
20658 1  -92.494594  28.257941  1.675
20659 1  -92.507607  29.677881  1.675
20660 1  -91.284409  30.399121  1.675
20661 1  -93.717792  27.536701  1.675
20662 1  -94.954003  28.235402  1.675
20663 1  -94.967016  29.655343  1.675
20664 1  -93.743818  30.376582  1.675
20665 1  -96.177201  27.514163  1.675
20666 1  -97.413412  28.212863  1.675
20667 1  -97.426425  29.632804  1.675
20668 1  -96.203226  30.354043  1.675
20669 1  -98.636610  27.491624  1.675
20670 1  -99.872821  28.190325  1.675
20671 1  -99.885833  29.610265  1.675
20672 1  -98.662635  30.331505  1.675
20673 1 -101.096019  27.469085  1.675
20674 1 -102.332230  28.167786  1.675
20675 1 -102.345242  29.587726  1.675
20676 1 -101.122044  30.308966  1.675
20677 1 -103.555428  27.446546  1.675
20678 1 -104.791638  28.145247  1.675
20679 1 -104.804651  29.565188  1.675
20680 1 -103.581453  30.286427  1.675
20681 1 -106.014836  27.424008  1.675
20682 1 -107.251047  28.122708  1.675
20683 1 -107.264060  29.542649  1.675
20684 1 -106.040862  30.263888  1.675
20685 1 -108.474245  27.401469  1.675
20686 1 -109.710456  28.100170  1.675
20687 1 -109.723469  29.520110  1.675
20688 1 -108.500271  30.241350  1.675
20689 1 -110.933654  27.378930  1.675
20690 1 -112.169865  28.077631  1.675
20691 1 -112.182878  29.497571  1.675
20692 1 -110.959680  30.218811  1.675
20693 1 -113.393063  27.356391  1.675
20694 1 -114.629274  28.055092  1.675
20695 1 -114.642287  29.475033  1.675
20696 1 -113.419089  30.196272  1.675
20697 1 -115.852472  27.333853  1.675
20698 1 -115.878497  30.173733  1.675
20699 1  115.292924  33.712315  1.675
20700 1  114.056713  34.411016  1.675
20701 1  114.043700  35.830956  1.675
20702 1  115.266898  36.552196  1.675
20703 1  112.833515  33.689776  1.675
20704 1  111.597304  34.388477  1.675
20705 1  111.584291  35.808417  1.675
20706 1  112.807490  36.529657  1.675
20707 1  110.374106  33.667238  1.675
20708 1  109.137895  34.365938  1.675
20709 1  109.124883  35.785879  1.675
20710 1  110.348081  36.507118  1.675
20711 1  107.914697  33.644699  1.675
20712 1  106.678486  34.343400  1.675
20713 1  106.665474  35.763340  1.675
20714 1  107.888672  36.484580  1.675
20715 1  105.455288  33.622160  1.675
20716 1  104.219078  34.320861  1.675
20717 1  104.206065  35.740801  1.675
20718 1  105.429263  36.462041  1.675
20719 1  102.995880  33.599621  1.675
20720 1  101.759669  34.298322  1.675
20721 1  101.746656  35.718263  1.675
20722 1  102.969854  36.439502  1.675
20723 1  100.536471  33.577083  1.675
20724 1   99.300260  34.275783  1.675
20725 1   99.287247  35.695724  1.675
20726 1  100.510445  36.416963  1.675
20727 1   98.077062  33.554544  1.675
20728 1   96.840851  34.253245  1.675
20729 1   96.827838  35.673185  1.675
20730 1   98.051036  36.394425  1.675
20731 1   95.617653  33.532005  1.675
20732 1   94.381442  34.230706  1.675
20733 1   94.368429  35.650646  1.675
20734 1   95.591627  36.371886  1.675
20735 1   93.158244  33.509466  1.675
20736 1   91.922033  34.208167  1.675
20737 1   91.909020  35.628108  1.675
20738 1   93.132219  36.349347  1.675
20739 1   90.698835  33.486928  1.675
20740 1   89.462624  34.185628  1.675
20741 1   89.449612  35.605569  1.675
20742 1   90.672810  36.326808  1.675
20743 1   88.239426  33.464389  1.675
20744 1   87.003215  34.163090  1.675
20745 1   86.990203  35.583030  1.675
20746 1   88.213401  36.304270  1.675
20747 1   85.780017  33.441850  1.675
20748 1   84.543807  34.140551  1.675
20749 1   84.530794  35.560491  1.675
20750 1   85.753992  36.281731  1.675
20751 1   83.320609  33.419311  1.675
20752 1   82.084398  34.118012  1.675
20753 1   82.071385  35.537953  1.675
20754 1   83.294583  36.259192  1.675
20755 1   80.861200  33.396773  1.675
20756 1   79.624989  34.095474  1.675
20757 1   79.611976  35.515414  1.675
20758 1   80.835174  36.236653  1.675
20759 1   78.401791  33.374234  1.675
20760 1   77.165580  34.072935  1.675
20761 1   77.152567  35.492875  1.675
20762 1   78.375765  36.214115  1.675
20763 1   75.942382  33.351695  1.675
20764 1   74.706171  34.050396  1.675
20765 1   74.693158  35.470336  1.675
20766 1   75.916356  36.191576  1.675
20767 1   73.482973  33.329156  1.675
20768 1   72.246762  34.027857  1.675
20769 1   72.233749  35.447798  1.675
20770 1   73.456948  36.169037  1.675
20771 1   71.023564  33.306618  1.675
20772 1   69.787353  34.005319  1.675
20773 1   69.774341  35.425259  1.675
20774 1   70.997539  36.146499  1.675
20775 1   68.564155  33.284079  1.675
20776 1   67.327944  33.982780  1.675
20777 1   67.314932  35.402720  1.675
20778 1   68.538130  36.123960  1.675
20779 1   66.104746  33.261540  1.675
20780 1   64.868536  33.960241  1.675
20781 1   64.855523  35.380181  1.675
20782 1   66.078721  36.101421  1.675
20783 1   63.645338  33.239002  1.675
20784 1   62.409127  33.937702  1.675
20785 1   62.396114  35.357643  1.675
20786 1   63.619312  36.078882  1.675
20787 1   61.185929  33.216463  1.675
20788 1   59.949718  33.915164  1.675
20789 1   59.936705  35.335104  1.675
20790 1   61.159903  36.056344  1.675
20791 1   58.726520  33.193924  1.675
20792 1   57.490309  33.892625  1.675
20793 1   57.477296  35.312565  1.675
20794 1   58.700494  36.033805  1.675
20795 1   56.267111  33.171385  1.675
20796 1   55.030900  33.870086  1.675
20797 1   55.017887  35.290027  1.675
20798 1   56.241085  36.011266  1.675
20799 1   53.807702  33.148847  1.675
20800 1   52.571491  33.847547  1.675
20801 1   52.558479  35.267488  1.675
20802 1   53.781677  35.988727  1.675
20803 1   51.348293  33.126308  1.675
20804 1   50.112082  33.825009  1.675
20805 1   50.099070  35.244949  1.675
20806 1   51.322268  35.966189  1.675
20807 1   48.888884  33.103769  1.675
20808 1   47.652674  33.802470  1.675
20809 1   47.639661  35.222410  1.675
20810 1   48.862859  35.943650  1.675
20811 1   46.429475  33.081230  1.675
20812 1   45.193265  33.779931  1.675
20813 1   45.180252  35.199872  1.675
20814 1   46.403450  35.921111  1.675
20815 1   43.970067  33.058692  1.675
20816 1   42.733856  33.757392  1.675
20817 1   42.720843  35.177333  1.675
20818 1   43.944041  35.898572  1.675
20819 1   41.510658  33.036153  1.675
20820 1   40.274447  33.734854  1.675
20821 1   40.261434  35.154794  1.675
20822 1   41.484632  35.876034  1.675
20823 1   39.051249  33.013614  1.675
20824 1   37.815038  33.712315  1.675
20825 1   37.802025  35.132255  1.675
20826 1   39.025223  35.853495  1.675
20827 1   36.591840  32.991075  1.675
20828 1   35.355629  33.689776  1.675
20829 1   35.342616  35.109717  1.675
20830 1   36.565814  35.830956  1.675
20831 1   34.132431  32.968537  1.675
20832 1   32.896220  33.667238  1.675
20833 1   32.883208  35.087178  1.675
20834 1   34.106406  35.808417  1.675
20835 1   31.673022  32.945998  1.675
20836 1   30.436811  33.644699  1.675
20837 1   30.423799  35.064639  1.675
20838 1   31.646997  35.785879  1.675
20839 1   29.213613  32.923459  1.675
20840 1   27.977403  33.622160  1.675
20841 1   27.964390  35.042100  1.675
20842 1   29.187588  35.763340  1.675
20843 1   26.754204  32.900921  1.675
20844 1   25.517994  33.599621  1.675
20845 1   25.504981  35.019562  1.675
20846 1   26.728179  35.740801  1.675
20847 1   24.294796  32.878382  1.675
20848 1   23.058585  33.577083  1.675
20849 1   23.045572  34.997023  1.675
20850 1   24.268770  35.718263  1.675
20851 1   21.835387  32.855843  1.675
20852 1   20.599176  33.554544  1.675
20853 1   20.586163  34.974484  1.675
20854 1   21.809361  35.695724  1.675
20855 1   19.375978  32.833304  1.675
20856 1   18.139767  33.532005  1.675
20857 1   18.126754  34.951945  1.675
20858 1   19.349952  35.673185  1.675
20859 1   16.916569  32.810766  1.675
20860 1   15.680358  33.509466  1.675
20861 1   15.667345  34.929407  1.675
20862 1   16.890543  35.650646  1.675
20863 1   14.457160  32.788227  1.675
20864 1   13.220949  33.486928  1.675
20865 1   13.207937  34.906868  1.675
20866 1   14.431135  35.628108  1.675
20867 1   11.997751  32.765688  1.675
20868 1   10.761540  33.464389  1.675
20869 1   10.748528  34.884329  1.675
20870 1   11.971726  35.605569  1.675
20871 1    9.538342  32.743149  1.675
20872 1    8.302132  33.441850  1.675
20873 1    8.289119  34.861791  1.675
20874 1    9.512317  35.583030  1.675
20875 1    7.078933  32.720611  1.675
20876 1    5.842723  33.419311  1.675
20877 1    5.829710  34.839252  1.675
20878 1    7.052908  35.560491  1.675
20879 1    4.619525  32.698072  1.675
20880 1    3.383314  33.396773  1.675
20881 1    3.370301  34.816713  1.675
20882 1    4.593499  35.537953  1.675
20883 1    2.160116  32.675533  1.675
20884 1    0.923905  33.374234  1.675
20885 1    0.910892  34.794174  1.675
20886 1    2.134090  35.515414  1.675
20887 1   -0.299293  32.652994  1.675
20888 1   -1.535504  33.351695  1.675
20889 1   -1.548517  34.771636  1.675
20890 1   -0.325319  35.492875  1.675
20891 1   -2.758702  32.630456  1.675
20892 1   -3.994913  33.329156  1.675
20893 1   -4.007926  34.749097  1.675
20894 1   -2.784728  35.470336  1.675
20895 1   -5.218111  32.607917  1.675
20896 1   -6.454322  33.306618  1.675
20897 1   -6.467334  34.726558  1.675
20898 1   -5.244136  35.447798  1.675
20899 1   -7.677520  32.585378  1.675
20900 1   -8.913731  33.284079  1.675
20901 1   -8.926743  34.704019  1.675
20902 1   -7.703545  35.425259  1.675
20903 1  -10.136929  32.562839  1.675
20904 1  -11.373139  33.261540  1.675
20905 1  -11.386152  34.681481  1.675
20906 1  -10.162954  35.402720  1.675
20907 1  -12.596338  32.540301  1.675
20908 1  -13.832548  33.239002  1.675
20909 1  -13.845561  34.658942  1.675
20910 1  -12.622363  35.380181  1.675
20911 1  -15.055746  32.517762  1.675
20912 1  -16.291957  33.216463  1.675
20913 1  -16.304970  34.636403  1.675
20914 1  -15.081772  35.357643  1.675
20915 1  -17.515155  32.495223  1.675
20916 1  -18.751366  33.193924  1.675
20917 1  -18.764379  34.613864  1.675
20918 1  -17.541181  35.335104  1.675
20919 1  -19.974564  32.472685  1.675
20920 1  -21.210775  33.171385  1.675
20921 1  -21.223788  34.591326  1.675
20922 1  -20.000590  35.312565  1.675
20923 1  -22.433973  32.450146  1.675
20924 1  -23.670184  33.148847  1.675
20925 1  -23.683197  34.568787  1.675
20926 1  -22.459998  35.290027  1.675
20927 1  -24.893382  32.427607  1.675
20928 1  -26.129593  33.126308  1.675
20929 1  -26.142605  34.546248  1.675
20930 1  -24.919407  35.267488  1.675
20931 1  -27.352791  32.405068  1.675
20932 1  -28.589002  33.103769  1.675
20933 1  -28.602014  34.523710  1.675
20934 1  -27.378816  35.244949  1.675
20935 1  -29.812200  32.382530  1.675
20936 1  -31.048410  33.081230  1.675
20937 1  -31.061423  34.501171  1.675
20938 1  -29.838225  35.222410  1.675
20939 1  -32.271608  32.359991  1.675
20940 1  -33.507819  33.058692  1.675
20941 1  -33.520832  34.478632  1.675
20942 1  -32.297634  35.199872  1.675
20943 1  -34.731017  32.337452  1.675
20944 1  -35.967228  33.036153  1.675
20945 1  -35.980241  34.456093  1.675
20946 1  -34.757043  35.177333  1.675
20947 1  -37.190426  32.314913  1.675
20948 1  -38.426637  33.013614  1.675
20949 1  -38.439650  34.433555  1.675
20950 1  -37.216452  35.154794  1.675
20951 1  -39.649835  32.292375  1.675
20952 1  -40.886046  32.991075  1.675
20953 1  -40.899059  34.411016  1.675
20954 1  -39.675861  35.132255  1.675
20955 1  -42.109244  32.269836  1.675
20956 1  -43.345455  32.968537  1.675
20957 1  -43.358468  34.388477  1.675
20958 1  -42.135269  35.109717  1.675
20959 1  -44.568653  32.247297  1.675
20960 1  -45.804864  32.945998  1.675
20961 1  -45.817876  34.365938  1.675
20962 1  -44.594678  35.087178  1.675
20963 1  -47.028062  32.224758  1.675
20964 1  -48.264273  32.923459  1.675
20965 1  -48.277285  34.343400  1.675
20966 1  -47.054087  35.064639  1.675
20967 1  -49.487471  32.202220  1.675
20968 1  -50.723681  32.900921  1.675
20969 1  -50.736694  34.320861  1.675
20970 1  -49.513496  35.042100  1.675
20971 1  -51.946879  32.179681  1.675
20972 1  -53.183090  32.878382  1.675
20973 1  -53.196103  34.298322  1.675
20974 1  -51.972905  35.019562  1.675
20975 1  -54.406288  32.157142  1.675
20976 1  -55.642499  32.855843  1.675
20977 1  -55.655512  34.275783  1.675
20978 1  -54.432314  34.997023  1.675
20979 1  -56.865697  32.134603  1.675
20980 1  -58.101908  32.833304  1.675
20981 1  -58.114921  34.253245  1.675
20982 1  -56.891723  34.974484  1.675
20983 1  -59.325106  32.112065  1.675
20984 1  -60.561317  32.810766  1.675
20985 1  -60.574330  34.230706  1.675
20986 1  -59.351132  34.951945  1.675
20987 1  -61.784515  32.089526  1.675
20988 1  -63.020726  32.788227  1.675
20989 1  -63.033739  34.208167  1.675
20990 1  -61.810540  34.929407  1.675
20991 1  -64.243924  32.066987  1.675
20992 1  -65.480135  32.765688  1.675
20993 1  -65.493147  34.185628  1.675
20994 1  -64.269949  34.906868  1.675
20995 1  -66.703333  32.044449  1.675
20996 1  -67.939544  32.743149  1.675
20997 1  -67.952556  34.163090  1.675
20998 1  -66.729358  34.884329  1.675
20999 1  -69.162742  32.021910  1.675
21000 1  -70.398952  32.720611  1.675
21001 1  -70.411965  34.140551  1.675
21002 1  -69.188767  34.861791  1.675
21003 1  -71.622150  31.999371  1.675
21004 1  -72.858361  32.698072  1.675
21005 1  -72.871374  34.118012  1.675
21006 1  -71.648176  34.839252  1.675
21007 1  -74.081559  31.976832  1.675
21008 1  -75.317770  32.675533  1.675
21009 1  -75.330783  34.095474  1.675
21010 1  -74.107585  34.816713  1.675
21011 1  -76.540968  31.954294  1.675
21012 1  -77.777179  32.652994  1.675
21013 1  -77.790192  34.072935  1.675
21014 1  -76.566994  34.794174  1.675
21015 1  -79.000377  31.931755  1.675
21016 1  -80.236588  32.630456  1.675
21017 1  -80.249601  34.050396  1.675
21018 1  -79.026403  34.771636  1.675
21019 1  -81.459786  31.909216  1.675
21020 1  -82.695997  32.607917  1.675
21021 1  -82.709010  34.027857  1.675
21022 1  -81.485811  34.749097  1.675
21023 1  -83.919195  31.886677  1.675
21024 1  -85.155406  32.585378  1.675
21025 1  -85.168418  34.005319  1.675
21026 1  -83.945220  34.726558  1.675
21027 1  -86.378604  31.864139  1.675
21028 1  -87.614815  32.562839  1.675
21029 1  -87.627827  33.982780  1.675
21030 1  -86.404629  34.704019  1.675
21031 1  -88.838013  31.841600  1.675
21032 1  -90.074223  32.540301  1.675
21033 1  -90.087236  33.960241  1.675
21034 1  -88.864038  34.681481  1.675
21035 1  -91.297421  31.819061  1.675
21036 1  -92.533632  32.517762  1.675
21037 1  -92.546645  33.937702  1.675
21038 1  -91.323447  34.658942  1.675
21039 1  -93.756830  31.796522  1.675
21040 1  -94.993041  32.495223  1.675
21041 1  -95.006054  33.915164  1.675
21042 1  -93.782856  34.636403  1.675
21043 1  -96.216239  31.773984  1.675
21044 1  -97.452450  32.472685  1.675
21045 1  -97.465463  33.892625  1.675
21046 1  -96.242265  34.613864  1.675
21047 1  -98.675648  31.751445  1.675
21048 1  -99.911859  32.450146  1.675
21049 1  -99.924872  33.870086  1.675
21050 1  -98.701674  34.591326  1.675
21051 1 -101.135057  31.728906  1.675
21052 1 -102.371268  32.427607  1.675
21053 1 -102.384280  33.847547  1.675
21054 1 -101.161082  34.568787  1.675
21055 1 -103.594466  31.706367  1.675
21056 1 -104.830677  32.405068  1.675
21057 1 -104.843689  33.825009  1.675
21058 1 -103.620491  34.546248  1.675
21059 1 -106.053875  31.683829  1.675
21060 1 -107.290085  32.382530  1.675
21061 1 -107.303098  33.802470  1.675
21062 1 -106.079900  34.523710  1.675
21063 1 -108.513284  31.661290  1.675
21064 1 -109.749494  32.359991  1.675
21065 1 -109.762507  33.779931  1.675
21066 1 -108.539309  34.501171  1.675
21067 1 -110.972692  31.638751  1.675
21068 1 -112.208903  32.337452  1.675
21069 1 -112.221916  33.757392  1.675
21070 1 -110.998718  34.478632  1.675
21071 1 -113.432101  31.616213  1.675
21072 1 -114.668312  32.314913  1.675
21073 1 -114.681325  33.734854  1.675
21074 1 -113.458127  34.456093  1.675
21075 1 -115.891510  31.593674  1.675
21076 1 -115.917536  34.433555  1.675
21077 1  115.253886  37.972136  1.675
21078 1  114.017675  38.670837  1.675
21079 1  114.004662  40.090777  1.675
21080 1  115.227860  40.812017  1.675
21081 1  112.794477  37.949597  1.675
21082 1  111.558266  38.648298  1.675
21083 1  111.545253  40.068239  1.675
21084 1  112.768451  40.789478  1.675
21085 1  110.335068  37.927059  1.675
21086 1  109.098857  38.625759  1.675
21087 1  109.085844  40.045700  1.675
21088 1  110.309042  40.766939  1.675
21089 1  107.875659  37.904520  1.675
21090 1  106.639448  38.603221  1.675
21091 1  106.626435  40.023161  1.675
21092 1  107.849634  40.744401  1.675
21093 1  105.416250  37.881981  1.675
21094 1  104.180039  38.580682  1.675
21095 1  104.167027  40.000622  1.675
21096 1  105.390225  40.721862  1.675
21097 1  102.956841  37.859442  1.675
21098 1  101.720630  38.558143  1.675
21099 1  101.707618  39.978084  1.675
21100 1  102.930816  40.699323  1.675
21101 1  100.497432  37.836904  1.675
21102 1   99.261222  38.535605  1.675
21103 1   99.248209  39.955545  1.675
21104 1  100.471407  40.676784  1.675
21105 1   98.038024  37.814365  1.675
21106 1   96.801813  38.513066  1.675
21107 1   96.788800  39.933006  1.675
21108 1   98.011998  40.654246  1.675
21109 1   95.578615  37.791826  1.675
21110 1   94.342404  38.490527  1.675
21111 1   94.329391  39.910467  1.675
21112 1   95.552589  40.631707  1.675
21113 1   93.119206  37.769288  1.675
21114 1   91.882995  38.467988  1.675
21115 1   91.869982  39.887929  1.675
21116 1   93.093180  40.609168  1.675
21117 1   90.659797  37.746749  1.675
21118 1   89.423586  38.445450  1.675
21119 1   89.410573  39.865390  1.675
21120 1   90.633771  40.586630  1.675
21121 1   88.200388  37.724210  1.675
21122 1   86.964177  38.422911  1.675
21123 1   86.951164  39.842851  1.675
21124 1   88.174363  40.564091  1.675
21125 1   85.740979  37.701671  1.675
21126 1   84.504768  38.400372  1.675
21127 1   84.491756  39.820312  1.675
21128 1   85.714954  40.541552  1.675
21129 1   83.281570  37.679133  1.675
21130 1   82.045359  38.377833  1.675
21131 1   82.032347  39.797774  1.675
21132 1   83.255545  40.519013  1.675
21133 1   80.822161  37.656594  1.675
21134 1   79.585951  38.355295  1.675
21135 1   79.572938  39.775235  1.675
21136 1   80.796136  40.496475  1.675
21137 1   78.362753  37.634055  1.675
21138 1   77.126542  38.332756  1.675
21139 1   77.113529  39.752696  1.675
21140 1   78.336727  40.473936  1.675
21141 1   75.903344  37.611516  1.675
21142 1   74.667133  38.310217  1.675
21143 1   74.654120  39.730158  1.675
21144 1   75.877318  40.451397  1.675
21145 1   73.443935  37.588978  1.675
21146 1   72.207724  38.287678  1.675
21147 1   72.194711  39.707619  1.675
21148 1   73.417909  40.428858  1.675
21149 1   70.984526  37.566439  1.675
21150 1   69.748315  38.265140  1.675
21151 1   69.735302  39.685080  1.675
21152 1   70.958500  40.406320  1.675
21153 1   68.525117  37.543900  1.675
21154 1   67.288906  38.242601  1.675
21155 1   67.275894  39.662541  1.675
21156 1   68.499092  40.383781  1.675
21157 1   66.065708  37.521361  1.675
21158 1   64.829497  38.220062  1.675
21159 1   64.816485  39.640003  1.675
21160 1   66.039683  40.361242  1.675
21161 1   63.606299  37.498823  1.675
21162 1   62.370089  38.197523  1.675
21163 1   62.357076  39.617464  1.675
21164 1   63.580274  40.338703  1.675
21165 1   61.146890  37.476284  1.675
21166 1   59.910680  38.174985  1.675
21167 1   59.897667  39.594925  1.675
21168 1   61.120865  40.316165  1.675
21169 1   58.687482  37.453745  1.675
21170 1   57.451271  38.152446  1.675
21171 1   57.438258  39.572386  1.675
21172 1   58.661456  40.293626  1.675
21173 1   56.228073  37.431206  1.675
21174 1   54.991862  38.129907  1.675
21175 1   54.978849  39.549848  1.675
21176 1   56.202047  40.271087  1.675
21177 1   53.768664  37.408668  1.675
21178 1   52.532453  38.107369  1.675
21179 1   52.519440  39.527309  1.675
21180 1   53.742638  40.248548  1.675
21181 1   51.309255  37.386129  1.675
21182 1   50.073044  38.084830  1.675
21183 1   50.060031  39.504770  1.675
21184 1   51.283229  40.226010  1.675
21185 1   48.849846  37.363590  1.675
21186 1   47.613635  38.062291  1.675
21187 1   47.600623  39.482231  1.675
21188 1   48.823821  40.203471  1.675
21189 1   46.390437  37.341052  1.675
21190 1   45.154226  38.039752  1.675
21191 1   45.141214  39.459693  1.675
21192 1   46.364412  40.180932  1.675
21193 1   43.931028  37.318513  1.675
21194 1   42.694818  38.017214  1.675
21195 1   42.681805  39.437154  1.675
21196 1   43.905003  40.158394  1.675
21197 1   41.471619  37.295974  1.675
21198 1   40.235409  37.994675  1.675
21199 1   40.222396  39.414615  1.675
21200 1   41.445594  40.135855  1.675
21201 1   39.012211  37.273435  1.675
21202 1   37.776000  37.972136  1.675
21203 1   37.762987  39.392077  1.675
21204 1   38.986185  40.113316  1.675
21205 1   36.552802  37.250897  1.675
21206 1   35.316591  37.949597  1.675
21207 1   35.303578  39.369538  1.675
21208 1   36.526776  40.090777  1.675
21209 1   34.093393  37.228358  1.675
21210 1   32.857182  37.927059  1.675
21211 1   32.844169  39.346999  1.675
21212 1   34.067367  40.068239  1.675
21213 1   31.633984  37.205819  1.675
21214 1   30.397773  37.904520  1.675
21215 1   30.384760  39.324460  1.675
21216 1   31.607958  40.045700  1.675
21217 1   29.174575  37.183280  1.675
21218 1   27.938364  37.881981  1.675
21219 1   27.925352  39.301922  1.675
21220 1   29.148550  40.023161  1.675
21221 1   26.715166  37.160742  1.675
21222 1   25.478955  37.859442  1.675
21223 1   25.465943  39.279383  1.675
21224 1   26.689141  40.000622  1.675
21225 1   24.255757  37.138203  1.675
21226 1   23.019547  37.836904  1.675
21227 1   23.006534  39.256844  1.675
21228 1   24.229732  39.978084  1.675
21229 1   21.796348  37.115664  1.675
21230 1   20.560138  37.814365  1.675
21231 1   20.547125  39.234305  1.675
21232 1   21.770323  39.955545  1.675
21233 1   19.336940  37.093125  1.675
21234 1   18.100729  37.791826  1.675
21235 1   18.087716  39.211767  1.675
21236 1   19.310914  39.933006  1.675
21237 1   16.877531  37.070587  1.675
21238 1   15.641320  37.769288  1.675
21239 1   15.628307  39.189228  1.675
21240 1   16.851505  39.910467  1.675
21241 1   14.418122  37.048048  1.675
21242 1   13.181911  37.746749  1.675
21243 1   13.168898  39.166689  1.675
21244 1   14.392096  39.887929  1.675
21245 1   11.958713  37.025509  1.675
21246 1   10.722502  37.724210  1.675
21247 1   10.709489  39.144150  1.675
21248 1   11.932687  39.865390  1.675
21249 1    9.499304  37.002970  1.675
21250 1    8.263093  37.701671  1.675
21251 1    8.250081  39.121612  1.675
21252 1    9.473279  39.842851  1.675
21253 1    7.039895  36.980432  1.675
21254 1    5.803684  37.679133  1.675
21255 1    5.790672  39.099073  1.675
21256 1    7.013870  39.820312  1.675
21257 1    4.580486  36.957893  1.675
21258 1    3.344276  37.656594  1.675
21259 1    3.331263  39.076534  1.675
21260 1    4.554461  39.797774  1.675
21261 1    2.121077  36.935354  1.675
21262 1    0.884867  37.634055  1.675
21263 1    0.871854  39.053995  1.675
21264 1    2.095052  39.775235  1.675
21265 1   -0.338331  36.912816  1.675
21266 1   -1.574542  37.611516  1.675
21267 1   -1.587555  39.031457  1.675
21268 1   -0.364357  39.752696  1.675
21269 1   -2.797740  36.890277  1.675
21270 1   -4.033951  37.588978  1.675
21271 1   -4.046964  39.008918  1.675
21272 1   -2.823766  39.730158  1.675
21273 1   -5.257149  36.867738  1.675
21274 1   -6.493360  37.566439  1.675
21275 1   -6.506373  38.986379  1.675
21276 1   -5.283175  39.707619  1.675
21277 1   -7.716558  36.845199  1.675
21278 1   -8.952769  37.543900  1.675
21279 1   -8.965782  38.963841  1.675
21280 1   -7.742583  39.685080  1.675
21281 1  -10.175967  36.822661  1.675
21282 1  -11.412178  37.521361  1.675
21283 1  -11.425190  38.941302  1.675
21284 1  -10.201992  39.662541  1.675
21285 1  -12.635376  36.800122  1.675
21286 1  -13.871587  37.498823  1.675
21287 1  -13.884599  38.918763  1.675
21288 1  -12.661401  39.640003  1.675
21289 1  -15.094785  36.777583  1.675
21290 1  -16.330995  37.476284  1.675
21291 1  -16.344008  38.896224  1.675
21292 1  -15.120810  39.617464  1.675
21293 1  -17.554193  36.755044  1.675
21294 1  -18.790404  37.453745  1.675
21295 1  -18.803417  38.873686  1.675
21296 1  -17.580219  39.594925  1.675
21297 1  -20.013602  36.732506  1.675
21298 1  -21.249813  37.431206  1.675
21299 1  -21.262826  38.851147  1.675
21300 1  -20.039628  39.572386  1.675
21301 1  -22.473011  36.709967  1.675
21302 1  -23.709222  37.408668  1.675
21303 1  -23.722235  38.828608  1.675
21304 1  -22.499037  39.549848  1.675
21305 1  -24.932420  36.687428  1.675
21306 1  -26.168631  37.386129  1.675
21307 1  -26.181644  38.806069  1.675
21308 1  -24.958446  39.527309  1.675
21309 1  -27.391829  36.664889  1.675
21310 1  -28.628040  37.363590  1.675
21311 1  -28.641053  38.783531  1.675
21312 1  -27.417854  39.504770  1.675
21313 1  -29.851238  36.642351  1.675
21314 1  -31.087449  37.341052  1.675
21315 1  -31.100461  38.760992  1.675
21316 1  -29.877263  39.482231  1.675
21317 1  -32.310647  36.619812  1.675
21318 1  -33.546858  37.318513  1.675
21319 1  -33.559870  38.738453  1.675
21320 1  -32.336672  39.459693  1.675
21321 1  -34.770056  36.597273  1.675
21322 1  -36.006266  37.295974  1.675
21323 1  -36.019279  38.715914  1.675
21324 1  -34.796081  39.437154  1.675
21325 1  -37.229464  36.574734  1.675
21326 1  -38.465675  37.273435  1.675
21327 1  -38.478688  38.693376  1.675
21328 1  -37.255490  39.414615  1.675
21329 1  -39.688873  36.552196  1.675
21330 1  -40.925084  37.250897  1.675
21331 1  -40.938097  38.670837  1.675
21332 1  -39.714899  39.392077  1.675
21333 1  -42.148282  36.529657  1.675
21334 1  -43.384493  37.228358  1.675
21335 1  -43.397506  38.648298  1.675
21336 1  -42.174308  39.369538  1.675
21337 1  -44.607691  36.507118  1.675
21338 1  -45.843902  37.205819  1.675
21339 1  -45.856915  38.625759  1.675
21340 1  -44.633717  39.346999  1.675
21341 1  -47.067100  36.484580  1.675
21342 1  -48.303311  37.183280  1.675
21343 1  -48.316324  38.603221  1.675
21344 1  -47.093125  39.324460  1.675
21345 1  -49.526509  36.462041  1.675
21346 1  -50.762720  37.160742  1.675
21347 1  -50.775732  38.580682  1.675
21348 1  -49.552534  39.301922  1.675
21349 1  -51.985918  36.439502  1.675
21350 1  -53.222129  37.138203  1.675
21351 1  -53.235141  38.558143  1.675
21352 1  -52.011943  39.279383  1.675
21353 1  -54.445327  36.416963  1.675
21354 1  -55.681537  37.115664  1.675
21355 1  -55.694550  38.535605  1.675
21356 1  -54.471352  39.256844  1.675
21357 1  -56.904735  36.394425  1.675
21358 1  -58.140946  37.093125  1.675
21359 1  -58.153959  38.513066  1.675
21360 1  -56.930761  39.234305  1.675
21361 1  -59.364144  36.371886  1.675
21362 1  -60.600355  37.070587  1.675
21363 1  -60.613368  38.490527  1.675
21364 1  -59.390170  39.211767  1.675
21365 1  -61.823553  36.349347  1.675
21366 1  -63.059764  37.048048  1.675
21367 1  -63.072777  38.467988  1.675
21368 1  -61.849579  39.189228  1.675
21369 1  -64.282962  36.326808  1.675
21370 1  -65.519173  37.025509  1.675
21371 1  -65.532186  38.445450  1.675
21372 1  -64.308988  39.166689  1.675
21373 1  -66.742371  36.304270  1.675
21374 1  -67.978582  37.002970  1.675
21375 1  -67.991595  38.422911  1.675
21376 1  -66.768396  39.144150  1.675
21377 1  -69.201780  36.281731  1.675
21378 1  -70.437991  36.980432  1.675
21379 1  -70.451003  38.400372  1.675
21380 1  -69.227805  39.121612  1.675
21381 1  -71.661189  36.259192  1.675
21382 1  -72.897400  36.957893  1.675
21383 1  -72.910412  38.377833  1.675
21384 1  -71.687214  39.099073  1.675
21385 1  -74.120598  36.236653  1.675
21386 1  -75.356808  36.935354  1.675
21387 1  -75.369821  38.355295  1.675
21388 1  -74.146623  39.076534  1.675
21389 1  -76.580006  36.214115  1.675
21390 1  -77.816217  36.912816  1.675
21391 1  -77.829230  38.332756  1.675
21392 1  -76.606032  39.053995  1.675
21393 1  -79.039415  36.191576  1.675
21394 1  -80.275626  36.890277  1.675
21395 1  -80.288639  38.310217  1.675
21396 1  -79.065441  39.031457  1.675
21397 1  -81.498824  36.169037  1.675
21398 1  -82.735035  36.867738  1.675
21399 1  -82.748048  38.287678  1.675
21400 1  -81.524850  39.008918  1.675
21401 1  -83.958233  36.146499  1.675
21402 1  -85.194444  36.845199  1.675
21403 1  -85.207457  38.265140  1.675
21404 1  -83.984259  38.986379  1.675
21405 1  -86.417642  36.123960  1.675
21406 1  -87.653853  36.822661  1.675
21407 1  -87.666865  38.242601  1.675
21408 1  -86.443667  38.963841  1.675
21409 1  -88.877051  36.101421  1.675
21410 1  -90.113262  36.800122  1.675
21411 1  -90.126274  38.220062  1.675
21412 1  -88.903076  38.941302  1.675
21413 1  -91.336460  36.078882  1.675
21414 1  -92.572670  36.777583  1.675
21415 1  -92.585683  38.197523  1.675
21416 1  -91.362485  38.918763  1.675
21417 1  -93.795869  36.056344  1.675
21418 1  -95.032079  36.755044  1.675
21419 1  -95.045092  38.174985  1.675
21420 1  -93.821894  38.896224  1.675
21421 1  -96.255277  36.033805  1.675
21422 1  -97.491488  36.732506  1.675
21423 1  -97.504501  38.152446  1.675
21424 1  -96.281303  38.873686  1.675
21425 1  -98.714686  36.011266  1.675
21426 1  -99.950897  36.709967  1.675
21427 1  -99.963910  38.129907  1.675
21428 1  -98.740712  38.851147  1.675
21429 1 -101.174095  35.988727  1.675
21430 1 -102.410306  36.687428  1.675
21431 1 -102.423319  38.107369  1.675
21432 1 -101.200121  38.828608  1.675
21433 1 -103.633504  35.966189  1.675
21434 1 -104.869715  36.664889  1.675
21435 1 -104.882728  38.084830  1.675
21436 1 -103.659530  38.806069  1.675
21437 1 -106.092913  35.943650  1.675
21438 1 -107.329124  36.642351  1.675
21439 1 -107.342136  38.062291  1.675
21440 1 -106.118938  38.783531  1.675
21441 1 -108.552322  35.921111  1.675
21442 1 -109.788533  36.619812  1.675
21443 1 -109.801545  38.039752  1.675
21444 1 -108.578347  38.760992  1.675
21445 1 -111.011731  35.898572  1.675
21446 1 -112.247941  36.597273  1.675
21447 1 -112.260954  38.017214  1.675
21448 1 -111.037756  38.738453  1.675
21449 1 -113.471140  35.876034  1.675
21450 1 -114.707350  36.574734  1.675
21451 1 -114.720363  37.994675  1.675
21452 1 -113.497165  38.715914  1.675
21453 1 -115.930548  35.853495  1.675
21454 1 -115.956574  38.693376  1.675
21455 1  115.214847  42.231957  1.675
21456 1  113.978637  42.930658  1.675
21457 1  113.965624  44.350598  1.675
21458 1  115.188822  45.071838  1.675
21459 1  112.755439  42.209419  1.675
21460 1  111.519228  42.908119  1.675
21461 1  111.506215  44.328060  1.675
21462 1  112.729413  45.049299  1.675
21463 1  110.296030  42.186880  1.675
21464 1  109.059819  42.885581  1.675
21465 1  109.046806  44.305521  1.675
21466 1  110.270004  45.026761  1.675
21467 1  107.836621  42.164341  1.675
21468 1  106.600410  42.863042  1.675
21469 1  106.587397  44.282982  1.675
21470 1  107.810595  45.004222  1.675
21471 1  105.377212  42.141802  1.675
21472 1  104.141001  42.840503  1.675
21473 1  104.127988  44.260444  1.675
21474 1  105.351186  44.981683  1.675
21475 1  102.917803  42.119264  1.675
21476 1  101.681592  42.817964  1.675
21477 1  101.668580  44.237905  1.675
21478 1  102.891778  44.959144  1.675
21479 1  100.458394  42.096725  1.675
21480 1   99.222183  42.795426  1.675
21481 1   99.209171  44.215366  1.675
21482 1  100.432369  44.936606  1.675
21483 1   97.998985  42.074186  1.675
21484 1   96.762775  42.772887  1.675
21485 1   96.749762  44.192827  1.675
21486 1   97.972960  44.914067  1.675
21487 1   95.539576  42.051647  1.675
21488 1   94.303366  42.750348  1.675
21489 1   94.290353  44.170289  1.675
21490 1   95.513551  44.891528  1.675
21491 1   93.080168  42.029109  1.675
21492 1   91.843957  42.727809  1.675
21493 1   91.830944  44.147750  1.675
21494 1   93.054142  44.868989  1.675
21495 1   90.620759  42.006570  1.675
21496 1   89.384548  42.705271  1.675
21497 1   89.371535  44.125211  1.675
21498 1   90.594733  44.846451  1.675
21499 1   88.161350  41.984031  1.675
21500 1   86.925139  42.682732  1.675
21501 1   86.912126  44.102672  1.675
21502 1   88.135324  44.823912  1.675
21503 1   85.701941  41.961492  1.675
21504 1   84.465730  42.660193  1.675
21505 1   84.452717  44.080134  1.675
21506 1   85.675915  44.801373  1.675
21507 1   83.242532  41.938954  1.675
21508 1   82.006321  42.637655  1.675
21509 1   81.993309  44.057595  1.675
21510 1   83.216507  44.778834  1.675
21511 1   80.783123  41.916415  1.675
21512 1   79.546912  42.615116  1.675
21513 1   79.533900  44.035056  1.675
21514 1   80.757098  44.756296  1.675
21515 1   78.323714  41.893876  1.675
21516 1   77.087504  42.592577  1.675
21517 1   77.074491  44.012517  1.675
21518 1   78.297689  44.733757  1.675
21519 1   75.864305  41.871337  1.675
21520 1   74.628095  42.570038  1.675
21521 1   74.615082  43.989979  1.675
21522 1   75.838280  44.711218  1.675
21523 1   73.404897  41.848799  1.675
21524 1   72.168686  42.547500  1.675
21525 1   72.155673  43.967440  1.675
21526 1   73.378871  44.688679  1.675
21527 1   70.945488  41.826260  1.675
21528 1   69.709277  42.524961  1.675
21529 1   69.696264  43.944901  1.675
21530 1   70.919462  44.666141  1.675
21531 1   68.486079  41.803721  1.675
21532 1   67.249868  42.502422  1.675
21533 1   67.236855  43.922362  1.675
21534 1   68.460053  44.643602  1.675
21535 1   66.026670  41.781183  1.675
21536 1   64.790459  42.479883  1.675
21537 1   64.777446  43.899824  1.675
21538 1   66.000644  44.621063  1.675
21539 1   63.567261  41.758644  1.675
21540 1   62.331050  42.457345  1.675
21541 1   62.318038  43.877285  1.675
21542 1   63.541236  44.598525  1.675
21543 1   61.107852  41.736105  1.675
21544 1   59.871641  42.434806  1.675
21545 1   59.858629  43.854746  1.675
21546 1   61.081827  44.575986  1.675
21547 1   58.648443  41.713566  1.675
21548 1   57.412233  42.412267  1.675
21549 1   57.399220  43.832208  1.675
21550 1   58.622418  44.553447  1.675
21551 1   56.189034  41.691028  1.675
21552 1   54.952824  42.389728  1.675
21553 1   54.939811  43.809669  1.675
21554 1   56.163009  44.530908  1.675
21555 1   53.729626  41.668489  1.675
21556 1   52.493415  42.367190  1.675
21557 1   52.480402  43.787130  1.675
21558 1   53.703600  44.508370  1.675
21559 1   51.270217  41.645950  1.675
21560 1   50.034006  42.344651  1.675
21561 1   50.020993  43.764591  1.675
21562 1   51.244191  44.485831  1.675
21563 1   48.810808  41.623411  1.675
21564 1   47.574597  42.322112  1.675
21565 1   47.561584  43.742053  1.675
21566 1   48.784782  44.463292  1.675
21567 1   46.351399  41.600873  1.675
21568 1   45.115188  42.299573  1.675
21569 1   45.102175  43.719514  1.675
21570 1   46.325373  44.440753  1.675
21571 1   43.891990  41.578334  1.675
21572 1   42.655779  42.277035  1.675
21573 1   42.642767  43.696975  1.675
21574 1   43.865965  44.418215  1.675
21575 1   41.432581  41.555795  1.675
21576 1   40.196370  42.254496  1.675
21577 1   40.183358  43.674436  1.675
21578 1   41.406556  44.395676  1.675
21579 1   38.973172  41.533256  1.675
21580 1   37.736962  42.231957  1.675
21581 1   37.723949  43.651898  1.675
21582 1   38.947147  44.373137  1.675
21583 1   36.513763  41.510718  1.675
21584 1   35.277553  42.209419  1.675
21585 1   35.264540  43.629359  1.675
21586 1   36.487738  44.350598  1.675
21587 1   34.054355  41.488179  1.675
21588 1   32.818144  42.186880  1.675
21589 1   32.805131  43.606820  1.675
21590 1   34.028329  44.328060  1.675
21591 1   31.594946  41.465640  1.675
21592 1   30.358735  42.164341  1.675
21593 1   30.345722  43.584281  1.675
21594 1   31.568920  44.305521  1.675
21595 1   29.135537  41.443101  1.675
21596 1   27.899326  42.141802  1.675
21597 1   27.886313  43.561743  1.675
21598 1   29.109511  44.282982  1.675
21599 1   26.676128  41.420563  1.675
21600 1   25.439917  42.119264  1.675
21601 1   25.426904  43.539204  1.675
21602 1   26.650102  44.260444  1.675
21603 1   24.216719  41.398024  1.675
21604 1   22.980508  42.096725  1.675
21605 1   22.967496  43.516665  1.675
21606 1   24.190694  44.237905  1.675
21607 1   21.757310  41.375485  1.675
21608 1   20.521099  42.074186  1.675
21609 1   20.508087  43.494126  1.675
21610 1   21.731285  44.215366  1.675
21611 1   19.297901  41.352947  1.675
21612 1   18.061691  42.051647  1.675
21613 1   18.048678  43.471588  1.675
21614 1   19.271876  44.192827  1.675
21615 1   16.838492  41.330408  1.675
21616 1   15.602282  42.029109  1.675
21617 1   15.589269  43.449049  1.675
21618 1   16.812467  44.170289  1.675
21619 1   14.379084  41.307869  1.675
21620 1   13.142873  42.006570  1.675
21621 1   13.129860  43.426510  1.675
21622 1   14.353058  44.147750  1.675
21623 1   11.919675  41.285330  1.675
21624 1   10.683464  41.984031  1.675
21625 1   10.670451  43.403972  1.675
21626 1   11.893649  44.125211  1.675
21627 1    9.460266  41.262792  1.675
21628 1    8.224055  41.961492  1.675
21629 1    8.211042  43.381433  1.675
21630 1    9.434240  44.102672  1.675
21631 1    7.000857  41.240253  1.675
21632 1    5.764646  41.938954  1.675
21633 1    5.751633  43.358894  1.675
21634 1    6.974832  44.080134  1.675
21635 1    4.541448  41.217714  1.675
21636 1    3.305237  41.916415  1.675
21637 1    3.292225  43.336355  1.675
21638 1    4.515423  44.057595  1.675
21639 1    2.082039  41.195175  1.675
21640 1    0.845828  41.893876  1.675
21641 1    0.832816  43.313817  1.675
21642 1    2.056014  44.035056  1.675
21643 1   -0.377370  41.172637  1.675
21644 1   -1.613580  41.871337  1.675
21645 1   -1.626593  43.291278  1.675
21646 1   -0.403395  44.012517  1.675
21647 1   -2.836778  41.150098  1.675
21648 1   -4.072989  41.848799  1.675
21649 1   -4.086002  43.268739  1.675
21650 1   -2.862804  43.989979  1.675
21651 1   -5.296187  41.127559  1.675
21652 1   -6.532398  41.826260  1.675
21653 1   -6.545411  43.246200  1.675
21654 1   -5.322213  43.967440  1.675
21655 1   -7.755596  41.105020  1.675
21656 1   -8.991807  41.803721  1.675
21657 1   -9.004820  43.223662  1.675
21658 1   -7.781622  43.944901  1.675
21659 1  -10.215005  41.082482  1.675
21660 1  -11.451216  41.781183  1.675
21661 1  -11.464229  43.201123  1.675
21662 1  -10.241031  43.922362  1.675
21663 1  -12.674414  41.059943  1.675
21664 1  -13.910625  41.758644  1.675
21665 1  -13.923638  43.178584  1.675
21666 1  -12.700439  43.899824  1.675
21667 1  -15.133823  41.037404  1.675
21668 1  -16.370034  41.736105  1.675
21669 1  -16.383046  43.156045  1.675
21670 1  -15.159848  43.877285  1.675
21671 1  -17.593232  41.014866  1.675
21672 1  -18.829443  41.713566  1.675
21673 1  -18.842455  43.133507  1.675
21674 1  -17.619257  43.854746  1.675
21675 1  -20.052641  40.992327  1.675
21676 1  -21.288851  41.691028  1.675
21677 1  -21.301864  43.110968  1.675
21678 1  -20.078666  43.832208  1.675
21679 1  -22.512049  40.969788  1.675
21680 1  -23.748260  41.668489  1.675
21681 1  -23.761273  43.088429  1.675
21682 1  -22.538075  43.809669  1.675
21683 1  -24.971458  40.947249  1.675
21684 1  -26.207669  41.645950  1.675
21685 1  -26.220682  43.065890  1.675
21686 1  -24.997484  43.787130  1.675
21687 1  -27.430867  40.924711  1.675
21688 1  -28.667078  41.623411  1.675
21689 1  -28.680091  43.043352  1.675
21690 1  -27.456893  43.764591  1.675
21691 1  -29.890276  40.902172  1.675
21692 1  -31.126487  41.600873  1.675
21693 1  -31.139500  43.020813  1.675
21694 1  -29.916302  43.742053  1.675
21695 1  -32.349685  40.879633  1.675
21696 1  -33.585896  41.578334  1.675
21697 1  -33.598909  42.998274  1.675
21698 1  -32.375710  43.719514  1.675
21699 1  -34.809094  40.857094  1.675
21700 1  -36.045305  41.555795  1.675
21701 1  -36.058317  42.975736  1.675
21702 1  -34.835119  43.696975  1.675
21703 1  -37.268503  40.834556  1.675
21704 1  -38.504714  41.533256  1.675
21705 1  -38.517726  42.953197  1.675
21706 1  -37.294528  43.674436  1.675
21707 1  -39.727912  40.812017  1.675
21708 1  -40.964122  41.510718  1.675
21709 1  -40.977135  42.930658  1.675
21710 1  -39.753937  43.651898  1.675
21711 1  -42.187320  40.789478  1.675
21712 1  -43.423531  41.488179  1.675
21713 1  -43.436544  42.908119  1.675
21714 1  -42.213346  43.629359  1.675
21715 1  -44.646729  40.766939  1.675
21716 1  -45.882940  41.465640  1.675
21717 1  -45.895953  42.885581  1.675
21718 1  -44.672755  43.606820  1.675
21719 1  -47.106138  40.744401  1.675
21720 1  -48.342349  41.443101  1.675
21721 1  -48.355362  42.863042  1.675
21722 1  -47.132164  43.584281  1.675
21723 1  -49.565547  40.721862  1.675
21724 1  -50.801758  41.420563  1.675
21725 1  -50.814771  42.840503  1.675
21726 1  -49.591573  43.561743  1.675
21727 1  -52.024956  40.699323  1.675
21728 1  -53.261167  41.398024  1.675
21729 1  -53.274180  42.817964  1.675
21730 1  -52.050981  43.539204  1.675
21731 1  -54.484365  40.676784  1.675
21732 1  -55.720576  41.375485  1.675
21733 1  -55.733588  42.795426  1.675
21734 1  -54.510390  43.516665  1.675
21735 1  -56.943774  40.654246  1.675
21736 1  -58.179985  41.352947  1.675
21737 1  -58.192997  42.772887  1.675
21738 1  -56.969799  43.494126  1.675
21739 1  -59.403183  40.631707  1.675
21740 1  -60.639393  41.330408  1.675
21741 1  -60.652406  42.750348  1.675
21742 1  -59.429208  43.471588  1.675
21743 1  -61.862591  40.609168  1.675
21744 1  -63.098802  41.307869  1.675
21745 1  -63.111815  42.727809  1.675
21746 1  -61.888617  43.449049  1.675
21747 1  -64.322000  40.586630  1.675
21748 1  -65.558211  41.285330  1.675
21749 1  -65.571224  42.705271  1.675
21750 1  -64.348026  43.426510  1.675
21751 1  -66.781409  40.564091  1.675
21752 1  -68.017620  41.262792  1.675
21753 1  -68.030633  42.682732  1.675
21754 1  -66.807435  43.403972  1.675
21755 1  -69.240818  40.541552  1.675
21756 1  -70.477029  41.240253  1.675
21757 1  -70.490042  42.660193  1.675
21758 1  -69.266844  43.381433  1.675
21759 1  -71.700227  40.519013  1.675
21760 1  -72.936438  41.217714  1.675
21761 1  -72.949450  42.637655  1.675
21762 1  -71.726252  43.358894  1.675
21763 1  -74.159636  40.496475  1.675
21764 1  -75.395847  41.195175  1.675
21765 1  -75.408859  42.615116  1.675
21766 1  -74.185661  43.336355  1.675
21767 1  -76.619045  40.473936  1.675
21768 1  -77.855255  41.172637  1.675
21769 1  -77.868268  42.592577  1.675
21770 1  -76.645070  43.313817  1.675
21771 1  -79.078454  40.451397  1.675
21772 1  -80.314664  41.150098  1.675
21773 1  -80.327677  42.570038  1.675
21774 1  -79.104479  43.291278  1.675
21775 1  -81.537862  40.428858  1.675
21776 1  -82.774073  41.127559  1.675
21777 1  -82.787086  42.547500  1.675
21778 1  -81.563888  43.268739  1.675
21779 1  -83.997271  40.406320  1.675
21780 1  -85.233482  41.105020  1.675
21781 1  -85.246495  42.524961  1.675
21782 1  -84.023297  43.246200  1.675
21783 1  -86.456680  40.383781  1.675
21784 1  -87.692891  41.082482  1.675
21785 1  -87.705904  42.502422  1.675
21786 1  -86.482706  43.223662  1.675
21787 1  -88.916089  40.361242  1.675
21788 1  -90.152300  41.059943  1.675
21789 1  -90.165313  42.479883  1.675
21790 1  -88.942115  43.201123  1.675
21791 1  -91.375498  40.338703  1.675
21792 1  -92.611709  41.037404  1.675
21793 1  -92.624721  42.457345  1.675
21794 1  -91.401523  43.178584  1.675
21795 1  -93.834907  40.316165  1.675
21796 1  -95.071118  41.014866  1.675
21797 1  -95.084130  42.434806  1.675
21798 1  -93.860932  43.156045  1.675
21799 1  -96.294316  40.293626  1.675
21800 1  -97.530526  40.992327  1.675
21801 1  -97.543539  42.412267  1.675
21802 1  -96.320341  43.133507  1.675
21803 1  -98.753725  40.271087  1.675
21804 1  -99.989935  40.969788  1.675
21805 1 -100.002948  42.389728  1.675
21806 1  -98.779750  43.110968  1.675
21807 1 -101.213133  40.248548  1.675
21808 1 -102.449344  40.947249  1.675
21809 1 -102.462357  42.367190  1.675
21810 1 -101.239159  43.088429  1.675
21811 1 -103.672542  40.226010  1.675
21812 1 -104.908753  40.924711  1.675
21813 1 -104.921766  42.344651  1.675
21814 1 -103.698568  43.065890  1.675
21815 1 -106.131951  40.203471  1.675
21816 1 -107.368162  40.902172  1.675
21817 1 -107.381175  42.322112  1.675
21818 1 -106.157977  43.043352  1.675
21819 1 -108.591360  40.180932  1.675
21820 1 -109.827571  40.879633  1.675
21821 1 -109.840584  42.299573  1.675
21822 1 -108.617386  43.020813  1.675
21823 1 -111.050769  40.158394  1.675
21824 1 -112.286980  40.857094  1.675
21825 1 -112.299992  42.277035  1.675
21826 1 -111.076794  42.998274  1.675
21827 1 -113.510178  40.135855  1.675
21828 1 -114.746389  40.834556  1.675
21829 1 -114.759401  42.254496  1.675
21830 1 -113.536203  42.975736  1.675
21831 1 -115.969587  40.113316  1.675
21832 1 -115.995612  42.953197  1.675
21833 1  115.175809  46.491778  1.675
21834 1  113.939598  47.190479  1.675
21835 1  113.926586  48.610420  1.675
21836 1  115.149784  49.331659  1.675
21837 1  112.716400  46.469240  1.675
21838 1  111.480190  47.167940  1.675
21839 1  111.467177  48.587881  1.675
21840 1  112.690375  49.309120  1.675
21841 1  110.256991  46.446701  1.675
21842 1  109.020781  47.145402  1.675
21843 1  109.007768  48.565342  1.675
21844 1  110.230966  49.286582  1.675
21845 1  107.797583  46.424162  1.675
21846 1  106.561372  47.122863  1.675
21847 1  106.548359  48.542803  1.675
21848 1  107.771557  49.264043  1.675
21849 1  105.338174  46.401623  1.675
21850 1  104.101963  47.100324  1.675
21851 1  104.088950  48.520265  1.675
21852 1  105.312148  49.241504  1.675
21853 1  102.878765  46.379085  1.675
21854 1  101.642554  47.077786  1.675
21855 1  101.629541  48.497726  1.675
21856 1  102.852739  49.218965  1.675
21857 1  100.419356  46.356546  1.675
21858 1   99.183145  47.055247  1.675
21859 1   99.170132  48.475187  1.675
21860 1  100.393330  49.196427  1.675
21861 1   97.959947  46.334007  1.675
21862 1   96.723736  47.032708  1.675
21863 1   96.710724  48.452648  1.675
21864 1   97.933922  49.173888  1.675
21865 1   95.500538  46.311468  1.675
21866 1   94.264327  47.010169  1.675
21867 1   94.251315  48.430110  1.675
21868 1   95.474513  49.151349  1.675
21869 1   93.041129  46.288930  1.675
21870 1   91.804919  46.987631  1.675
21871 1   91.791906  48.407571  1.675
21872 1   93.015104  49.128811  1.675
21873 1   90.581720  46.266391  1.675
21874 1   89.345510  46.965092  1.675
21875 1   89.332497  48.385032  1.675
21876 1   90.555695  49.106272  1.675
21877 1   88.122312  46.243852  1.675
21878 1   86.886101  46.942553  1.675
21879 1   86.873088  48.362493  1.675
21880 1   88.096286  49.083733  1.675
21881 1   85.662903  46.221314  1.675
21882 1   84.426692  46.920014  1.675
21883 1   84.413679  48.339955  1.675
21884 1   85.636877  49.061194  1.675
21885 1   83.203494  46.198775  1.675
21886 1   81.967283  46.897476  1.675
21887 1   81.954270  48.317416  1.675
21888 1   83.177468  49.038656  1.675
21889 1   80.744085  46.176236  1.675
21890 1   79.507874  46.874937  1.675
21891 1   79.494861  48.294877  1.675
21892 1   80.718059  49.016117  1.675
21893 1   78.284676  46.153697  1.675
21894 1   77.048465  46.852398  1.675
21895 1   77.035453  48.272339  1.675
21896 1   78.258651  48.993578  1.675
21897 1   75.825267  46.131159  1.675
21898 1   74.589056  46.829859  1.675
21899 1   74.576044  48.249800  1.675
21900 1   75.799242  48.971039  1.675
21901 1   73.365858  46.108620  1.675
21902 1   72.129648  46.807321  1.675
21903 1   72.116635  48.227261  1.675
21904 1   73.339833  48.948501  1.675
21905 1   70.906449  46.086081  1.675
21906 1   69.670239  46.784782  1.675
21907 1   69.657226  48.204722  1.675
21908 1   70.880424  48.925962  1.675
21909 1   68.447041  46.063542  1.675
21910 1   67.210830  46.762243  1.675
21911 1   67.197817  48.182184  1.675
21912 1   68.421015  48.903423  1.675
21913 1   65.987632  46.041004  1.675
21914 1   64.751421  46.739704  1.675
21915 1   64.738408  48.159645  1.675
21916 1   65.961606  48.880884  1.675
21917 1   63.528223  46.018465  1.675
21918 1   62.292012  46.717166  1.675
21919 1   62.278999  48.137106  1.675
21920 1   63.502197  48.858346  1.675
21921 1   61.068814  45.995926  1.675
21922 1   59.832603  46.694627  1.675
21923 1   59.819590  48.114567  1.675
21924 1   61.042788  48.835807  1.675
21925 1   58.609405  45.973387  1.675
21926 1   57.373194  46.672088  1.675
21927 1   57.360182  48.092029  1.675
21928 1   58.583380  48.813268  1.675
21929 1   56.149996  45.950849  1.675
21930 1   54.913785  46.649550  1.675
21931 1   54.900773  48.069490  1.675
21932 1   56.123971  48.790729  1.675
21933 1   53.690587  45.928310  1.675
21934 1   52.454377  46.627011  1.675
21935 1   52.441364  48.046951  1.675
21936 1   53.664562  48.768191  1.675
21937 1   51.231178  45.905771  1.675
21938 1   49.994968  46.604472  1.675
21939 1   49.981955  48.024412  1.675
21940 1   51.205153  48.745652  1.675
21941 1   48.771770  45.883233  1.675
21942 1   47.535559  46.581933  1.675
21943 1   47.522546  48.001874  1.675
21944 1   48.745744  48.723113  1.675
21945 1   46.312361  45.860694  1.675
21946 1   45.076150  46.559395  1.675
21947 1   45.063137  47.979335  1.675
21948 1   46.286335  48.700575  1.675
21949 1   43.852952  45.838155  1.675
21950 1   42.616741  46.536856  1.675
21951 1   42.603728  47.956796  1.675
21952 1   43.826926  48.678036  1.675
21953 1   41.393543  45.815616  1.675
21954 1   40.157332  46.514317  1.675
21955 1   40.144319  47.934257  1.675
21956 1   41.367518  48.655497  1.675
21957 1   38.934134  45.793078  1.675
21958 1   37.697923  46.491778  1.675
21959 1   37.684911  47.911719  1.675
21960 1   38.908109  48.632958  1.675
21961 1   36.474725  45.770539  1.675
21962 1   35.238514  46.469240  1.675
21963 1   35.225502  47.889180  1.675
21964 1   36.448700  48.610420  1.675
21965 1   34.015316  45.748000  1.675
21966 1   32.779106  46.446701  1.675
21967 1   32.766093  47.866641  1.675
21968 1   33.989291  48.587881  1.675
21969 1   31.555907  45.725461  1.675
21970 1   30.319697  46.424162  1.675
21971 1   30.306684  47.844103  1.675
21972 1   31.529882  48.565342  1.675
21973 1   29.096499  45.702923  1.675
21974 1   27.860288  46.401623  1.675
21975 1   27.847275  47.821564  1.675
21976 1   29.070473  48.542803  1.675
21977 1   26.637090  45.680384  1.675
21978 1   25.400879  46.379085  1.675
21979 1   25.387866  47.799025  1.675
21980 1   26.611064  48.520265  1.675
21981 1   24.177681  45.657845  1.675
21982 1   22.941470  46.356546  1.675
21983 1   22.928457  47.776486  1.675
21984 1   24.151655  48.497726  1.675
21985 1   21.718272  45.635306  1.675
21986 1   20.482061  46.334007  1.675
21987 1   20.469048  47.753948  1.675
21988 1   21.692247  48.475187  1.675
21989 1   19.258863  45.612768  1.675
21990 1   18.022652  46.311468  1.675
21991 1   18.009640  47.731409  1.675
21992 1   19.232838  48.452648  1.675
21993 1   16.799454  45.590229  1.675
21994 1   15.563243  46.288930  1.675
21995 1   15.550231  47.708870  1.675
21996 1   16.773429  48.430110  1.675
21997 1   14.340045  45.567690  1.675
21998 1   13.103835  46.266391  1.675
21999 1   13.090822  47.686331  1.675
22000 1   14.314020  48.407571  1.675
22001 1   11.880637  45.545151  1.675
22002 1   10.644426  46.243852  1.675
22003 1   10.631413  47.663793  1.675
22004 1   11.854611  48.385032  1.675
22005 1    9.421228  45.522613  1.675
22006 1    8.185017  46.221314  1.675
22007 1    8.172004  47.641254  1.675
22008 1    9.395202  48.362493  1.675
22009 1    6.961819  45.500074  1.675
22010 1    5.725608  46.198775  1.675
22011 1    5.712595  47.618715  1.675
22012 1    6.935793  48.339955  1.675
22013 1    4.502410  45.477535  1.675
22014 1    3.266199  46.176236  1.675
22015 1    3.253186  47.596176  1.675
22016 1    4.476384  48.317416  1.675
22017 1    2.043001  45.454997  1.675
22018 1    0.806790  46.153697  1.675
22019 1    0.793777  47.573638  1.675
22020 1    2.016976  48.294877  1.675
22021 1   -0.416408  45.432458  1.675
22022 1   -1.652619  46.131159  1.675
22023 1   -1.665631  47.551099  1.675
22024 1   -0.442433  48.272339  1.675
22025 1   -2.875817  45.409919  1.675
22026 1   -4.112028  46.108620  1.675
22027 1   -4.125040  47.528560  1.675
22028 1   -2.901842  48.249800  1.675
22029 1   -5.335226  45.387380  1.675
22030 1   -6.571436  46.086081  1.675
22031 1   -6.584449  47.506022  1.675
22032 1   -5.361251  48.227261  1.675
22033 1   -7.794634  45.364842  1.675
22034 1   -9.030845  46.063542  1.675
22035 1   -9.043858  47.483483  1.675
22036 1   -7.820660  48.204722  1.675
22037 1  -10.254043  45.342303  1.675
22038 1  -11.490254  46.041004  1.675
22039 1  -11.503267  47.460944  1.675
22040 1  -10.280069  48.182184  1.675
22041 1  -12.713452  45.319764  1.675
22042 1  -13.949663  46.018465  1.675
22043 1  -13.962676  47.438405  1.675
22044 1  -12.739478  48.159645  1.675
22045 1  -15.172861  45.297225  1.675
22046 1  -16.409072  45.995926  1.675
22047 1  -16.422085  47.415867  1.675
22048 1  -15.198887  48.137106  1.675
22049 1  -17.632270  45.274687  1.675
22050 1  -18.868481  45.973387  1.675
22051 1  -18.881494  47.393328  1.675
22052 1  -17.658295  48.114567  1.675
22053 1  -20.091679  45.252148  1.675
22054 1  -21.327890  45.950849  1.675
22055 1  -21.340902  47.370789  1.675
22056 1  -20.117704  48.092029  1.675
22057 1  -22.551088  45.229609  1.675
22058 1  -23.787299  45.928310  1.675
22059 1  -23.800311  47.348250  1.675
22060 1  -22.577113  48.069490  1.675
22061 1  -25.010497  45.207070  1.675
22062 1  -26.246707  45.905771  1.675
22063 1  -26.259720  47.325712  1.675
22064 1  -25.036522  48.046951  1.675
22065 1  -27.469905  45.184532  1.675
22066 1  -28.706116  45.883233  1.675
22067 1  -28.719129  47.303173  1.675
22068 1  -27.495931  48.024412  1.675
22069 1  -29.929314  45.161993  1.675
22070 1  -31.165525  45.860694  1.675
22071 1  -31.178538  47.280634  1.675
22072 1  -29.955340  48.001874  1.675
22073 1  -32.388723  45.139454  1.675
22074 1  -33.624934  45.838155  1.675
22075 1  -33.637947  47.258095  1.675
22076 1  -32.414749  47.979335  1.675
22077 1  -34.848132  45.116915  1.675
22078 1  -36.084343  45.815616  1.675
22079 1  -36.097356  47.235557  1.675
22080 1  -34.874158  47.956796  1.675
22081 1  -37.307541  45.094377  1.675
22082 1  -38.543752  45.793078  1.675
22083 1  -38.556765  47.213018  1.675
22084 1  -37.333566  47.934257  1.675
22085 1  -39.766950  45.071838  1.675
22086 1  -41.003161  45.770539  1.675
22087 1  -41.016173  47.190479  1.675
22088 1  -39.792975  47.911719  1.675
22089 1  -42.226359  45.049299  1.675
22090 1  -43.462570  45.748000  1.675
22091 1  -43.475582  47.167940  1.675
22092 1  -42.252384  47.889180  1.675
22093 1  -44.685768  45.026761  1.675
22094 1  -45.921978  45.725461  1.675
22095 1  -45.934991  47.145402  1.675
22096 1  -44.711793  47.866641  1.675
22097 1  -47.145176  45.004222  1.675
22098 1  -48.381387  45.702923  1.675
22099 1  -48.394400  47.122863  1.675
22100 1  -47.171202  47.844103  1.675
22101 1  -49.604585  44.981683  1.675
22102 1  -50.840796  45.680384  1.675
22103 1  -50.853809  47.100324  1.675
22104 1  -49.630611  47.821564  1.675
22105 1  -52.063994  44.959144  1.675
22106 1  -53.300205  45.657845  1.675
22107 1  -53.313218  47.077786  1.675
22108 1  -52.090020  47.799025  1.675
22109 1  -54.523403  44.936606  1.675
22110 1  -55.759614  45.635306  1.675
22111 1  -55.772627  47.055247  1.675
22112 1  -54.549429  47.776486  1.675
22113 1  -56.982812  44.914067  1.675
22114 1  -58.219023  45.612768  1.675
22115 1  -58.232035  47.032708  1.675
22116 1  -57.008837  47.753948  1.675
22117 1  -59.442221  44.891528  1.675
22118 1  -60.678432  45.590229  1.675
22119 1  -60.691444  47.010169  1.675
22120 1  -59.468246  47.731409  1.675
22121 1  -61.901630  44.868989  1.675
22122 1  -63.137840  45.567690  1.675
22123 1  -63.150853  46.987631  1.675
22124 1  -61.927655  47.708870  1.675
22125 1  -64.361039  44.846451  1.675
22126 1  -65.597249  45.545151  1.675
22127 1  -65.610262  46.965092  1.675
22128 1  -64.387064  47.686331  1.675
22129 1  -66.820447  44.823912  1.675
22130 1  -68.056658  45.522613  1.675
22131 1  -68.069671  46.942553  1.675
22132 1  -66.846473  47.663793  1.675
22133 1  -69.279856  44.801373  1.675
22134 1  -70.516067  45.500074  1.675
22135 1  -70.529080  46.920014  1.675
22136 1  -69.305882  47.641254  1.675
22137 1  -71.739265  44.778834  1.675
22138 1  -72.975476  45.477535  1.675
22139 1  -72.988489  46.897476  1.675
22140 1  -71.765291  47.618715  1.675
22141 1  -74.198674  44.756296  1.675
22142 1  -75.434885  45.454997  1.675
22143 1  -75.447898  46.874937  1.675
22144 1  -74.224700  47.596176  1.675
22145 1  -76.658083  44.733757  1.675
22146 1  -77.894294  45.432458  1.675
22147 1  -77.907306  46.852398  1.675
22148 1  -76.684108  47.573638  1.675
22149 1  -79.117492  44.711218  1.675
22150 1  -80.353703  45.409919  1.675
22151 1  -80.366715  46.829859  1.675
22152 1  -79.143517  47.551099  1.675
22153 1  -81.576901  44.688679  1.675
22154 1  -82.813111  45.387380  1.675
22155 1  -82.826124  46.807321  1.675
22156 1  -81.602926  47.528560  1.675
22157 1  -84.036310  44.666141  1.675
22158 1  -85.272520  45.364842  1.675
22159 1  -85.285533  46.784782  1.675
22160 1  -84.062335  47.506022  1.675
22161 1  -86.495718  44.643602  1.675
22162 1  -87.731929  45.342303  1.675
22163 1  -87.744942  46.762243  1.675
22164 1  -86.521744  47.483483  1.675
22165 1  -88.955127  44.621063  1.675
22166 1  -90.191338  45.319764  1.675
22167 1  -90.204351  46.739704  1.675
22168 1  -88.981153  47.460944  1.675
22169 1  -91.414536  44.598525  1.675
22170 1  -92.650747  45.297225  1.675
22171 1  -92.663760  46.717166  1.675
22172 1  -91.440562  47.438405  1.675
22173 1  -93.873945  44.575986  1.675
22174 1  -95.110156  45.274687  1.675
22175 1  -95.123169  46.694627  1.675
22176 1  -93.899971  47.415867  1.675
22177 1  -96.333354  44.553447  1.675
22178 1  -97.569565  45.252148  1.675
22179 1  -97.582577  46.672088  1.675
22180 1  -96.359379  47.393328  1.675
22181 1  -98.792763  44.530908  1.675
22182 1 -100.028974  45.229609  1.675
22183 1 -100.041986  46.649550  1.675
22184 1  -98.818788  47.370789  1.675
22185 1 -101.252172  44.508370  1.675
22186 1 -102.488382  45.207070  1.675
22187 1 -102.501395  46.627011  1.675
22188 1 -101.278197  47.348250  1.675
22189 1 -103.711581  44.485831  1.675
22190 1 -104.947791  45.184532  1.675
22191 1 -104.960804  46.604472  1.675
22192 1 -103.737606  47.325712  1.675
22193 1 -106.170989  44.463292  1.675
22194 1 -107.407200  45.161993  1.675
22195 1 -107.420213  46.581933  1.675
22196 1 -106.197015  47.303173  1.675
22197 1 -108.630398  44.440753  1.675
22198 1 -109.866609  45.139454  1.675
22199 1 -109.879622  46.559395  1.675
22200 1 -108.656424  47.280634  1.675
22201 1 -111.089807  44.418215  1.675
22202 1 -112.326018  45.116915  1.675
22203 1 -112.339031  46.536856  1.675
22204 1 -111.115833  47.258095  1.675
22205 1 -113.549216  44.395676  1.675
22206 1 -114.785427  45.094377  1.675
22207 1 -114.798440  46.514317  1.675
22208 1 -113.575242  47.235557  1.675
22209 1 -116.008625  44.373137  1.675
22210 1 -116.034650  47.213018  1.675
22211 1  115.136771  50.751600  1.675
22212 1  113.900560  51.450300  1.675
22213 1  113.887547  52.870241  1.675
22214 1  115.110745  53.591480  1.675
22215 1  112.677362  50.729061  1.675
22216 1  111.441151  51.427762  1.675
22217 1  111.428139  52.847702  1.675
22218 1  112.651337  53.568942  1.675
22219 1  110.217953  50.706522  1.675
22220 1  108.981742  51.405223  1.675
22221 1  108.968730  52.825163  1.675
22222 1  110.191928  53.546403  1.675
22223 1  107.758544  50.683983  1.675
22224 1  106.522334  51.382684  1.675
22225 1  106.509321  52.802624  1.675
22226 1  107.732519  53.523864  1.675
22227 1  105.299135  50.661445  1.675
22228 1  104.062925  51.360145  1.675
22229 1  104.049912  52.780086  1.675
22230 1  105.273110  53.501325  1.675
22231 1  102.839727  50.638906  1.675
22232 1  101.603516  51.337607  1.675
22233 1  101.590503  52.757547  1.675
22234 1  102.813701  53.478787  1.675
22235 1  100.380318  50.616367  1.675
22236 1   99.144107  51.315068  1.675
22237 1   99.131094  52.735008  1.675
22238 1  100.354292  53.456248  1.675
22239 1   97.920909  50.593828  1.675
22240 1   96.684698  51.292529  1.675
22241 1   96.671685  52.712470  1.675
22242 1   97.894883  53.433709  1.675
22243 1   95.461500  50.571290  1.675
22244 1   94.225289  51.269990  1.675
22245 1   94.212276  52.689931  1.675
22246 1   95.435474  53.411170  1.675
22247 1   93.002091  50.548751  1.675
22248 1   91.765880  51.247452  1.675
22249 1   91.752868  52.667392  1.675
22250 1   92.976066  53.388632  1.675
22251 1   90.542682  50.526212  1.675
22252 1   89.306471  51.224913  1.675
22253 1   89.293459  52.644853  1.675
22254 1   90.516657  53.366093  1.675
22255 1   88.083273  50.503673  1.675
22256 1   86.847063  51.202374  1.675
22257 1   86.834050  52.622315  1.675
22258 1   88.057248  53.343554  1.675
22259 1   85.623864  50.481135  1.675
22260 1   84.387654  51.179835  1.675
22261 1   84.374641  52.599776  1.675
22262 1   85.597839  53.321015  1.675
22263 1   83.164456  50.458596  1.675
22264 1   81.928245  51.157297  1.675
22265 1   81.915232  52.577237  1.675
22266 1   83.138430  53.298477  1.675
22267 1   80.705047  50.436057  1.675
22268 1   79.468836  51.134758  1.675
22269 1   79.455823  52.554698  1.675
22270 1   80.679021  53.275938  1.675
22271 1   78.245638  50.413518  1.675
22272 1   77.009427  51.112219  1.675
22273 1   76.996414  52.532160  1.675
22274 1   78.219612  53.253399  1.675
22275 1   75.786229  50.390980  1.675
22276 1   74.550018  51.089681  1.675
22277 1   74.537005  52.509621  1.675
22278 1   75.760203  53.230860  1.675
22279 1   73.326820  50.368441  1.675
22280 1   72.090609  51.067142  1.675
22281 1   72.077597  52.487082  1.675
22282 1   73.300795  53.208322  1.675
22283 1   70.867411  50.345902  1.675
22284 1   69.631200  51.044603  1.675
22285 1   69.618188  52.464543  1.675
22286 1   70.841386  53.185783  1.675
22287 1   68.408002  50.323364  1.675
22288 1   67.171792  51.022064  1.675
22289 1   67.158779  52.442005  1.675
22290 1   68.381977  53.163244  1.675
22291 1   65.948593  50.300825  1.675
22292 1   64.712383  50.999526  1.675
22293 1   64.699370  52.419466  1.675
22294 1   65.922568  53.140706  1.675
22295 1   63.489185  50.278286  1.675
22296 1   62.252974  50.976987  1.675
22297 1   62.239961  52.396927  1.675
22298 1   63.463159  53.118167  1.675
22299 1   61.029776  50.255747  1.675
22300 1   59.793565  50.954448  1.675
22301 1   59.780552  52.374389  1.675
22302 1   61.003750  53.095628  1.675
22303 1   58.570367  50.233209  1.675
22304 1   57.334156  50.931909  1.675
22305 1   57.321143  52.351850  1.675
22306 1   58.544341  53.073089  1.675
22307 1   56.110958  50.210670  1.675
22308 1   54.874747  50.909371  1.675
22309 1   54.861734  52.329311  1.675
22310 1   56.084933  53.050551  1.675
22311 1   53.651549  50.188131  1.675
22312 1   52.415338  50.886832  1.675
22313 1   52.402326  52.306772  1.675
22314 1   53.625524  53.028012  1.675
22315 1   51.192140  50.165592  1.675
22316 1   49.955929  50.864293  1.675
22317 1   49.942917  52.284234  1.675
22318 1   51.166115  53.005473  1.675
22319 1   48.732731  50.143054  1.675
22320 1   47.496521  50.841754  1.675
22321 1   47.483508  52.261695  1.675
22322 1   48.706706  52.982934  1.675
22323 1   46.273323  50.120515  1.675
22324 1   45.037112  50.819216  1.675
22325 1   45.024099  52.239156  1.675
22326 1   46.247297  52.960396  1.675
22327 1   43.813914  50.097976  1.675
22328 1   42.577703  50.796677  1.675
22329 1   42.564690  52.216617  1.675
22330 1   43.787888  52.937857  1.675
22331 1   41.354505  50.075437  1.675
22332 1   40.118294  50.774138  1.675
22333 1   40.105281  52.194079  1.675
22334 1   41.328479  52.915318  1.675
22335 1   38.895096  50.052899  1.675
22336 1   37.658885  50.751600  1.675
22337 1   37.645872  52.171540  1.675
22338 1   38.869070  52.892779  1.675
22339 1   36.435687  50.030360  1.675
22340 1   35.199476  50.729061  1.675
22341 1   35.186463  52.149001  1.675
22342 1   36.409662  52.870241  1.675
22343 1   33.976278  50.007821  1.675
22344 1   32.740067  50.706522  1.675
22345 1   32.727055  52.126462  1.675
22346 1   33.950253  52.847702  1.675
22347 1   31.516869  49.985282  1.675
22348 1   30.280658  50.683983  1.675
22349 1   30.267646  52.103924  1.675
22350 1   31.490844  52.825163  1.675
22351 1   29.057460  49.962744  1.675
22352 1   27.821250  50.661445  1.675
22353 1   27.808237  52.081385  1.675
22354 1   29.031435  52.802624  1.675
22355 1   26.598052  49.940205  1.675
22356 1   25.361841  50.638906  1.675
22357 1   25.348828  52.058846  1.675
22358 1   26.572026  52.780086  1.675
22359 1   24.138643  49.917666  1.675
22360 1   22.902432  50.616367  1.675
22361 1   22.889419  52.036307  1.675
22362 1   24.112617  52.757547  1.675
22363 1   21.679234  49.895128  1.675
22364 1   20.443023  50.593828  1.675
22365 1   20.430010  52.013769  1.675
22366 1   21.653208  52.735008  1.675
22367 1   19.219825  49.872589  1.675
22368 1   17.983614  50.571290  1.675
22369 1   17.970601  51.991230  1.675
22370 1   19.193799  52.712470  1.675
22371 1   16.760416  49.850050  1.675
22372 1   15.524205  50.548751  1.675
22373 1   15.511192  51.968691  1.675
22374 1   16.734391  52.689931  1.675
22375 1   14.301007  49.827511  1.675
22376 1   13.064796  50.526212  1.675
22377 1   13.051784  51.946153  1.675
22378 1   14.274982  52.667392  1.675
22379 1   11.841598  49.804973  1.675
22380 1   10.605387  50.503673  1.675
22381 1   10.592375  51.923614  1.675
22382 1   11.815573  52.644853  1.675
22383 1    9.382189  49.782434  1.675
22384 1    8.145979  50.481135  1.675
22385 1    8.132966  51.901075  1.675
22386 1    9.356164  52.622315  1.675
22387 1    6.922781  49.759895  1.675
22388 1    5.686570  50.458596  1.675
22389 1    5.673557  51.878536  1.675
22390 1    6.896755  52.599776  1.675
22391 1    4.463372  49.737356  1.675
22392 1    3.227161  50.436057  1.675
22393 1    3.214148  51.855998  1.675
22394 1    4.437346  52.577237  1.675
22395 1    2.003963  49.714818  1.675
22396 1    0.767752  50.413518  1.675
22397 1    0.754739  51.833459  1.675
22398 1    1.977937  52.554698  1.675
22399 1   -0.455446  49.692279  1.675
22400 1   -1.691657  50.390980  1.675
22401 1   -1.704670  51.810920  1.675
22402 1   -0.481472  52.532160  1.675
22403 1   -2.914855  49.669740  1.675
22404 1   -4.151066  50.368441  1.675
22405 1   -4.164079  51.788381  1.675
22406 1   -2.940880  52.509621  1.675
22407 1   -5.374264  49.647201  1.675
22408 1   -6.610475  50.345902  1.675
22409 1   -6.623487  51.765843  1.675
22410 1   -5.400289  52.487082  1.675
22411 1   -7.833673  49.624663  1.675
22412 1   -9.069884  50.323364  1.675
22413 1   -9.082896  51.743304  1.675
22414 1   -7.859698  52.464543  1.675
22415 1  -10.293082  49.602124  1.675
22416 1  -11.529292  50.300825  1.675
22417 1  -11.542305  51.720765  1.675
22418 1  -10.319107  52.442005  1.675
22419 1  -12.752490  49.579585  1.675
22420 1  -13.988701  50.278286  1.675
22421 1  -14.001714  51.698226  1.675
22422 1  -12.778516  52.419466  1.675
22423 1  -15.211899  49.557046  1.675
22424 1  -16.448110  50.255747  1.675
22425 1  -16.461123  51.675688  1.675
22426 1  -15.237925  52.396927  1.675
22427 1  -17.671308  49.534508  1.675
22428 1  -18.907519  50.233209  1.675
22429 1  -18.920532  51.653149  1.675
22430 1  -17.697334  52.374389  1.675
22431 1  -20.130717  49.511969  1.675
22432 1  -21.366928  50.210670  1.675
22433 1  -21.379941  51.630610  1.675
22434 1  -20.156743  52.351850  1.675
22435 1  -22.590126  49.489430  1.675
22436 1  -23.826337  50.188131  1.675
22437 1  -23.839350  51.608071  1.675
22438 1  -22.616151  52.329311  1.675
22439 1  -25.049535  49.466892  1.675
22440 1  -26.285746  50.165592  1.675
22441 1  -26.298758  51.585533  1.675
22442 1  -25.075560  52.306772  1.675
22443 1  -27.508944  49.444353  1.675
22444 1  -28.745155  50.143054  1.675
22445 1  -28.758167  51.562994  1.675
22446 1  -27.534969  52.284234  1.675
22447 1  -29.968353  49.421814  1.675
22448 1  -31.204563  50.120515  1.675
22449 1  -31.217576  51.540455  1.675
22450 1  -29.994378  52.261695  1.675
22451 1  -32.427761  49.399275  1.675
22452 1  -33.663972  50.097976  1.675
22453 1  -33.676985  51.517917  1.675
22454 1  -32.453787  52.239156  1.675
22455 1  -34.887170  49.376737  1.675
22456 1  -36.123381  50.075437  1.675
22457 1  -36.136394  51.495378  1.675
22458 1  -34.913196  52.216617  1.675
22459 1  -37.346579  49.354198  1.675
22460 1  -38.582790  50.052899  1.675
22461 1  -38.595803  51.472839  1.675
22462 1  -37.372605  52.194079  1.675
22463 1  -39.805988  49.331659  1.675
22464 1  -41.042199  50.030360  1.675
22465 1  -41.055212  51.450300  1.675
22466 1  -39.832014  52.171540  1.675
22467 1  -42.265397  49.309120  1.675
22468 1  -43.501608  50.007821  1.675
22469 1  -43.514620  51.427762  1.675
22470 1  -42.291422  52.149001  1.675
22471 1  -44.724806  49.286582  1.675
22472 1  -45.961017  49.985282  1.675
22473 1  -45.974029  51.405223  1.675
22474 1  -44.750831  52.126462  1.675
22475 1  -47.184215  49.264043  1.675
22476 1  -48.420425  49.962744  1.675
22477 1  -48.433438  51.382684  1.675
22478 1  -47.210240  52.103924  1.675
22479 1  -49.643624  49.241504  1.675
22480 1  -50.879834  49.940205  1.675
22481 1  -50.892847  51.360145  1.675
22482 1  -49.669649  52.081385  1.675
22483 1  -52.103032  49.218965  1.675
22484 1  -53.339243  49.917666  1.675
22485 1  -53.352256  51.337607  1.675
22486 1  -52.129058  52.058846  1.675
22487 1  -54.562441  49.196427  1.675
22488 1  -55.798652  49.895128  1.675
22489 1  -55.811665  51.315068  1.675
22490 1  -54.588467  52.036307  1.675
22491 1  -57.021850  49.173888  1.675
22492 1  -58.258061  49.872589  1.675
22493 1  -58.271074  51.292529  1.675
22494 1  -57.047876  52.013769  1.675
22495 1  -59.481259  49.151349  1.675
22496 1  -60.717470  49.850050  1.675
22497 1  -60.730483  51.269990  1.675
22498 1  -59.507285  51.991230  1.675
22499 1  -61.940668  49.128811  1.675
22500 1  -63.176879  49.827511  1.675
22501 1  -63.189891  51.247452  1.675
22502 1  -61.966693  51.968691  1.675
22503 1  -64.400077  49.106272  1.675
22504 1  -65.636288  49.804973  1.675
22505 1  -65.649300  51.224913  1.675
22506 1  -64.426102  51.946153  1.675
22507 1  -66.859486  49.083733  1.675
22508 1  -68.095696  49.782434  1.675
22509 1  -68.108709  51.202374  1.675
22510 1  -66.885511  51.923614  1.675
22511 1  -69.318895  49.061194  1.675
22512 1  -70.555105  49.759895  1.675
22513 1  -70.568118  51.179835  1.675
22514 1  -69.344920  51.901075  1.675
22515 1  -71.778303  49.038656  1.675
22516 1  -73.014514  49.737356  1.675
22517 1  -73.027527  51.157297  1.675
22518 1  -71.804329  51.878536  1.675
22519 1  -74.237712  49.016117  1.675
22520 1  -75.473923  49.714818  1.675
22521 1  -75.486936  51.134758  1.675
22522 1  -74.263738  51.855998  1.675
22523 1  -76.697121  48.993578  1.675
22524 1  -77.933332  49.692279  1.675
22525 1  -77.946345  51.112219  1.675
22526 1  -76.723147  51.833459  1.675
22527 1  -79.156530  48.971039  1.675
22528 1  -80.392741  49.669740  1.675
22529 1  -80.405754  51.089681  1.675
22530 1  -79.182556  51.810920  1.675
22531 1  -81.615939  48.948501  1.675
22532 1  -82.852150  49.647201  1.675
22533 1  -82.865162  51.067142  1.675
22534 1  -81.641964  51.788381  1.675
22535 1  -84.075348  48.925962  1.675
22536 1  -85.311559  49.624663  1.675
22537 1  -85.324571  51.044603  1.675
22538 1  -84.101373  51.765843  1.675
22539 1  -86.534757  48.903423  1.675
22540 1  -87.770967  49.602124  1.675
22541 1  -87.783980  51.022064  1.675
22542 1  -86.560782  51.743304  1.675
22543 1  -88.994166  48.880884  1.675
22544 1  -90.230376  49.579585  1.675
22545 1  -90.243389  50.999526  1.675
22546 1  -89.020191  51.720765  1.675
22547 1  -91.453574  48.858346  1.675
22548 1  -92.689785  49.557046  1.675
22549 1  -92.702798  50.976987  1.675
22550 1  -91.479600  51.698226  1.675
22551 1  -93.912983  48.835807  1.675
22552 1  -95.149194  49.534508  1.675
22553 1  -95.162207  50.954448  1.675
22554 1  -93.939009  51.675688  1.675
22555 1  -96.372392  48.813268  1.675
22556 1  -97.608603  49.511969  1.675
22557 1  -97.621616  50.931909  1.675
22558 1  -96.398418  51.653149  1.675
22559 1  -98.831801  48.790729  1.675
22560 1 -100.068012  49.489430  1.675
22561 1 -100.081025  50.909371  1.675
22562 1  -98.857827  51.630610  1.675
22563 1 -101.291210  48.768191  1.675
22564 1 -102.527421  49.466892  1.675
22565 1 -102.540433  50.886832  1.675
22566 1 -101.317235  51.608071  1.675
22567 1 -103.750619  48.745652  1.675
22568 1 -104.986830  49.444353  1.675
22569 1 -104.999842  50.864293  1.675
22570 1 -103.776644  51.585533  1.675
22571 1 -106.210028  48.723113  1.675
22572 1 -107.446238  49.421814  1.675
22573 1 -107.459251  50.841754  1.675
22574 1 -106.236053  51.562994  1.675
22575 1 -108.669437  48.700575  1.675
22576 1 -109.905647  49.399275  1.675
22577 1 -109.918660  50.819216  1.675
22578 1 -108.695462  51.540455  1.675
22579 1 -111.128845  48.678036  1.675
22580 1 -112.365056  49.376737  1.675
22581 1 -112.378069  50.796677  1.675
22582 1 -111.154871  51.517917  1.675
22583 1 -113.588254  48.655497  1.675
22584 1 -114.824465  49.354198  1.675
22585 1 -114.837478  50.774138  1.675
22586 1 -113.614280  51.495378  1.675
22587 1 -116.047663  48.632958  1.675
22588 1 -116.073689  51.472839  1.675
22589 1  115.097733  55.011421  1.675
22590 1  113.861522  55.710121  1.675
22591 1  113.848509  57.130062  1.675
22592 1  115.071707  57.851301  1.675
22593 1  112.638324  54.988882  1.675
22594 1  111.402113  55.687583  1.675
22595 1  111.389100  57.107523  1.675
22596 1  112.612298  57.828763  1.675
22597 1  110.178915  54.966343  1.675
22598 1  108.942704  55.665044  1.675
22599 1  108.929691  57.084984  1.675
22600 1  110.152889  57.806224  1.675
22601 1  107.719506  54.943804  1.675
22602 1  106.483295  55.642505  1.675
22603 1  106.470283  57.062446  1.675
22604 1  107.693481  57.783685  1.675
22605 1  105.260097  54.921266  1.675
22606 1  104.023886  55.619967  1.675
22607 1  104.010874  57.039907  1.675
22608 1  105.234072  57.761146  1.675
22609 1  102.800688  54.898727  1.675
22610 1  101.564478  55.597428  1.675
22611 1  101.551465  57.017368  1.675
22612 1  102.774663  57.738608  1.675
22613 1  100.341279  54.876188  1.675
22614 1   99.105069  55.574889  1.675
22615 1   99.092056  56.994829  1.675
22616 1  100.315254  57.716069  1.675
22617 1   97.881871  54.853649  1.675
22618 1   96.645660  55.552350  1.675
22619 1   96.632647  56.972291  1.675
22620 1   97.855845  57.693530  1.675
22621 1   95.422462  54.831111  1.675
22622 1   94.186251  55.529812  1.675
22623 1   94.173238  56.949752  1.675
22624 1   95.396436  57.670991  1.675
22625 1   92.963053  54.808572  1.675
22626 1   91.726842  55.507273  1.675
22627 1   91.713829  56.927213  1.675
22628 1   92.937027  57.648453  1.675
22629 1   90.503644  54.786033  1.675
22630 1   89.267433  55.484734  1.675
22631 1   89.254420  56.904674  1.675
22632 1   90.477618  57.625914  1.675
22633 1   88.044235  54.763495  1.675
22634 1   86.808024  55.462195  1.675
22635 1   86.795012  56.882136  1.675
22636 1   88.018210  57.603375  1.675
22637 1   85.584826  54.740956  1.675
22638 1   84.348615  55.439657  1.675
22639 1   84.335603  56.859597  1.675
22640 1   85.558801  57.580837  1.675
22641 1   83.125417  54.718417  1.675
22642 1   81.889207  55.417118  1.675
22643 1   81.876194  56.837058  1.675
22644 1   83.099392  57.558298  1.675
22645 1   80.666008  54.695878  1.675
22646 1   79.429798  55.394579  1.675
22647 1   79.416785  56.814520  1.675
22648 1   80.639983  57.535759  1.675
22649 1   78.206600  54.673340  1.675
22650 1   76.970389  55.372040  1.675
22651 1   76.957376  56.791981  1.675
22652 1   78.180574  57.513220  1.675
22653 1   75.747191  54.650801  1.675
22654 1   74.510980  55.349502  1.675
22655 1   74.497967  56.769442  1.675
22656 1   75.721165  57.490682  1.675
22657 1   73.287782  54.628262  1.675
22658 1   72.051571  55.326963  1.675
22659 1   72.038558  56.746903  1.675
22660 1   73.261756  57.468143  1.675
22661 1   70.828373  54.605723  1.675
22662 1   69.592162  55.304424  1.675
22663 1   69.579149  56.724365  1.675
22664 1   70.802348  57.445604  1.675
22665 1   68.368964  54.583185  1.675
22666 1   67.132753  55.281885  1.675
22667 1   67.119741  56.701826  1.675
22668 1   68.342939  57.423065  1.675
22669 1   65.909555  54.560646  1.675
22670 1   64.673344  55.259347  1.675
22671 1   64.660332  56.679287  1.675
22672 1   65.883530  57.400527  1.675
22673 1   63.450146  54.538107  1.675
22674 1   62.213936  55.236808  1.675
22675 1   62.200923  56.656748  1.675
22676 1   63.424121  57.377988  1.675
22677 1   60.990738  54.515568  1.675
22678 1   59.754527  55.214269  1.675
22679 1   59.741514  56.634210  1.675
22680 1   60.964712  57.355449  1.675
22681 1   58.531329  54.493030  1.675
22682 1   57.295118  55.191731  1.675
22683 1   57.282105  56.611671  1.675
22684 1   58.505303  57.332910  1.675
22685 1   56.071920  54.470491  1.675
22686 1   54.835709  55.169192  1.675
22687 1   54.822696  56.589132  1.675
22688 1   56.045894  57.310372  1.675
22689 1   53.612511  54.447952  1.675
22690 1   52.376300  55.146653  1.675
22691 1   52.363287  56.566593  1.675
22692 1   53.586485  57.287833  1.675
22693 1   51.153102  54.425413  1.675
22694 1   49.916891  55.124114  1.675
22695 1   49.903878  56.544055  1.675
22696 1   51.127077  57.265294  1.675
22697 1   48.693693  54.402875  1.675
22698 1   47.457482  55.101576  1.675
22699 1   47.444470  56.521516  1.675
22700 1   48.667668  57.242756  1.675
22701 1   46.234284  54.380336  1.675
22702 1   44.998073  55.079037  1.675
22703 1   44.985061  56.498977  1.675
22704 1   46.208259  57.220217  1.675
22705 1   43.774875  54.357797  1.675
22706 1   42.538665  55.056498  1.675
22707 1   42.525652  56.476438  1.675
22708 1   43.748850  57.197678  1.675
22709 1   41.315467  54.335259  1.675
22710 1   40.079256  55.033959  1.675
22711 1   40.066243  56.453900  1.675
22712 1   41.289441  57.175139  1.675
22713 1   38.856058  54.312720  1.675
22714 1   37.619847  55.011421  1.675
22715 1   37.606834  56.431361  1.675
22716 1   38.830032  57.152601  1.675
22717 1   36.396649  54.290181  1.675
22718 1   35.160438  54.988882  1.675
22719 1   35.147425  56.408822  1.675
22720 1   36.370623  57.130062  1.675
22721 1   33.937240  54.267642  1.675
22722 1   32.701029  54.966343  1.675
22723 1   32.688016  56.386284  1.675
22724 1   33.911214  57.107523  1.675
22725 1   31.477831  54.245104  1.675
22726 1   30.241620  54.943804  1.675
22727 1   30.228607  56.363745  1.675
22728 1   31.451806  57.084984  1.675
22729 1   29.018422  54.222565  1.675
22730 1   27.782211  54.921266  1.675
22731 1   27.769199  56.341206  1.675
22732 1   28.992397  57.062446  1.675
22733 1   26.559013  54.200026  1.675
22734 1   25.322802  54.898727  1.675
22735 1   25.309790  56.318667  1.675
22736 1   26.532988  57.039907  1.675
22737 1   24.099604  54.177487  1.675
22738 1   22.863394  54.876188  1.675
22739 1   22.850381  56.296129  1.675
22740 1   24.073579  57.017368  1.675
22741 1   21.640196  54.154949  1.675
22742 1   20.403985  54.853649  1.675
22743 1   20.390972  56.273590  1.675
22744 1   21.614170  56.994829  1.675
22745 1   19.180787  54.132410  1.675
22746 1   17.944576  54.831111  1.675
22747 1   17.931563  56.251051  1.675
22748 1   19.154761  56.972291  1.675
22749 1   16.721378  54.109871  1.675
22750 1   15.485167  54.808572  1.675
22751 1   15.472154  56.228512  1.675
22752 1   16.695352  56.949752  1.675
22753 1   14.261969  54.087332  1.675
22754 1   13.025758  54.786033  1.675
22755 1   13.012745  56.205974  1.675
22756 1   14.235943  56.927213  1.675
22757 1   11.802560  54.064794  1.675
22758 1   10.566349  54.763495  1.675
22759 1   10.553336  56.183435  1.675
22760 1   11.776535  56.904674  1.675
22761 1    9.343151  54.042255  1.675
22762 1    8.106940  54.740956  1.675
22763 1    8.093928  56.160896  1.675
22764 1    9.317126  56.882136  1.675
22765 1    6.883742  54.019716  1.675
22766 1    5.647531  54.718417  1.675
22767 1    5.634519  56.138357  1.675
22768 1    6.857717  56.859597  1.675
22769 1    4.424333  53.997178  1.675
22770 1    3.188123  54.695878  1.675
22771 1    3.175110  56.115819  1.675
22772 1    4.398308  56.837058  1.675
22773 1    1.964925  53.974639  1.675
22774 1    0.728714  54.673340  1.675
22775 1    0.715701  56.093280  1.675
22776 1    1.938899  56.814520  1.675
22777 1   -0.494484  53.952100  1.675
22778 1   -1.730695  54.650801  1.675
22779 1   -1.743708  56.070741  1.675
22780 1   -0.520510  56.791981  1.675
22781 1   -2.953893  53.929561  1.675
22782 1   -4.190104  54.628262  1.675
22783 1   -4.203117  56.048202  1.675
22784 1   -2.979919  56.769442  1.675
22785 1   -5.413302  53.907023  1.675
22786 1   -6.649513  54.605723  1.675
22787 1   -6.662526  56.025664  1.675
22788 1   -5.439328  56.746903  1.675
22789 1   -7.872711  53.884484  1.675
22790 1   -9.108922  54.583185  1.675
22791 1   -9.121934  56.003125  1.675
22792 1   -7.898736  56.724365  1.675
22793 1  -10.332120  53.861945  1.675
22794 1  -11.568331  54.560646  1.675
22795 1  -11.581343  55.980586  1.675
22796 1  -10.358145  56.701826  1.675
22797 1  -12.791529  53.839406  1.675
22798 1  -14.027739  54.538107  1.675
22799 1  -14.040752  55.958048  1.675
22800 1  -12.817554  56.679287  1.675
22801 1  -15.250938  53.816868  1.675
22802 1  -16.487148  54.515568  1.675
22803 1  -16.500161  55.935509  1.675
22804 1  -15.276963  56.656748  1.675
22805 1  -17.710346  53.794329  1.675
22806 1  -18.946557  54.493030  1.675
22807 1  -18.959570  55.912970  1.675
22808 1  -17.736372  56.634210  1.675
22809 1  -20.169755  53.771790  1.675
22810 1  -21.405966  54.470491  1.675
22811 1  -21.418979  55.890431  1.675
22812 1  -20.195781  56.611671  1.675
22813 1  -22.629164  53.749251  1.675
22814 1  -23.865375  54.447952  1.675
22815 1  -23.878388  55.867893  1.675
22816 1  -22.655190  56.589132  1.675
22817 1  -25.088573  53.726713  1.675
22818 1  -26.324784  54.425413  1.675
22819 1  -26.337797  55.845354  1.675
22820 1  -25.114599  56.566593  1.675
22821 1  -27.547982  53.704174  1.675
22822 1  -28.784193  54.402875  1.675
22823 1  -28.797205  55.822815  1.675
22824 1  -27.574007  56.544055  1.675
22825 1  -30.007391  53.681635  1.675
22826 1  -31.243602  54.380336  1.675
22827 1  -31.256614  55.800276  1.675
22828 1  -30.033416  56.521516  1.675
22829 1  -32.466800  53.659096  1.675
22830 1  -33.703010  54.357797  1.675
22831 1  -33.716023  55.777738  1.675
22832 1  -32.492825  56.498977  1.675
22833 1  -34.926209  53.636558  1.675
22834 1  -36.162419  54.335259  1.675
22835 1  -36.175432  55.755199  1.675
22836 1  -34.952234  56.476438  1.675
22837 1  -37.385617  53.614019  1.675
22838 1  -38.621828  54.312720  1.675
22839 1  -38.634841  55.732660  1.675
22840 1  -37.411643  56.453900  1.675
22841 1  -39.845026  53.591480  1.675
22842 1  -41.081237  54.290181  1.675
22843 1  -41.094250  55.710121  1.675
22844 1  -39.871052  56.431361  1.675
22845 1  -42.304435  53.568942  1.675
22846 1  -43.540646  54.267642  1.675
22847 1  -43.553659  55.687583  1.675
22848 1  -42.330461  56.408822  1.675
22849 1  -44.763844  53.546403  1.675
22850 1  -46.000055  54.245104  1.675
22851 1  -46.013068  55.665044  1.675
22852 1  -44.789870  56.386284  1.675
22853 1  -47.223253  53.523864  1.675
22854 1  -48.459464  54.222565  1.675
22855 1  -48.472476  55.642505  1.675
22856 1  -47.249278  56.363745  1.675
22857 1  -49.682662  53.501325  1.675
22858 1  -50.918873  54.200026  1.675
22859 1  -50.931885  55.619967  1.675
22860 1  -49.708687  56.341206  1.675
22861 1  -52.142071  53.478787  1.675
22862 1  -53.378281  54.177487  1.675
22863 1  -53.391294  55.597428  1.675
22864 1  -52.168096  56.318667  1.675
22865 1  -54.601480  53.456248  1.675
22866 1  -55.837690  54.154949  1.675
22867 1  -55.850703  55.574889  1.675
22868 1  -54.627505  56.296129  1.675
22869 1  -57.060888  53.433709  1.675
22870 1  -58.297099  54.132410  1.675
22871 1  -58.310112  55.552350  1.675
22872 1  -57.086914  56.273590  1.675
22873 1  -59.520297  53.411170  1.675
22874 1  -60.756508  54.109871  1.675
22875 1  -60.769521  55.529812  1.675
22876 1  -59.546323  56.251051  1.675
22877 1  -61.979706  53.388632  1.675
22878 1  -63.215917  54.087332  1.675
22879 1  -63.228930  55.507273  1.675
22880 1  -62.005732  56.228512  1.675
22881 1  -64.439115  53.366093  1.675
22882 1  -65.675326  54.064794  1.675
22883 1  -65.688339  55.484734  1.675
22884 1  -64.465141  56.205974  1.675
22885 1  -66.898524  53.343554  1.675
22886 1  -68.134735  54.042255  1.675
22887 1  -68.147747  55.462195  1.675
22888 1  -66.924549  56.183435  1.675
22889 1  -69.357933  53.321015  1.675
22890 1  -70.594144  54.019716  1.675
22891 1  -70.607156  55.439657  1.675
22892 1  -69.383958  56.160896  1.675
22893 1  -71.817342  53.298477  1.675
22894 1  -73.053552  53.997178  1.675
22895 1  -73.066565  55.417118  1.675
22896 1  -71.843367  56.138357  1.675
22897 1  -74.276751  53.275938  1.675
22898 1  -75.512961  53.974639  1.675
22899 1  -75.525974  55.394579  1.675
22900 1  -74.302776  56.115819  1.675
22901 1  -76.736159  53.253399  1.675
22902 1  -77.972370  53.952100  1.675
22903 1  -77.985383  55.372040  1.675
22904 1  -76.762185  56.093280  1.675
22905 1  -79.195568  53.230860  1.675
22906 1  -80.431779  53.929561  1.675
22907 1  -80.444792  55.349502  1.675
22908 1  -79.221594  56.070741  1.675
22909 1  -81.654977  53.208322  1.675
22910 1  -82.891188  53.907023  1.675
22911 1  -82.904201  55.326963  1.675
22912 1  -81.681003  56.048202  1.675
22913 1  -84.114386  53.185783  1.675
22914 1  -85.350597  53.884484  1.675
22915 1  -85.363610  55.304424  1.675
22916 1  -84.140412  56.025664  1.675
22917 1  -86.573795  53.163244  1.675
22918 1  -87.810006  53.861945  1.675
22919 1  -87.823018  55.281885  1.675
22920 1  -86.599820  56.003125  1.675
22921 1  -89.033204  53.140706  1.675
22922 1  -90.269415  53.839406  1.675
22923 1  -90.282427  55.259347  1.675
22924 1  -89.059229  55.980586  1.675
22925 1  -91.492613  53.118167  1.675
22926 1  -92.728823  53.816868  1.675
22927 1  -92.741836  55.236808  1.675
22928 1  -91.518638  55.958048  1.675
22929 1  -93.952022  53.095628  1.675
22930 1  -95.188232  53.794329  1.675
22931 1  -95.201245  55.214269  1.675
22932 1  -93.978047  55.935509  1.675
22933 1  -96.411430  53.073089  1.675
22934 1  -97.647641  53.771790  1.675
22935 1  -97.660654  55.191731  1.675
22936 1  -96.437456  55.912970  1.675
22937 1  -98.870839  53.050551  1.675
22938 1 -100.107050  53.749251  1.675
22939 1 -100.120063  55.169192  1.675
22940 1  -98.896865  55.890431  1.675
22941 1 -101.330248  53.028012  1.675
22942 1 -102.566459  53.726713  1.675
22943 1 -102.579472  55.146653  1.675
22944 1 -101.356274  55.867893  1.675
22945 1 -103.789657  53.005473  1.675
22946 1 -105.025868  53.704174  1.675
22947 1 -105.038881  55.124114  1.675
22948 1 -103.815682  55.845354  1.675
22949 1 -106.249066  52.982934  1.675
22950 1 -107.485277  53.681635  1.675
22951 1 -107.498289  55.101576  1.675
22952 1 -106.275091  55.822815  1.675
22953 1 -108.708475  52.960396  1.675
22954 1 -109.944686  53.659096  1.675
22955 1 -109.957698  55.079037  1.675
22956 1 -108.734500  55.800276  1.675
22957 1 -111.167884  52.937857  1.675
22958 1 -112.404094  53.636558  1.675
22959 1 -112.417107  55.056498  1.675
22960 1 -111.193909  55.777738  1.675
22961 1 -113.627292  52.915318  1.675
22962 1 -114.863503  53.614019  1.675
22963 1 -114.876516  55.033959  1.675
22964 1 -113.653318  55.755199  1.675
22965 1 -116.086701  52.892779  1.675
22966 1 -116.112727  55.732660  1.675
22967 1  115.058694  59.271242  1.675
22968 1  113.822484  59.969943  1.675
22969 1  113.809471  61.389883  1.675
22970 1  115.032669  62.111123  1.675
22971 1  112.599286  59.248703  1.675
22972 1  111.363075  59.947404  1.675
22973 1  111.350062  61.367344  1.675
22974 1  112.573260  62.088584  1.675
22975 1  110.139877  59.226164  1.675
22976 1  108.903666  59.924865  1.675
22977 1  108.890653  61.344805  1.675
22978 1  110.113851  62.066045  1.675
22979 1  107.680468  59.203626  1.675
22980 1  106.444257  59.902326  1.675
22981 1  106.431244  61.322267  1.675
22982 1  107.654442  62.043506  1.675
22983 1  105.221059  59.181087  1.675
22984 1  103.984848  59.879788  1.675
22985 1  103.971835  61.299728  1.675
22986 1  105.195033  62.020968  1.675
22987 1  102.761650  59.158548  1.675
22988 1  101.525439  59.857249  1.675
22989 1  101.512427  61.277189  1.675
22990 1  102.735625  61.998429  1.675
22991 1  100.302241  59.136009  1.675
22992 1   99.066030  59.834710  1.675
22993 1   99.053018  61.254651  1.675
22994 1  100.276216  61.975890  1.675
22995 1   97.842832  59.113471  1.675
22996 1   96.606622  59.812171  1.675
22997 1   96.593609  61.232112  1.675
22998 1   97.816807  61.953351  1.675
22999 1   95.383423  59.090932  1.675
23000 1   94.147213  59.789633  1.675
23001 1   94.134200  61.209573  1.675
23002 1   95.357398  61.930813  1.675
23003 1   92.924015  59.068393  1.675
23004 1   91.687804  59.767094  1.675
23005 1   91.674791  61.187034  1.675
23006 1   92.897989  61.908274  1.675
23007 1   90.464606  59.045854  1.675
23008 1   89.228395  59.744555  1.675
23009 1   89.215382  61.164496  1.675
23010 1   90.438580  61.885735  1.675
23011 1   88.005197  59.023316  1.675
23012 1   86.768986  59.722016  1.675
23013 1   86.755973  61.141957  1.675
23014 1   87.979171  61.863196  1.675
23015 1   85.545788  59.000777  1.675
23016 1   84.309577  59.699478  1.675
23017 1   84.296564  61.119418  1.675
23018 1   85.519763  61.840658  1.675
23019 1   83.086379  58.978238  1.675
23020 1   81.850168  59.676939  1.675
23021 1   81.837156  61.096879  1.675
23022 1   83.060354  61.818119  1.675
23023 1   80.626970  58.955699  1.675
23024 1   79.390759  59.654400  1.675
23025 1   79.377747  61.074341  1.675
23026 1   80.600945  61.795580  1.675
23027 1   78.167561  58.933161  1.675
23028 1   76.931351  59.631862  1.675
23029 1   76.918338  61.051802  1.675
23030 1   78.141536  61.773041  1.675
23031 1   75.708153  58.910622  1.675
23032 1   74.471942  59.609323  1.675
23033 1   74.458929  61.029263  1.675
23034 1   75.682127  61.750503  1.675
23035 1   73.248744  58.888083  1.675
23036 1   72.012533  59.586784  1.675
23037 1   71.999520  61.006724  1.675
23038 1   73.222718  61.727964  1.675
23039 1   70.789335  58.865545  1.675
23040 1   69.553124  59.564245  1.675
23041 1   69.540111  60.984186  1.675
23042 1   70.763309  61.705425  1.675
23043 1   68.329926  58.843006  1.675
23044 1   67.093715  59.541707  1.675
23045 1   67.080702  60.961647  1.675
23046 1   68.303900  61.682887  1.675
23047 1   65.870517  58.820467  1.675
23048 1   64.634306  59.519168  1.675
23049 1   64.621293  60.939108  1.675
23050 1   65.844492  61.660348  1.675
23051 1   63.411108  58.797928  1.675
23052 1   62.174897  59.496629  1.675
23053 1   62.161885  60.916569  1.675
23054 1   63.385083  61.637809  1.675
23055 1   60.951699  58.775390  1.675
23056 1   59.715488  59.474090  1.675
23057 1   59.702476  60.894031  1.675
23058 1   60.925674  61.615270  1.675
23059 1   58.492290  58.752851  1.675
23060 1   57.256080  59.451552  1.675
23061 1   57.243067  60.871492  1.675
23062 1   58.466265  61.592732  1.675
23063 1   56.032882  58.730312  1.675
23064 1   54.796671  59.429013  1.675
23065 1   54.783658  60.848953  1.675
23066 1   56.006856  61.570193  1.675
23067 1   53.573473  58.707773  1.675
23068 1   52.337262  59.406474  1.675
23069 1   52.324249  60.826415  1.675
23070 1   53.547447  61.547654  1.675
23071 1   51.114064  58.685235  1.675
23072 1   49.877853  59.383935  1.675
23073 1   49.864840  60.803876  1.675
23074 1   51.088038  61.525115  1.675
23075 1   48.654655  58.662696  1.675
23076 1   47.418444  59.361397  1.675
23077 1   47.405431  60.781337  1.675
23078 1   48.628629  61.502577  1.675
23079 1   46.195246  58.640157  1.675
23080 1   44.959035  59.338858  1.675
23081 1   44.946022  60.758798  1.675
23082 1   46.169221  61.480038  1.675
23083 1   43.735837  58.617618  1.675
23084 1   42.499626  59.316319  1.675
23085 1   42.486614  60.736260  1.675
23086 1   43.709812  61.457499  1.675
23087 1   41.276428  58.595080  1.675
23088 1   40.040217  59.293780  1.675
23089 1   40.027205  60.713721  1.675
23090 1   41.250403  61.434960  1.675
23091 1   38.817019  58.572541  1.675
23092 1   37.580809  59.271242  1.675
23093 1   37.567796  60.691182  1.675
23094 1   38.790994  61.412422  1.675
23095 1   36.357611  58.550002  1.675
23096 1   35.121400  59.248703  1.675
23097 1   35.108387  60.668643  1.675
23098 1   36.331585  61.389883  1.675
23099 1   33.898202  58.527463  1.675
23100 1   32.661991  59.226164  1.675
23101 1   32.648978  60.646105  1.675
23102 1   33.872176  61.367344  1.675
23103 1   31.438793  58.504925  1.675
23104 1   30.202582  59.203626  1.675
23105 1   30.189569  60.623566  1.675
23106 1   31.412767  61.344805  1.675
23107 1   28.979384  58.482386  1.675
23108 1   27.743173  59.181087  1.675
23109 1   27.730160  60.601027  1.675
23110 1   28.953358  61.322267  1.675
23111 1   26.519975  58.459847  1.675
23112 1   25.283764  59.158548  1.675
23113 1   25.270751  60.578488  1.675
23114 1   26.493950  61.299728  1.675
23115 1   24.060566  58.437309  1.675
23116 1   22.824355  59.136009  1.675
23117 1   22.811343  60.555950  1.675
23118 1   24.034541  61.277189  1.675
23119 1   21.601157  58.414770  1.675
23120 1   20.364946  59.113471  1.675
23121 1   20.351934  60.533411  1.675
23122 1   21.575132  61.254651  1.675
23123 1   19.141748  58.392231  1.675
23124 1   17.905538  59.090932  1.675
23125 1   17.892525  60.510872  1.675
23126 1   19.115723  61.232112  1.675
23127 1   16.682340  58.369692  1.675
23128 1   15.446129  59.068393  1.675
23129 1   15.433116  60.488334  1.675
23130 1   16.656314  61.209573  1.675
23131 1   14.222931  58.347154  1.675
23132 1   12.986720  59.045854  1.675
23133 1   12.973707  60.465795  1.675
23134 1   14.196905  61.187034  1.675
23135 1   11.763522  58.324615  1.675
23136 1   10.527311  59.023316  1.675
23137 1   10.514298  60.443256  1.675
23138 1   11.737496  61.164496  1.675
23139 1    9.304113  58.302076  1.675
23140 1    8.067902  59.000777  1.675
23141 1    8.054889  60.420717  1.675
23142 1    9.278087  61.141957  1.675
23143 1    6.844704  58.279537  1.675
23144 1    5.608493  58.978238  1.675
23145 1    5.595481  60.398179  1.675
23146 1    6.818679  61.119418  1.675
23147 1    4.385295  58.256999  1.675
23148 1    3.149084  58.955699  1.675
23149 1    3.136072  60.375640  1.675
23150 1    4.359270  61.096879  1.675
23151 1    1.925886  58.234460  1.675
23152 1    0.689676  58.933161  1.675
23153 1    0.676663  60.353101  1.675
23154 1    1.899861  61.074341  1.675
23155 1   -0.533523  58.211921  1.675
23156 1   -1.769733  58.910622  1.675
23157 1   -1.782746  60.330562  1.675
23158 1   -0.559548  61.051802  1.675
23159 1   -2.992931  58.189382  1.675
23160 1   -4.229142  58.888083  1.675
23161 1   -4.242155  60.308024  1.675
23162 1   -3.018957  61.029263  1.675
23163 1   -5.452340  58.166844  1.675
23164 1   -6.688551  58.865545  1.675
23165 1   -6.701564  60.285485  1.675
23166 1   -5.478366  61.006724  1.675
23167 1   -7.911749  58.144305  1.675
23168 1   -9.147960  58.843006  1.675
23169 1   -9.160973  60.262946  1.675
23170 1   -7.937775  60.984186  1.675
23171 1  -10.371158  58.121766  1.675
23172 1  -11.607369  58.820467  1.675
23173 1  -11.620382  60.240407  1.675
23174 1  -10.397184  60.961647  1.675
23175 1  -12.830567  58.099227  1.675
23176 1  -14.066778  58.797928  1.675
23177 1  -14.079790  60.217869  1.675
23178 1  -12.856592  60.939108  1.675
23179 1  -15.289976  58.076689  1.675
23180 1  -16.526187  58.775390  1.675
23181 1  -16.539199  60.195330  1.675
23182 1  -15.316001  60.916569  1.675
23183 1  -17.749385  58.054150  1.675
23184 1  -18.985595  58.752851  1.675
23185 1  -18.998608  60.172791  1.675
23186 1  -17.775410  60.894031  1.675
23187 1  -20.208794  58.031611  1.675
23188 1  -21.445004  58.730312  1.675
23189 1  -21.458017  60.150252  1.675
23190 1  -20.234819  60.871492  1.675
23191 1  -22.668202  58.009073  1.675
23192 1  -23.904413  58.707773  1.675
23193 1  -23.917426  60.127714  1.675
23194 1  -22.694228  60.848953  1.675
23195 1  -25.127611  57.986534  1.675
23196 1  -26.363822  58.685235  1.675
23197 1  -26.376835  60.105175  1.675
23198 1  -25.153637  60.826415  1.675
23199 1  -27.587020  57.963995  1.675
23200 1  -28.823231  58.662696  1.675
23201 1  -28.836244  60.082636  1.675
23202 1  -27.613046  60.803876  1.675
23203 1  -30.046429  57.941456  1.675
23204 1  -31.282640  58.640157  1.675
23205 1  -31.295653  60.060098  1.675
23206 1  -30.072455  60.781337  1.675
23207 1  -32.505838  57.918918  1.675
23208 1  -33.742049  58.617618  1.675
23209 1  -33.755061  60.037559  1.675
23210 1  -32.531863  60.758798  1.675
23211 1  -34.965247  57.896379  1.675
23212 1  -36.201458  58.595080  1.675
23213 1  -36.214470  60.015020  1.675
23214 1  -34.991272  60.736260  1.675
23215 1  -37.424656  57.873840  1.675
23216 1  -38.660866  58.572541  1.675
23217 1  -38.673879  59.992481  1.675
23218 1  -37.450681  60.713721  1.675
23219 1  -39.884065  57.851301  1.675
23220 1  -41.120275  58.550002  1.675
23221 1  -41.133288  59.969943  1.675
23222 1  -39.910090  60.691182  1.675
23223 1  -42.343473  57.828763  1.675
23224 1  -43.579684  58.527463  1.675
23225 1  -43.592697  59.947404  1.675
23226 1  -42.369499  60.668643  1.675
23227 1  -44.802882  57.806224  1.675
23228 1  -46.039093  58.504925  1.675
23229 1  -46.052106  59.924865  1.675
23230 1  -44.828908  60.646105  1.675
23231 1  -47.262291  57.783685  1.675
23232 1  -48.498502  58.482386  1.675
23233 1  -48.511515  59.902326  1.675
23234 1  -47.288317  60.623566  1.675
23235 1  -49.721700  57.761146  1.675
23236 1  -50.957911  58.459847  1.675
23237 1  -50.970924  59.879788  1.675
23238 1  -49.747726  60.601027  1.675
23239 1  -52.181109  57.738608  1.675
23240 1  -53.417320  58.437309  1.675
23241 1  -53.430332  59.857249  1.675
23242 1  -52.207134  60.578488  1.675
23243 1  -54.640518  57.716069  1.675
23244 1  -55.876729  58.414770  1.675
23245 1  -55.889741  59.834710  1.675
23246 1  -54.666543  60.555950  1.675
23247 1  -57.099927  57.693530  1.675
23248 1  -58.336137  58.392231  1.675
23249 1  -58.349150  59.812171  1.675
23250 1  -57.125952  60.533411  1.675
23251 1  -59.559336  57.670991  1.675
23252 1  -60.795546  58.369692  1.675
23253 1  -60.808559  59.789633  1.675
23254 1  -59.585361  60.510872  1.675
23255 1  -62.018744  57.648453  1.675
23256 1  -63.254955  58.347154  1.675
23257 1  -63.267968  59.767094  1.675
23258 1  -62.044770  60.488334  1.675
23259 1  -64.478153  57.625914  1.675
23260 1  -65.714364  58.324615  1.675
23261 1  -65.727377  59.744555  1.675
23262 1  -64.504179  60.465795  1.675
23263 1  -66.937562  57.603375  1.675
23264 1  -68.173773  58.302076  1.675
23265 1  -68.186786  59.722016  1.675
23266 1  -66.963588  60.443256  1.675
23267 1  -69.396971  57.580837  1.675
23268 1  -70.633182  58.279537  1.675
23269 1  -70.646195  59.699478  1.675
23270 1  -69.422996  60.420717  1.675
23271 1  -71.856380  57.558298  1.675
23272 1  -73.092591  58.256999  1.675
23273 1  -73.105603  59.676939  1.675
23274 1  -71.882405  60.398179  1.675
23275 1  -74.315789  57.535759  1.675
23276 1  -75.552000  58.234460  1.675
23277 1  -75.565012  59.654400  1.675
23278 1  -74.341814  60.375640  1.675
23279 1  -76.775198  57.513220  1.675
23280 1  -78.011408  58.211921  1.675
23281 1  -78.024421  59.631862  1.675
23282 1  -76.801223  60.353101  1.675
23283 1  -79.234607  57.490682  1.675
23284 1  -80.470817  58.189382  1.675
23285 1  -80.483830  59.609323  1.675
23286 1  -79.260632  60.330562  1.675
23287 1  -81.694015  57.468143  1.675
23288 1  -82.930226  58.166844  1.675
23289 1  -82.943239  59.586784  1.675
23290 1  -81.720041  60.308024  1.675
23291 1  -84.153424  57.445604  1.675
23292 1  -85.389635  58.144305  1.675
23293 1  -85.402648  59.564245  1.675
23294 1  -84.179450  60.285485  1.675
23295 1  -86.612833  57.423065  1.675
23296 1  -87.849044  58.121766  1.675
23297 1  -87.862057  59.541707  1.675
23298 1  -86.638859  60.262946  1.675
23299 1  -89.072242  57.400527  1.675
23300 1  -90.308453  58.099227  1.675
23301 1  -90.321466  59.519168  1.675
23302 1  -89.098267  60.240407  1.675
23303 1  -91.531651  57.377988  1.675
23304 1  -92.767862  58.076689  1.675
23305 1  -92.780874  59.496629  1.675
23306 1  -91.557676  60.217869  1.675
23307 1  -93.991060  57.355449  1.675
23308 1  -95.227271  58.054150  1.675
23309 1  -95.240283  59.474090  1.675
23310 1  -94.017085  60.195330  1.675
23311 1  -96.450469  57.332910  1.675
23312 1  -97.686679  58.031611  1.675
23313 1  -97.699692  59.451552  1.675
23314 1  -96.476494  60.172791  1.675
23315 1  -98.909877  57.310372  1.675
23316 1 -100.146088  58.009073  1.675
23317 1 -100.159101  59.429013  1.675
23318 1  -98.935903  60.150252  1.675
23319 1 -101.369286  57.287833  1.675
23320 1 -102.605497  57.986534  1.675
23321 1 -102.618510  59.406474  1.675
23322 1 -101.395312  60.127714  1.675
23323 1 -103.828695  57.265294  1.675
23324 1 -105.064906  57.963995  1.675
23325 1 -105.077919  59.383935  1.675
23326 1 -103.854721  60.105175  1.675
23327 1 -106.288104  57.242756  1.675
23328 1 -107.524315  57.941456  1.675
23329 1 -107.537328  59.361397  1.675
23330 1 -106.314130  60.082636  1.675
23331 1 -108.747513  57.220217  1.675
23332 1 -109.983724  57.918918  1.675
23333 1 -109.996737  59.338858  1.675
23334 1 -108.773538  60.060098  1.675
23335 1 -111.206922  57.197678  1.675
23336 1 -112.443133  57.896379  1.675
23337 1 -112.456145  59.316319  1.675
23338 1 -111.232947  60.037559  1.675
23339 1 -113.666331  57.175139  1.675
23340 1 -114.902542  57.873840  1.675
23341 1 -114.915554  59.293780  1.675
23342 1 -113.692356  60.015020  1.675
23343 1 -116.125740  57.152601  1.675
23344 1 -116.151765  59.992481  1.675
23345 1  115.019656  63.531063  1.675
23346 1  113.783445  64.229764  1.675
23347 1  113.770433  65.649704  1.675
23348 1  114.993631  66.370944  1.675
23349 1  112.560247  63.508524  1.675
23350 1  111.324037  64.207225  1.675
23351 1  111.311024  65.627165  1.675
23352 1  112.534222  66.348405  1.675
23353 1  110.100838  63.485985  1.675
23354 1  108.864628  64.184686  1.675
23355 1  108.851615  65.604627  1.675
23356 1  110.074813  66.325866  1.675
23357 1  107.641430  63.463447  1.675
23358 1  106.405219  64.162147  1.675
23359 1  106.392206  65.582088  1.675
23360 1  107.615404  66.303327  1.675
23361 1  105.182021  63.440908  1.675
23362 1  103.945810  64.139609  1.675
23363 1  103.932797  65.559549  1.675
23364 1  105.155995  66.280789  1.675
23365 1  102.722612  63.418369  1.675
23366 1  101.486401  64.117070  1.675
23367 1  101.473388  65.537010  1.675
23368 1  102.696586  66.258250  1.675
23369 1  100.263203  63.395830  1.675
23370 1   99.026992  64.094531  1.675
23371 1   99.013979  65.514472  1.675
23372 1  100.237178  66.235711  1.675
23373 1   97.803794  63.373292  1.675
23374 1   96.567583  64.071993  1.675
23375 1   96.554571  65.491933  1.675
23376 1   97.777769  66.213172  1.675
23377 1   95.344385  63.350753  1.675
23378 1   94.108174  64.049454  1.675
23379 1   94.095162  65.469394  1.675
23380 1   95.318360  66.190634  1.675
23381 1   92.884976  63.328214  1.675
23382 1   91.648766  64.026915  1.675
23383 1   91.635753  65.446855  1.675
23384 1   92.858951  66.168095  1.675
23385 1   90.425568  63.305676  1.675
23386 1   89.189357  64.004376  1.675
23387 1   89.176344  65.424317  1.675
23388 1   90.399542  66.145556  1.675
23389 1   87.966159  63.283137  1.675
23390 1   86.729948  63.981838  1.675
23391 1   86.716935  65.401778  1.675
23392 1   87.940133  66.123018  1.675
23393 1   85.506750  63.260598  1.675
23394 1   84.270539  63.959299  1.675
23395 1   84.257526  65.379239  1.675
23396 1   85.480724  66.100479  1.675
23397 1   83.047341  63.238059  1.675
23398 1   81.811130  63.936760  1.675
23399 1   81.798117  65.356701  1.675
23400 1   83.021315  66.077940  1.675
23401 1   80.587932  63.215521  1.675
23402 1   79.351721  63.914221  1.675
23403 1   79.338708  65.334162  1.675
23404 1   80.561907  66.055401  1.675
23405 1   78.128523  63.192982  1.675
23406 1   76.892312  63.891683  1.675
23407 1   76.879300  65.311623  1.675
23408 1   78.102498  66.032863  1.675
23409 1   75.669114  63.170443  1.675
23410 1   74.432903  63.869144  1.675
23411 1   74.419891  65.289084  1.675
23412 1   75.643089  66.010324  1.675
23413 1   73.209705  63.147904  1.675
23414 1   71.973495  63.846605  1.675
23415 1   71.960482  65.266546  1.675
23416 1   73.183680  65.987785  1.675
23417 1   70.750297  63.125366  1.675
23418 1   69.514086  63.824066  1.675
23419 1   69.501073  65.244007  1.675
23420 1   70.724271  65.965246  1.675
23421 1   68.290888  63.102827  1.675
23422 1   67.054677  63.801528  1.675
23423 1   67.041664  65.221468  1.675
23424 1   68.264862  65.942708  1.675
23425 1   65.831479  63.080288  1.675
23426 1   64.595268  63.778989  1.675
23427 1   64.582255  65.198929  1.675
23428 1   65.805453  65.920169  1.675
23429 1   63.372070  63.057749  1.675
23430 1   62.135859  63.756450  1.675
23431 1   62.122846  65.176391  1.675
23432 1   63.346044  65.897630  1.675
23433 1   60.912661  63.035211  1.675
23434 1   59.676450  63.733912  1.675
23435 1   59.663437  65.153852  1.675
23436 1   60.886636  65.875091  1.675
23437 1   58.453252  63.012672  1.675
23438 1   57.217041  63.711373  1.675
23439 1   57.204029  65.131313  1.675
23440 1   58.427227  65.852553  1.675
23441 1   55.993843  62.990133  1.675
23442 1   54.757632  63.688834  1.675
23443 1   54.744620  65.108774  1.675
23444 1   55.967818  65.830014  1.675
23445 1   53.534434  62.967594  1.675
23446 1   52.298224  63.666295  1.675
23447 1   52.285211  65.086236  1.675
23448 1   53.508409  65.807475  1.675
23449 1   51.075026  62.945056  1.675
23450 1   49.838815  63.643757  1.675
23451 1   49.825802  65.063697  1.675
23452 1   51.049000  65.784936  1.675
23453 1   48.615617  62.922517  1.675
23454 1   47.379406  63.621218  1.675
23455 1   47.366393  65.041158  1.675
23456 1   48.589591  65.762398  1.675
23457 1   46.156208  62.899978  1.675
23458 1   44.919997  63.598679  1.675
23459 1   44.906984  65.018619  1.675
23460 1   46.130182  65.739859  1.675
23461 1   43.696799  62.877440  1.675
23462 1   42.460588  63.576140  1.675
23463 1   42.447575  64.996081  1.675
23464 1   43.670773  65.717320  1.675
23465 1   41.237390  62.854901  1.675
23466 1   40.001179  63.553602  1.675
23467 1   39.988166  64.973542  1.675
23468 1   41.211365  65.694782  1.675
23469 1   38.777981  62.832362  1.675
23470 1   37.541770  63.531063  1.675
23471 1   37.528758  64.951003  1.675
23472 1   38.751956  65.672243  1.675
23473 1   36.318572  62.809823  1.675
23474 1   35.082361  63.508524  1.675
23475 1   35.069349  64.928465  1.675
23476 1   36.292547  65.649704  1.675
23477 1   33.859163  62.787285  1.675
23478 1   32.622953  63.485985  1.675
23479 1   32.609940  64.905926  1.675
23480 1   33.833138  65.627165  1.675
23481 1   31.399755  62.764746  1.675
23482 1   30.163544  63.463447  1.675
23483 1   30.150531  64.883387  1.675
23484 1   31.373729  65.604627  1.675
23485 1   28.940346  62.742207  1.675
23486 1   27.704135  63.440908  1.675
23487 1   27.691122  64.860848  1.675
23488 1   28.914320  65.582088  1.675
23489 1   26.480937  62.719668  1.675
23490 1   25.244726  63.418369  1.675
23491 1   25.231713  64.838310  1.675
23492 1   26.454911  65.559549  1.675
23493 1   24.021528  62.697130  1.675
23494 1   22.785317  63.395830  1.675
23495 1   22.772304  64.815771  1.675
23496 1   23.995502  65.537010  1.675
23497 1   21.562119  62.674591  1.675
23498 1   20.325908  63.373292  1.675
23499 1   20.312896  64.793232  1.675
23500 1   21.536094  65.514472  1.675
23501 1   19.102710  62.652052  1.675
23502 1   17.866499  63.350753  1.675
23503 1   17.853487  64.770693  1.675
23504 1   19.076685  65.491933  1.675
23505 1   16.643301  62.629513  1.675
23506 1   15.407091  63.328214  1.675
23507 1   15.394078  64.748155  1.675
23508 1   16.617276  65.469394  1.675
23509 1   14.183892  62.606975  1.675
23510 1   12.947682  63.305676  1.675
23511 1   12.934669  64.725616  1.675
23512 1   14.157867  65.446855  1.675
23513 1   11.724484  62.584436  1.675
23514 1   10.488273  63.283137  1.675
23515 1   10.475260  64.703077  1.675
23516 1   11.698458  65.424317  1.675
23517 1    9.265075  62.561897  1.675
23518 1    8.028864  63.260598  1.675
23519 1    8.015851  64.680538  1.675
23520 1    9.239049  65.401778  1.675
23521 1    6.805666  62.539358  1.675
23522 1    5.569455  63.238059  1.675
23523 1    5.556442  64.658000  1.675
23524 1    6.779640  65.379239  1.675
23525 1    4.346257  62.516820  1.675
23526 1    3.110046  63.215521  1.675
23527 1    3.097033  64.635461  1.675
23528 1    4.320231  65.356701  1.675
23529 1    1.886848  62.494281  1.675
23530 1    0.650637  63.192982  1.675
23531 1    0.637625  64.612922  1.675
23532 1    1.860823  65.334162  1.675
23533 1   -0.572561  62.471742  1.675
23534 1   -1.808772  63.170443  1.675
23535 1   -1.821784  64.590383  1.675
23536 1   -0.598586  65.311623  1.675
23537 1   -3.031970  62.449204  1.675
23538 1   -4.268180  63.147904  1.675
23539 1   -4.281193  64.567845  1.675
23540 1   -3.057995  65.289084  1.675
23541 1   -5.491379  62.426665  1.675
23542 1   -6.727589  63.125366  1.675
23543 1   -6.740602  64.545306  1.675
23544 1   -5.517404  65.266546  1.675
23545 1   -7.950787  62.404126  1.675
23546 1   -9.186998  63.102827  1.675
23547 1   -9.200011  64.522767  1.675
23548 1   -7.976813  65.244007  1.675
23549 1  -10.410196  62.381587  1.675
23550 1  -11.646407  63.080288  1.675
23551 1  -11.659420  64.500229  1.675
23552 1  -10.436222  65.221468  1.675
23553 1  -12.869605  62.359049  1.675
23554 1  -14.105816  63.057749  1.675
23555 1  -14.118829  64.477690  1.675
23556 1  -12.895631  65.198929  1.675
23557 1  -15.329014  62.336510  1.675
23558 1  -16.565225  63.035211  1.675
23559 1  -16.578238  64.455151  1.675
23560 1  -15.355040  65.176391  1.675
23561 1  -17.788423  62.313971  1.675
23562 1  -19.024634  63.012672  1.675
23563 1  -19.037646  64.432612  1.675
23564 1  -17.814448  65.153852  1.675
23565 1  -20.247832  62.291432  1.675
23566 1  -21.484043  62.990133  1.675
23567 1  -21.497055  64.410074  1.675
23568 1  -20.273857  65.131313  1.675
23569 1  -22.707241  62.268894  1.675
23570 1  -23.943451  62.967594  1.675
23571 1  -23.956464  64.387535  1.675
23572 1  -22.733266  65.108774  1.675
23573 1  -25.166650  62.246355  1.675
23574 1  -26.402860  62.945056  1.675
23575 1  -26.415873  64.364996  1.675
23576 1  -25.192675  65.086236  1.675
23577 1  -27.626058  62.223816  1.675
23578 1  -28.862269  62.922517  1.675
23579 1  -28.875282  64.342457  1.675
23580 1  -27.652084  65.063697  1.675
23581 1  -30.085467  62.201277  1.675
23582 1  -31.321678  62.899978  1.675
23583 1  -31.334691  64.319919  1.675
23584 1  -30.111493  65.041158  1.675
23585 1  -32.544876  62.178739  1.675
23586 1  -33.781087  62.877440  1.675
23587 1  -33.794100  64.297380  1.675
23588 1  -32.570902  65.018619  1.675
23589 1  -35.004285  62.156200  1.675
23590 1  -36.240496  62.854901  1.675
23591 1  -36.253509  64.274841  1.675
23592 1  -35.030311  64.996081  1.675
23593 1  -37.463694  62.133661  1.675
23594 1  -38.699905  62.832362  1.675
23595 1  -38.712917  64.252302  1.675
23596 1  -37.489719  64.973542  1.675
23597 1  -39.923103  62.111123  1.675
23598 1  -41.159314  62.809823  1.675
23599 1  -41.172326  64.229764  1.675
23600 1  -39.949128  64.951003  1.675
23601 1  -42.382512  62.088584  1.675
23602 1  -43.618722  62.787285  1.675
23603 1  -43.631735  64.207225  1.675
23604 1  -42.408537  64.928465  1.675
23605 1  -44.841921  62.066045  1.675
23606 1  -46.078131  62.764746  1.675
23607 1  -46.091144  64.184686  1.675
23608 1  -44.867946  64.905926  1.675
23609 1  -47.301329  62.043506  1.675
23610 1  -48.537540  62.742207  1.675
23611 1  -48.550553  64.162147  1.675
23612 1  -47.327355  64.883387  1.675
23613 1  -49.760738  62.020968  1.675
23614 1  -50.996949  62.719668  1.675
23615 1  -51.009962  64.139609  1.675
23616 1  -49.786764  64.860848  1.675
23617 1  -52.220147  61.998429  1.675
23618 1  -53.456358  62.697130  1.675
23619 1  -53.469371  64.117070  1.675
23620 1  -52.246173  64.838310  1.675
23621 1  -54.679556  61.975890  1.675
23622 1  -55.915767  62.674591  1.675
23623 1  -55.928780  64.094531  1.675
23624 1  -54.705581  64.815771  1.675
23625 1  -57.138965  61.953351  1.675
23626 1  -58.375176  62.652052  1.675
23627 1  -58.388188  64.071993  1.675
23628 1  -57.164990  64.793232  1.675
23629 1  -59.598374  61.930813  1.675
23630 1  -60.834585  62.629513  1.675
23631 1  -60.847597  64.049454  1.675
23632 1  -59.624399  64.770693  1.675
23633 1  -62.057783  61.908274  1.675
23634 1  -63.293993  62.606975  1.675
23635 1  -63.307006  64.026915  1.675
23636 1  -62.083808  64.748155  1.675
23637 1  -64.517191  61.885735  1.675
23638 1  -65.753402  62.584436  1.675
23639 1  -65.766415  64.004376  1.675
23640 1  -64.543217  64.725616  1.675
23641 1  -66.976600  61.863196  1.675
23642 1  -68.212811  62.561897  1.675
23643 1  -68.225824  63.981838  1.675
23644 1  -67.002626  64.703077  1.675
23645 1  -69.436009  61.840658  1.675
23646 1  -70.672220  62.539358  1.675
23647 1  -70.685233  63.959299  1.675
23648 1  -69.462035  64.680538  1.675
23649 1  -71.895418  61.818119  1.675
23650 1  -73.131629  62.516820  1.675
23651 1  -73.144642  63.936760  1.675
23652 1  -71.921444  64.658000  1.675
23653 1  -74.354827  61.795580  1.675
23654 1  -75.591038  62.494281  1.675
23655 1  -75.604051  63.914221  1.675
23656 1  -74.380852  64.635461  1.675
23657 1  -76.814236  61.773041  1.675
23658 1  -78.050447  62.471742  1.675
23659 1  -78.063459  63.891683  1.675
23660 1  -76.840261  64.612922  1.675
23661 1  -79.273645  61.750503  1.675
23662 1  -80.509856  62.449204  1.675
23663 1  -80.522868  63.869144  1.675
23664 1  -79.299670  64.590383  1.675
23665 1  -81.733054  61.727964  1.675
23666 1  -82.969264  62.426665  1.675
23667 1  -82.982277  63.846605  1.675
23668 1  -81.759079  64.567845  1.675
23669 1  -84.192462  61.705425  1.675
23670 1  -85.428673  62.404126  1.675
23671 1  -85.441686  63.824066  1.675
23672 1  -84.218488  64.545306  1.675
23673 1  -86.651871  61.682887  1.675
23674 1  -87.888082  62.381587  1.675
23675 1  -87.901095  63.801528  1.675
23676 1  -86.677897  64.522767  1.675
23677 1  -89.111280  61.660348  1.675
23678 1  -90.347491  62.359049  1.675
23679 1  -90.360504  63.778989  1.675
23680 1  -89.137306  64.500229  1.675
23681 1  -91.570689  61.637809  1.675
23682 1  -92.806900  62.336510  1.675
23683 1  -92.819913  63.756450  1.675
23684 1  -91.596715  64.477690  1.675
23685 1  -94.030098  61.615270  1.675
23686 1  -95.266309  62.313971  1.675
23687 1  -95.279322  63.733912  1.675
23688 1  -94.056123  64.455151  1.675
23689 1  -96.489507  61.592732  1.675
23690 1  -97.725718  62.291432  1.675
23691 1  -97.738730  63.711373  1.675
23692 1  -96.515532  64.432612  1.675
23693 1  -98.948916  61.570193  1.675
23694 1 -100.185127  62.268894  1.675
23695 1 -100.198139  63.688834  1.675
23696 1  -98.974941  64.410074  1.675
23697 1 -101.408325  61.547654  1.675
23698 1 -102.644535  62.246355  1.675
23699 1 -102.657548  63.666295  1.675
23700 1 -101.434350  64.387535  1.675
23701 1 -103.867733  61.525115  1.675
23702 1 -105.103944  62.223816  1.675
23703 1 -105.116957  63.643757  1.675
23704 1 -103.893759  64.364996  1.675
23705 1 -106.327142  61.502577  1.675
23706 1 -107.563353  62.201277  1.675
23707 1 -107.576366  63.621218  1.675
23708 1 -106.353168  64.342457  1.675
23709 1 -108.786551  61.480038  1.675
23710 1 -110.022762  62.178739  1.675
23711 1 -110.035775  63.598679  1.675
23712 1 -108.812577  64.319919  1.675
23713 1 -111.245960  61.457499  1.675
23714 1 -112.482171  62.156200  1.675
23715 1 -112.495184  63.576140  1.675
23716 1 -111.271986  64.297380  1.675
23717 1 -113.705369  61.434960  1.675
23718 1 -114.941580  62.133661  1.675
23719 1 -114.954593  63.553602  1.675
23720 1 -113.731394  64.274841  1.675
23721 1 -116.164778  61.412422  1.675
23722 1 -116.190803  64.252302  1.675
23723 1   38.738943  67.092183  1.675
23724 1   36.279534  67.069644  1.675
23725 1   33.820125  67.047106  1.675
23726 1   31.360716  67.024567  1.675
23727 1   28.901307  67.002028  1.675
23728 1   26.441899  66.979490  1.675
23729 1   23.982490  66.956951  1.675
23730 1   21.523081  66.934412  1.675
23731 1   19.063672  66.911873  1.675
23732 1   16.604263  66.889335  1.675
23733 1   14.144854  66.866796  1.675
23734 1   11.685445  66.844257  1.675
23735 1    9.226036  66.821718  1.675
23736 1    6.766628  66.799180  1.675
23737 1    4.307219  66.776641  1.675
23738 1    1.847810  66.754102  1.675
23739 1   -0.611599  66.731563  1.675
23740 1   -3.071008  66.709025  1.675
23741 1   -5.530417  66.686486  1.675
23742 1   -7.989826  66.663947  1.675
23743 1  -10.449235  66.641408  1.675
23744 1  -12.908643  66.618870  1.675
23745 1  -15.368052  66.596331  1.675
23746 1  -17.827461  66.573792  1.675
23747 1  -20.286870  66.551254  1.675
23748 1  -22.746279  66.528715  1.675
23749 1  -25.205688  66.506176  1.675
23750 1  -27.665097  66.483637  1.675
23751 1  -30.124506  66.461099  1.675
23752 1  -32.583914  66.438560  1.675
23753 1  -35.043323  66.416021  1.675
23754 1  -37.502732  66.393482  1.675
23755 1  -38.738943  67.092183  1.675
23756 1  -39.962141  66.370944  1.675
23757 1  -41.198352  67.069644  1.675
23758 1  -42.421550  66.348405  1.675
23759 1  -43.657761  67.047106  1.675
23760 1  -44.880959  66.325866  1.675
23761 1  -46.117170  67.024567  1.675
23762 1  -47.340368  66.303327  1.675
23763 1  -48.576578  67.002028  1.675
23764 1  -49.799776  66.280789  1.675
23765 1  -51.035987  66.979490  1.675
23766 1  -52.259185  66.258250  1.675
23767 1  -53.495396  66.956951  1.675
23768 1  -54.718594  66.235711  1.675
23769 1  -55.954805  66.934412  1.675
23770 1  -57.178003  66.213172  1.675
23771 1  -58.414214  66.911873  1.675
23772 1  -59.637412  66.190634  1.675
23773 1  -60.873623  66.889335  1.675
23774 1  -62.096821  66.168095  1.675
23775 1  -63.333032  66.866796  1.675
23776 1  -64.556230  66.145556  1.675
23777 1  -65.792441  66.844257  1.675
23778 1  -67.015639  66.123018  1.675
23779 1  -68.251849  66.821718  1.675
23780 1  -69.475047  66.100479  1.675
23781 1  -70.711258  66.799180  1.675
23782 1  -71.934456  66.077940  1.675
23783 1  -73.170667  66.776641  1.675
23784 1  -74.393865  66.055401  1.675
23785 1  -75.630076  66.754102  1.675
23786 1  -76.853274  66.032863  1.675
23787 1  -78.089485  66.731563  1.675
23788 1  -79.312683  66.010324  1.675
23789 1  -80.548894  66.709025  1.675
23790 1  -81.772092  65.987785  1.675
23791 1  -83.008303  66.686486  1.675
23792 1  -84.231501  65.965246  1.675
23793 1  -85.467712  66.663947  1.675
23794 1  -86.690910  65.942708  1.675
23795 1  -87.927120  66.641408  1.675
23796 1  -89.150318  65.920169  1.675
23797 1  -90.386529  66.618870  1.675
23798 1  -91.609727  65.897630  1.675
23799 1  -92.845938  66.596331  1.675
23800 1  -94.069136  65.875091  1.675
23801 1  -95.305347  66.573792  1.675
23802 1  -96.528545  65.852553  1.675
23803 1  -97.764756  66.551254  1.675
23804 1  -98.987954  65.830014  1.675
23805 1 -100.224165  66.528715  1.675
23806 1 -101.447363  65.807475  1.675
23807 1 -102.683574  66.506176  1.675
23808 1 -103.906772  65.784936  1.675
23809 1 -105.142983  66.483637  1.675
23810 1 -106.366181  65.762398  1.675
23811 1 -107.602391  66.461099  1.675
23812 1 -108.825589  65.739859  1.675
23813 1 -110.061800  66.438560  1.675
23814 1 -111.284998  65.717320  1.675
23815 1 -112.521209  66.416021  1.675
23816 1 -113.744407  65.694782  1.675
23817 1 -114.980618  66.393482  1.675
23818 1 -116.203816  65.672243  1.675